[TITLE]
Complex Suite Scenario: cm_cmd_trace_pressure
seed=303 districts=2x3 size=28

[JUNCTIONS]
;ID	Elev	Demand	Pattern
J1_1	183.876	0.0043079	P_IND
J1_2	190.713	0.0009333	P_RES
J1_3	197.135	0.0014482	P_RES
J1_4	202.247	0.0011014	P_RES
J1_5	208.712	0.0025990	P_COM
J1_6	214.418	0.0011206	P_RES
J1_7	219.248	0.0049033	P_COM
J1_8	225.187	0.0028332	P_RES
J1_9	229.473	0.0016557	P_COM
J1_10	236.988	0.0008742	P_RES
J1_11	242.591	0.0033021	P_COM
J1_12	246.585	0.0033470	P_IND
J1_13	252.198	0.0013134	P_COM
J1_14	257.705	0.0007482	P_RES
J1_15	263.159	0.0024817	P_COM
J1_16	270.450	0.0008857	P_RES
J1_17	276.422	0.0009369	P_RES
J1_18	281.390	0.0011915	P_RES
J1_19	286.711	0.0011851	P_RES
J1_20	292.402	0.0011409	P_RES
J1_21	297.578	0.0007126	P_RES
J1_22	303.685	0.0009460	P_RES
J1_23	309.245	0.0004566	P_RES
J1_24	314.032	0.0026307	P_IND
J1_25	320.071	0.0052012	P_IND
J1_26	326.775	0.0017984	P_RES
J1_27	331.226	0.0013197	P_RES
J1_28	336.761	0.0008428	P_RES
J1_29	342.206	0.0018205	P_RES
J1_30	347.869	0.0024919	P_RES
J1_31	353.316	0.0048364	P_IND
J1_32	359.207	0.0025640	P_COM
J1_33	365.913	0.0008230	P_RES
J1_34	371.454	0.0010503	P_RES
J1_35	376.068	0.0020566	P_RES
J1_36	382.093	0.0018646	P_RES
J1_37	386.970	0.0018140	P_RES
J1_38	393.071	0.0016094	P_RES
J1_39	397.143	0.0028132	P_IND
J1_40	403.189	0.0008299	P_RES
J1_41	407.946	0.0009128	P_RES
J1_42	413.163	0.0007753	P_RES
J1_43	419.351	0.0015610	P_RES
J1_44	425.922	0.0006266	P_RES
J1_45	430.998	0.0024824	P_IND
J1_46	437.016	0.0016221	P_RES
J1_47	442.556	0.0017465	P_RES
J1_48	447.502	0.0022732	P_RES
J1_49	451.309	0.0014481	P_RES
J1_50	457.130	0.0010072	P_RES
J1_51	463.978	0.0025090	P_RES
J1_52	467.161	0.0008219	P_RES
J1_53	473.376	0.0015987	P_RES
J1_54	478.901	0.0028207	P_COM
J1_55	484.307	0.0016287	P_COM
J1_56	490.308	0.0037200	P_IND
J1_57	495.332	0.0075670	P_COM
J1_58	501.235	0.0008161	P_RES
J1_59	505.287	0.0012532	P_RES
J1_60	510.283	0.0024206	P_COM
J1_61	515.529	0.0020392	P_IND
J1_62	521.057	0.0005262	P_RES
J1_63	526.743	0.0033724	P_COM
J1_64	530.740	0.0010547	P_RES
J1_65	535.968	0.0008733	P_RES
J1_66	542.059	0.0014295	P_RES
J1_67	546.946	0.0009635	P_RES
J1_68	552.589	0.0024249	P_COM
J1_69	557.599	0.0012755	P_COM
J1_70	563.128	0.0010174	P_RES
J1_71	567.821	0.0025271	P_COM
J1_72	574.053	0.0008520	P_RES
J1_73	578.871	0.0034863	P_IND
J1_74	583.226	0.0013171	P_RES
J1_75	588.795	0.0018578	P_RES
J1_76	593.343	0.0011586	P_RES
J1_77	598.930	0.0021856	P_IND
J1_78	603.617	0.0013403	P_RES
J1_79	610.440	0.0017611	P_RES
J1_80	613.969	0.0020792	P_RES
J1_81	621.112	0.0011975	P_RES
J1_82	625.721	0.0021853	P_RES
J1_83	631.252	0.0012620	P_RES
J1_84	634.779	0.0035696	P_IND
J2_1	183.575	0.0010302	P_RES
J2_2	189.685	0.0008545	P_RES
J2_3	194.964	0.0031090	P_COM
J2_4	199.585	0.0023542	P_RES
J2_5	205.422	0.0007744	P_RES
J2_6	210.897	0.0006035	P_RES
J2_7	218.369	0.0027800	P_IND
J2_8	224.287	0.0032776	P_IND
J2_9	228.995	0.0017356	P_RES
J2_10	235.131	0.0017985	P_COM
J2_11	241.415	0.0012769	P_RES
J2_12	244.703	0.0015745	P_RES
J2_13	251.258	0.0020197	P_COM
J2_14	256.721	0.0012569	P_RES
J2_15	262.024	0.0013431	P_RES
J2_16	268.726	0.0009523	P_RES
J2_17	273.465	0.0009906	P_RES
J2_18	280.506	0.0033522	P_RES
J2_19	285.426	0.0030320	P_IND
J2_20	291.752	0.0010888	P_RES
J2_21	296.779	0.0024304	P_RES
J2_22	302.995	0.0018796	P_RES
J2_23	307.311	0.0011503	P_RES
J2_24	312.727	0.0008685	P_RES
J2_25	318.000	0.0030013	P_COM
J2_26	325.557	0.0009583	P_RES
J2_27	331.169	0.0009629	P_RES
J2_28	336.093	0.0016082	P_RES
J2_29	340.723	0.0016062	P_RES
J2_30	347.337	0.0010019	P_RES
J2_31	352.231	0.0034867	P_IND
J2_32	358.211	0.0005602	P_RES
J2_33	363.287	0.0035413	P_IND
J2_34	368.031	0.0023673	P_COM
J2_35	373.544	0.0033242	P_IND
J2_36	380.772	0.0010994	P_RES
J2_37	384.396	0.0008339	P_RES
J2_38	389.912	0.0019504	P_COM
J2_39	395.686	0.0015653	P_COM
J2_40	402.211	0.0009267	P_RES
J2_41	406.414	0.0018743	P_RES
J2_42	413.388	0.0012866	P_RES
J2_43	419.109	0.0020168	P_COM
J2_44	424.333	0.0015061	P_RES
J2_45	429.405	0.0046556	P_IND
J2_46	435.457	0.0006336	P_RES
J2_47	440.802	0.0026787	P_RES
J2_48	445.933	0.0006434	P_RES
J2_49	451.873	0.0041984	P_IND
J2_50	455.504	0.0023219	P_RES
J2_51	461.937	0.0006795	P_RES
J2_52	466.846	0.0012550	P_RES
J2_53	473.020	0.0005758	P_RES
J2_54	477.656	0.0024817	P_IND
J2_55	483.213	0.0008494	P_RES
J2_56	487.176	0.0016331	P_RES
J2_57	492.688	0.0032206	P_IND
J2_58	498.646	0.0009310	P_RES
J2_59	505.168	0.0005261	P_RES
J2_60	510.027	0.0004581	P_RES
J2_61	515.403	0.0006366	P_RES
J2_62	518.890	0.0017022	P_RES
J2_63	524.792	0.0019994	P_RES
J2_64	531.296	0.0006934	P_RES
J2_65	535.055	0.0009517	P_RES
J2_66	541.356	0.0034445	P_COM
J2_67	544.994	0.0012426	P_RES
J2_68	552.340	0.0026891	P_COM
J2_69	557.239	0.0013205	P_RES
J2_70	562.506	0.0005643	P_RES
J2_71	567.555	0.0008486	P_RES
J2_72	571.436	0.0020066	P_COM
J2_73	577.808	0.0010522	P_RES
J2_74	583.703	0.0015480	P_RES
J2_75	586.605	0.0017457	P_RES
J2_76	591.950	0.0021616	P_RES
J2_77	597.647	0.0005029	P_RES
J2_78	603.741	0.0044928	P_IND
J2_79	607.437	0.0011896	P_RES
J2_80	614.616	0.0013384	P_RES
J2_81	617.514	0.0010034	P_RES
J2_82	623.874	0.0011000	P_RES
J2_83	628.871	0.0011630	P_RES
J2_84	634.133	0.0010820	P_RES
J3_1	182.418	0.0014604	P_COM
J3_2	187.420	0.0012733	P_RES
J3_3	193.832	0.0016902	P_RES
J3_4	199.549	0.0015057	P_RES
J3_5	204.660	0.0014918	P_RES
J3_6	211.408	0.0023767	P_RES
J3_7	216.125	0.0009877	P_RES
J3_8	222.316	0.0010940	P_RES
J3_9	227.877	0.0032949	P_RES
J3_10	232.134	0.0018917	P_COM
J3_11	237.676	0.0028861	P_COM
J3_12	243.527	0.0003550	P_RES
J3_13	251.043	0.0004830	P_RES
J3_14	256.603	0.0019618	P_RES
J3_15	261.610	0.0007762	P_RES
J3_16	267.597	0.0009237	P_RES
J3_17	273.603	0.0034597	P_IND
J3_18	277.990	0.0038198	P_COM
J3_19	284.257	0.0020805	P_IND
J3_20	288.479	0.0008074	P_RES
J3_21	296.225	0.0013555	P_RES
J3_22	301.714	0.0021477	P_IND
J3_23	305.735	0.0019538	P_RES
J3_24	310.898	0.0008305	P_RES
J3_25	318.283	0.0010600	P_RES
J3_26	322.073	0.0042499	P_COM
J3_27	329.919	0.0016354	P_RES
J3_28	334.999	0.0015146	P_RES
J3_29	340.004	0.0021344	P_COM
J3_30	346.306	0.0022225	P_COM
J3_31	351.116	0.0014950	P_RES
J3_32	356.392	0.0009482	P_RES
J3_33	362.244	0.0006073	P_RES
J3_34	368.328	0.0020792	P_RES
J3_35	373.002	0.0024327	P_COM
J3_36	378.900	0.0020713	P_RES
J3_37	383.855	0.0007503	P_RES
J3_38	388.926	0.0011983	P_RES
J3_39	395.902	0.0020052	P_IND
J3_40	399.592	0.0013520	P_RES
J3_41	406.956	0.0009274	P_RES
J3_42	411.754	0.0006964	P_RES
J3_43	417.131	0.0006816	P_RES
J3_44	421.483	0.0015179	P_RES
J3_45	428.223	0.0026790	P_RES
J3_46	433.004	0.0019475	P_RES
J3_47	438.579	0.0031331	P_IND
J3_48	444.259	0.0010126	P_RES
J3_49	449.191	0.0019676	P_COM
J3_50	455.321	0.0027249	P_COM
J3_51	458.939	0.0025304	P_RES
J3_52	465.226	0.0017142	P_RES
J3_53	469.931	0.0013154	P_RES
J3_54	476.028	0.0009269	P_RES
J3_55	480.530	0.0032824	P_COM
J3_56	487.266	0.0040195	P_COM
J3_57	492.793	0.0007810	P_RES
J3_58	498.192	0.0019998	P_RES
J3_59	503.606	0.0008971	P_RES
J3_60	506.837	0.0009974	P_RES
J3_61	513.691	0.0011754	P_RES
J3_62	518.330	0.0014093	P_RES
J3_63	523.958	0.0009070	P_RES
J3_64	529.545	0.0012111	P_RES
J3_65	533.816	0.0017478	P_RES
J3_66	539.547	0.0009616	P_RES
J3_67	544.643	0.0024978	P_RES
J3_68	550.505	0.0016321	P_RES
J3_69	554.856	0.0006546	P_RES
J3_70	559.397	0.0029844	P_RES
J3_71	566.105	0.0020458	P_RES
J3_72	570.051	0.0007115	P_COM
J3_73	575.225	0.0011149	P_RES
J3_74	581.109	0.0022739	P_RES
J3_75	585.352	0.0004298	P_RES
J3_76	590.542	0.0011649	P_RES
J3_77	597.394	0.0012445	P_COM
J3_78	602.611	0.0028065	P_IND
J3_79	607.547	0.0010644	P_RES
J3_80	610.915	0.0012404	P_RES
J3_81	617.018	0.0025988	P_RES
J3_82	622.279	0.0033596	P_IND
J3_83	628.475	0.0017681	P_RES
J3_84	631.736	0.0004336	P_RES
J4_1	180.764	0.0010165	P_RES
J4_2	185.508	0.0010174	P_RES
J4_3	192.561	0.0014620	P_COM
J4_4	196.619	0.0015737	P_RES
J4_5	203.025	0.0008580	P_RES
J4_6	209.130	0.0025788	P_COM
J4_7	214.387	0.0006583	P_RES
J4_8	219.979	0.0010639	P_RES
J4_9	225.906	0.0007768	P_RES
J4_10	230.835	0.0016866	P_RES
J4_11	238.448	0.0041301	P_IND
J4_12	244.118	0.0018121	P_RES
J4_13	249.598	0.0019238	P_RES
J4_14	254.230	0.0011895	P_RES
J4_15	259.817	0.0008729	P_RES
J4_16	265.935	0.0022250	P_RES
J4_17	270.807	0.0021207	P_RES
J4_18	276.848	0.0046396	P_IND
J4_19	283.289	0.0014809	P_RES
J4_20	288.712	0.0030987	P_COM
J4_21	293.517	0.0011910	P_RES
J4_22	298.945	0.0049327	P_COM
J4_23	304.614	0.0020677	P_IND
J4_24	311.094	0.0019229	P_RES
J4_25	315.672	0.0016396	P_RES
J4_26	321.025	0.0010423	P_RES
J4_27	326.911	0.0012962	P_RES
J4_28	332.456	0.0010420	P_RES
J4_29	337.923	0.0030352	P_IND
J4_30	343.771	0.0009201	P_RES
J4_31	348.497	0.0012525	P_COM
J4_32	354.491	0.0011845	P_RES
J4_33	360.525	0.0012946	P_RES
J4_34	366.835	0.0011681	P_RES
J4_35	370.931	0.0034565	P_COM
J4_36	376.059	0.0010229	P_RES
J4_37	383.412	0.0018226	P_RES
J4_38	388.018	0.0041643	P_RES
J4_39	392.687	0.0015573	P_RES
J4_40	399.914	0.0011031	P_RES
J4_41	404.686	0.0018967	P_RES
J4_42	408.912	0.0023058	P_COM
J4_43	415.087	0.0008884	P_RES
J4_44	421.416	0.0010243	P_RES
J4_45	425.973	0.0009892	P_RES
J4_46	431.160	0.0025360	P_COM
J4_47	437.335	0.0016197	P_RES
J4_48	442.119	0.0009683	P_RES
J4_49	448.945	0.0004281	P_RES
J4_50	452.855	0.0011786	P_RES
J4_51	458.635	0.0021710	P_RES
J4_52	463.669	0.0007874	P_RES
J4_53	468.779	0.0014579	P_RES
J4_54	475.042	0.0025246	P_COM
J4_55	480.701	0.0007057	P_RES
J4_56	484.987	0.0005195	P_RES
J4_57	489.768	0.0015957	P_RES
J4_58	496.867	0.0007188	P_RES
J4_59	500.405	0.0014602	P_COM
J4_60	507.240	0.0018196	P_RES
J4_61	512.783	0.0016496	P_RES
J4_62	515.815	0.0011497	P_RES
J4_63	521.555	0.0019424	P_RES
J4_64	528.046	0.0034935	P_IND
J4_65	532.604	0.0011319	P_RES
J4_66	538.646	0.0009815	P_RES
J4_67	543.604	0.0012221	P_RES
J4_68	548.215	0.0007944	P_RES
J4_69	552.750	0.0006863	P_RES
J4_70	557.705	0.0012208	P_RES
J4_71	565.072	0.0011177	P_RES
J4_72	568.074	0.0011348	P_RES
J4_73	573.955	0.0010687	P_RES
J4_74	579.015	0.0008254	P_RES
J4_75	585.190	0.0015934	P_RES
J4_76	591.148	0.0015938	P_RES
J4_77	595.312	0.0017050	P_RES
J4_78	599.914	0.0016548	P_RES
J4_79	606.461	0.0010335	P_RES
J4_80	610.284	0.0011845	P_RES
J4_81	616.898	0.0033121	P_COM
J4_82	621.738	0.0027054	P_RES
J4_83	625.055	0.0014421	P_RES
J4_84	631.187	0.0032048	P_IND
J5_1	178.650	0.0012234	P_RES
J5_2	186.043	0.0021037	P_IND
J5_3	191.536	0.0011193	P_RES
J5_4	195.724	0.0010565	P_RES
J5_5	200.972	0.0007703	P_RES
J5_6	207.916	0.0006991	P_RES
J5_7	214.397	0.0022453	P_RES
J5_8	218.321	0.0008499	P_RES
J5_9	223.789	0.0012032	P_RES
J5_10	229.968	0.0021958	P_IND
J5_11	236.378	0.0027485	P_COM
J5_12	241.454	0.0028245	P_RES
J5_13	248.265	0.0016585	P_RES
J5_14	253.905	0.0020654	P_COM
J5_15	257.432	0.0026608	P_COM
J5_16	262.981	0.0012544	P_RES
J5_17	268.809	0.0019856	P_COM
J5_18	276.364	0.0023513	P_RES
J5_19	281.946	0.0009132	P_RES
J5_20	285.633	0.0007161	P_RES
J5_21	292.798	0.0014653	P_RES
J5_22	297.273	0.0018884	P_COM
J5_23	303.143	0.0012618	P_RES
J5_24	310.162	0.0013973	P_RES
J5_25	314.903	0.0016323	P_RES
J5_26	319.806	0.0021398	P_COM
J5_27	325.363	0.0011374	P_RES
J5_28	330.997	0.0031433	P_COM
J5_29	336.505	0.0016869	P_RES
J5_30	342.082	0.0009745	P_RES
J5_31	348.251	0.0012189	P_RES
J5_32	353.574	0.0023956	P_RES
J5_33	358.362	0.0014552	P_RES
J5_34	365.213	0.0017406	P_RES
J5_35	371.308	0.0017247	P_RES
J5_36	375.025	0.0012494	P_RES
J5_37	380.158	0.0014847	P_COM
J5_38	387.340	0.0013773	P_RES
J5_39	393.276	0.0021549	P_RES
J5_40	396.967	0.0019920	P_RES
J5_41	402.589	0.0024982	P_COM
J5_42	408.477	0.0012407	P_RES
J5_43	413.428	0.0032613	P_IND
J5_44	420.100	0.0023098	P_COM
J5_45	424.421	0.0007841	P_RES
J5_46	429.284	0.0010519	P_RES
J5_47	434.937	0.0021539	P_RES
J5_48	441.643	0.0017280	P_IND
J5_49	445.694	0.0029502	P_COM
J5_50	451.201	0.0024951	P_IND
J5_51	456.599	0.0011767	P_RES
J5_52	461.668	0.0015754	P_COM
J5_53	467.035	0.0008757	P_RES
J5_54	473.735	0.0010210	P_RES
J5_55	479.074	0.0007986	P_RES
J5_56	484.293	0.0009328	P_RES
J5_57	487.971	0.0015984	P_COM
J5_58	495.118	0.0009905	P_COM
J5_59	499.733	0.0010573	P_RES
J5_60	504.800	0.0015254	P_RES
J5_61	510.125	0.0024080	P_RES
J5_62	516.203	0.0022794	P_RES
J5_63	521.096	0.0011753	P_RES
J5_64	526.302	0.0006208	P_RES
J5_65	530.569	0.0015290	P_IND
J5_66	537.150	0.0018355	P_RES
J5_67	542.057	0.0013121	P_RES
J5_68	547.032	0.0007526	P_RES
J5_69	551.022	0.0004192	P_RES
J5_70	557.880	0.0023840	P_IND
J5_71	563.504	0.0038021	P_RES
J5_72	568.225	0.0047076	P_IND
J5_73	572.413	0.0025095	P_RES
J5_74	578.063	0.0011349	P_RES
J5_75	582.488	0.0008563	P_RES
J5_76	587.366	0.0023798	P_RES
J5_77	592.577	0.0014722	P_RES
J5_78	599.032	0.0006292	P_RES
J5_79	604.433	0.0015569	P_COM
J5_80	609.749	0.0013149	P_RES
J5_81	615.275	0.0016173	P_RES
J5_82	620.539	0.0011631	P_RES
J5_83	624.011	0.0032174	P_RES
J5_84	629.516	0.0007308	P_RES
J6_1	177.386	0.0009454	P_RES
J6_2	184.428	0.0015513	P_RES
J6_3	188.019	0.0023064	P_COM
J6_4	194.763	0.0008504	P_RES
J6_5	201.427	0.0010834	P_RES
J6_6	206.735	0.0012850	P_RES
J6_7	212.728	0.0010755	P_RES
J6_8	217.131	0.0006860	P_RES
J6_9	223.223	0.0020254	P_IND
J6_10	229.567	0.0026633	P_RES
J6_11	234.616	0.0037275	P_COM
J6_12	240.618	0.0015123	P_RES
J6_13	246.386	0.0021463	P_COM
J6_14	251.972	0.0022280	P_RES
J6_15	257.474	0.0017497	P_COM
J6_16	263.313	0.0013947	P_RES
J6_17	268.442	0.0008892	P_RES
J6_18	272.934	0.0008781	P_RES
J6_19	280.179	0.0011432	P_RES
J6_20	285.782	0.0022692	P_RES
J6_21	291.668	0.0020633	P_RES
J6_22	297.379	0.0012519	P_RES
J6_23	302.274	0.0030483	P_IND
J6_24	307.960	0.0016020	P_IND
J6_25	314.141	0.0028339	P_RES
J6_26	318.816	0.0010499	P_RES
J6_27	323.540	0.0015634	P_RES
J6_28	329.955	0.0008350	P_RES
J6_29	334.845	0.0012816	P_RES
J6_30	340.112	0.0036074	P_IND
J6_31	347.600	0.0018652	P_IND
J6_32	351.850	0.0029087	P_RES
J6_33	358.570	0.0010653	P_RES
J6_34	363.232	0.0018713	P_COM
J6_35	367.666	0.0014098	P_RES
J6_36	374.019	0.0014473	P_RES
J6_37	379.772	0.0029213	P_IND
J6_38	386.098	0.0013964	P_RES
J6_39	391.011	0.0009351	P_RES
J6_40	396.857	0.0017433	P_COM
J6_41	400.742	0.0020909	P_COM
J6_42	407.097	0.0019440	P_IND
J6_43	411.840	0.0007542	P_RES
J6_44	418.888	0.0019095	P_RES
J6_45	422.995	0.0008917	P_RES
J6_46	428.073	0.0013828	P_RES
J6_47	434.713	0.0008267	P_RES
J6_48	438.876	0.0013228	P_COM
J6_49	445.040	0.0051635	P_IND
J6_50	450.065	0.0010337	P_RES
J6_51	456.475	0.0018007	P_COM
J6_52	461.285	0.0028088	P_RES
J6_53	465.297	0.0022141	P_IND
J6_54	470.928	0.0005303	P_RES
J6_55	476.132	0.0009598	P_RES
J6_56	481.469	0.0019452	P_COM
J6_57	486.541	0.0015486	P_RES
J6_58	494.028	0.0019654	P_RES
J6_59	498.886	0.0015610	P_RES
J6_60	504.637	0.0019700	P_RES
J6_61	509.411	0.0008928	P_RES
J6_62	513.845	0.0023419	P_RES
J6_63	518.448	0.0017477	P_RES
J6_64	523.627	0.0013565	P_RES
J6_65	529.070	0.0007104	P_RES
J6_66	535.601	0.0007857	P_RES
J6_67	541.431	0.0027463	P_COM
J6_68	544.887	0.0019125	P_RES
J6_69	551.175	0.0015324	P_RES
J6_70	555.015	0.0015513	P_RES
J6_71	561.609	0.0013855	P_RES
J6_72	566.455	0.0008551	P_RES
J6_73	571.762	0.0006463	P_RES
J6_74	576.423	0.0032609	P_COM
J6_75	580.976	0.0037593	P_COM
J6_76	586.681	0.0011621	P_RES
J6_77	593.240	0.0008360	P_RES
J6_78	596.901	0.0012104	P_RES
J6_79	601.332	0.0016126	P_COM
J6_80	608.191	0.0008489	P_RES
J6_81	613.687	0.0022263	P_IND
J6_82	616.776	0.0019460	P_COM
J6_83	622.391	0.0013631	P_RES
J6_84	627.099	0.0021888	P_COM
J7_1	177.388	0.0009291	P_RES
J7_2	181.646	0.0011576	P_RES
J7_3	187.150	0.0017633	P_COM
J7_4	192.346	0.0008787	P_RES
J7_5	199.598	0.0020550	P_RES
J7_6	203.664	0.0023278	P_RES
J7_7	210.273	0.0015039	P_RES
J7_8	216.597	0.0043264	P_IND
J7_9	221.623	0.0028064	P_COM
J7_10	226.068	0.0035806	P_IND
J7_11	233.697	0.0012334	P_COM
J7_12	237.982	0.0028386	P_COM
J7_13	244.737	0.0040314	P_COM
J7_14	250.662	0.0011158	P_RES
J7_15	256.245	0.0023384	P_COM
J7_16	261.152	0.0051312	P_IND
J7_17	267.655	0.0020017	P_RES
J7_18	271.556	0.0030637	P_IND
J7_19	279.176	0.0046558	P_COM
J7_20	282.646	0.0016293	P_COM
J7_21	288.928	0.0019793	P_RES
J7_22	295.622	0.0015163	P_RES
J7_23	300.660	0.0008618	P_RES
J7_24	307.160	0.0024484	P_RES
J7_25	311.400	0.0012192	P_COM
J7_26	317.507	0.0022908	P_COM
J7_27	322.065	0.0020232	P_IND
J7_28	328.874	0.0006142	P_RES
J7_29	333.521	0.0009581	P_RES
J7_30	339.526	0.0037190	P_IND
J7_31	344.722	0.0017596	P_RES
J7_32	351.588	0.0023582	P_RES
J7_33	355.678	0.0018936	P_RES
J7_34	362.214	0.0008612	P_RES
J7_35	366.976	0.0012373	P_RES
J7_36	372.279	0.0011630	P_COM
J7_37	377.017	0.0013500	P_RES
J7_38	382.576	0.0032192	P_COM
J7_39	388.532	0.0027770	P_IND
J7_40	395.764	0.0020871	P_RES
J7_41	399.035	0.0026056	P_RES
J7_42	405.380	0.0008555	P_RES
J7_43	411.240	0.0014944	P_RES
J7_44	416.861	0.0009979	P_RES
J7_45	421.043	0.0015569	P_RES
J7_46	426.693	0.0011632	P_RES
J7_47	433.742	0.0020550	P_RES
J7_48	438.264	0.0012623	P_RES
J7_49	443.831	0.0011164	P_RES
J7_50	448.481	0.0006044	P_RES
J7_51	453.941	0.0010151	P_RES
J7_52	458.563	0.0005837	P_RES
J7_53	463.797	0.0026887	P_RES
J7_54	469.536	0.0010288	P_RES
J7_55	476.445	0.0011063	P_RES
J7_56	480.851	0.0014321	P_RES
J7_57	486.779	0.0012967	P_COM
J7_58	492.070	0.0004727	P_RES
J7_59	496.302	0.0040307	P_IND
J7_60	501.663	0.0017312	P_RES
J7_61	507.698	0.0014395	P_RES
J7_62	513.052	0.0049582	P_IND
J7_63	517.882	0.0022748	P_COM
J7_64	523.439	0.0009414	P_COM
J7_65	527.395	0.0034295	P_IND
J7_66	533.395	0.0012014	P_COM
J7_67	539.369	0.0018541	P_RES
J7_68	542.819	0.0009410	P_COM
J7_69	549.837	0.0025697	P_RES
J7_70	555.503	0.0023475	P_RES
J7_71	559.743	0.0008763	P_RES
J7_72	563.609	0.0066603	P_COM
J7_73	569.745	0.0023418	P_RES
J7_74	574.376	0.0023005	P_RES
J7_75	581.072	0.0018611	P_COM
J7_76	585.074	0.0023616	P_RES
J7_77	591.179	0.0031474	P_COM
J7_78	595.822	0.0010728	P_RES
J7_79	601.797	0.0014901	P_RES
J7_80	605.714	0.0015471	P_RES
J7_81	612.211	0.0017061	P_RES
J7_82	616.601	0.0020567	P_RES
J7_83	621.269	0.0008984	P_RES
J7_84	626.727	0.0019524	P_RES
J8_1	175.338	0.0012696	P_RES
J8_2	181.412	0.0017552	P_COM
J8_3	185.678	0.0017512	P_COM
J8_4	191.173	0.0013015	P_RES
J8_5	198.227	0.0012749	P_RES
J8_6	203.290	0.0025397	P_RES
J8_7	208.791	0.0029207	P_COM
J8_8	214.454	0.0021005	P_RES
J8_9	220.863	0.0015791	P_RES
J8_10	226.232	0.0030478	P_IND
J8_11	232.340	0.0008919	P_RES
J8_12	236.402	0.0010484	P_RES
J8_13	242.842	0.0037052	P_IND
J8_14	249.299	0.0016339	P_RES
J8_15	252.965	0.0013003	P_COM
J8_16	259.726	0.0020125	P_IND
J8_17	265.018	0.0050564	P_COM
J8_18	271.803	0.0014938	P_COM
J8_19	277.026	0.0016264	P_RES
J8_20	281.867	0.0026407	P_IND
J8_21	288.505	0.0029893	P_IND
J8_22	294.089	0.0017048	P_RES
J8_23	299.679	0.0018069	P_RES
J8_24	303.911	0.0013254	P_RES
J8_25	310.640	0.0011938	P_RES
J8_26	315.282	0.0021688	P_RES
J8_27	320.646	0.0019135	P_RES
J8_28	327.963	0.0016382	P_RES
J8_29	332.769	0.0008340	P_RES
J8_30	338.444	0.0036423	P_RES
J8_31	342.886	0.0016345	P_RES
J8_32	348.672	0.0009422	P_RES
J8_33	353.539	0.0019466	P_RES
J8_34	359.787	0.0006248	P_RES
J8_35	365.493	0.0009181	P_IND
J8_36	370.941	0.0024058	P_COM
J8_37	377.067	0.0010553	P_RES
J8_38	381.949	0.0010888	P_RES
J8_39	388.808	0.0009707	P_RES
J8_40	392.129	0.0051904	P_COM
J8_41	399.705	0.0022629	P_IND
J8_42	404.011	0.0026107	P_RES
J8_43	410.516	0.0011546	P_RES
J8_44	415.699	0.0012592	P_COM
J8_45	419.433	0.0008920	P_RES
J8_46	426.345	0.0019543	P_COM
J8_47	432.110	0.0009708	P_RES
J8_48	437.557	0.0023249	P_COM
J8_49	442.896	0.0012292	P_RES
J8_50	448.436	0.0011530	P_RES
J8_51	453.760	0.0005954	P_RES
J8_52	457.071	0.0023232	P_COM
J8_53	464.344	0.0017614	P_RES
J8_54	468.916	0.0014130	P_RES
J8_55	473.371	0.0025218	P_COM
J8_56	478.665	0.0022193	P_IND
J8_57	484.995	0.0015456	P_RES
J8_58	489.973	0.0006330	P_RES
J8_59	495.032	0.0030665	P_RES
J8_60	499.870	0.0023578	P_IND
J8_61	506.197	0.0008414	P_RES
J8_62	511.374	0.0014278	P_RES
J8_63	517.197	0.0023118	P_RES
J8_64	521.578	0.0019135	P_RES
J8_65	527.837	0.0007485	P_RES
J8_66	531.128	0.0018369	P_RES
J8_67	537.181	0.0007013	P_RES
J8_68	541.768	0.0009704	P_RES
J8_69	546.788	0.0012122	P_RES
J8_70	553.845	0.0007130	P_RES
J8_71	557.911	0.0010095	P_RES
J8_72	563.058	0.0014412	P_RES
J8_73	567.942	0.0047432	P_COM
J8_74	574.221	0.0008135	P_RES
J8_75	578.622	0.0012082	P_RES
J8_76	584.704	0.0005125	P_RES
J8_77	588.746	0.0031821	P_COM
J8_78	595.487	0.0015231	P_RES
J8_79	600.710	0.0014564	P_IND
J8_80	605.832	0.0024979	P_COM
J8_81	610.490	0.0016935	P_RES
J8_82	613.862	0.0029078	P_IND
J8_83	619.151	0.0033504	P_COM
J8_84	625.809	0.0023806	P_RES
J9_1	174.264	0.0012542	P_RES
J9_2	178.536	0.0016425	P_COM
J9_3	184.855	0.0013958	P_RES
J9_4	191.154	0.0010854	P_COM
J9_5	196.101	0.0018544	P_RES
J9_6	201.926	0.0031578	P_RES
J9_7	207.560	0.0023710	P_RES
J9_8	212.445	0.0012432	P_RES
J9_9	217.509	0.0006285	P_RES
J9_10	223.241	0.0010176	P_RES
J9_11	229.382	0.0008875	P_RES
J9_12	236.465	0.0018483	P_RES
J9_13	241.540	0.0005794	P_RES
J9_14	246.286	0.0024931	P_IND
J9_15	251.384	0.0018523	P_RES
J9_16	258.005	0.0008040	P_RES
J9_17	264.200	0.0013834	P_RES
J9_18	268.554	0.0006148	P_RES
J9_19	275.835	0.0023142	P_COM
J9_20	281.569	0.0017644	P_RES
J9_21	285.633	0.0014241	P_RES
J9_22	290.870	0.0033986	P_IND
J9_23	298.290	0.0009057	P_RES
J9_24	303.380	0.0033791	P_COM
J9_25	308.557	0.0023890	P_RES
J9_26	313.679	0.0019499	P_RES
J9_27	319.200	0.0012701	P_RES
J9_28	324.567	0.0014046	P_COM
J9_29	331.390	0.0016843	P_IND
J9_30	336.459	0.0015031	P_RES
J9_31	342.503	0.0037382	P_IND
J9_32	346.969	0.0010931	P_RES
J9_33	354.076	0.0010965	P_RES
J9_34	359.753	0.0023497	P_COM
J9_35	365.227	0.0026422	P_IND
J9_36	370.771	0.0016284	P_RES
J9_37	375.849	0.0014311	P_RES
J9_38	380.959	0.0020248	P_COM
J9_39	386.630	0.0016130	P_COM
J9_40	390.952	0.0029305	P_IND
J9_41	398.057	0.0014437	P_RES
J9_42	402.885	0.0020156	P_RES
J9_43	407.792	0.0020074	P_RES
J9_44	414.175	0.0032026	P_RES
J9_45	419.279	0.0012552	P_RES
J9_46	424.276	0.0010648	P_RES
J9_47	428.820	0.0014281	P_COM
J9_48	435.165	0.0009011	P_RES
J9_49	439.999	0.0018083	P_RES
J9_50	445.163	0.0014203	P_RES
J9_51	450.908	0.0009361	P_RES
J9_52	455.631	0.0024071	P_RES
J9_53	462.687	0.0008855	P_RES
J9_54	467.241	0.0009986	P_RES
J9_55	473.170	0.0010622	P_RES
J9_56	476.850	0.0012548	P_COM
J9_57	484.012	0.0020938	P_COM
J9_58	487.244	0.0026564	P_COM
J9_59	494.407	0.0011965	P_RES
J9_60	499.944	0.0036925	P_IND
J9_61	505.275	0.0029884	P_IND
J9_62	509.621	0.0040237	P_COM
J9_63	515.702	0.0018986	P_COM
J9_64	518.928	0.0026651	P_RES
J9_65	525.254	0.0011581	P_RES
J9_66	531.474	0.0026530	P_IND
J9_67	535.987	0.0006438	P_RES
J9_68	541.923	0.0012040	P_COM
J9_69	546.540	0.0006382	P_RES
J9_70	550.587	0.0041247	P_COM
J9_71	556.235	0.0011146	P_COM
J9_72	560.770	0.0016386	P_RES
J9_73	566.365	0.0007631	P_RES
J9_74	572.019	0.0017084	P_RES
J9_75	578.295	0.0010260	P_RES
J9_76	581.559	0.0049517	P_COM
J9_77	588.281	0.0025376	P_COM
J9_78	592.762	0.0009164	P_RES
J9_79	598.991	0.0055609	P_IND
J9_80	602.059	0.0008343	P_RES
J9_81	607.838	0.0012832	P_COM
J9_82	613.776	0.0017885	P_RES
J9_83	619.017	0.0020333	P_COM
J9_84	623.774	0.0026887	P_COM
J10_1	171.757	0.0010872	P_RES
J10_2	176.949	0.0018800	P_COM
J10_3	182.127	0.0022919	P_RES
J10_4	188.602	0.0029123	P_RES
J10_5	193.811	0.0008177	P_RES
J10_6	199.041	0.0016784	P_RES
J10_7	204.942	0.0017510	P_RES
J10_8	211.937	0.0004850	P_RES
J10_9	218.255	0.0009576	P_RES
J10_10	221.949	0.0008584	P_RES
J10_11	227.757	0.0010140	P_RES
J10_12	234.112	0.0007796	P_RES
J10_13	239.337	0.0019853	P_RES
J10_14	244.865	0.0006733	P_RES
J10_15	250.807	0.0006601	P_RES
J10_16	256.420	0.0006839	P_RES
J10_17	262.421	0.0010284	P_RES
J10_18	268.078	0.0028971	P_COM
J10_19	273.489	0.0066042	P_IND
J10_20	278.826	0.0009742	P_RES
J10_21	284.417	0.0006655	P_RES
J10_22	291.541	0.0031415	P_COM
J10_23	295.107	0.0006597	P_RES
J10_24	301.523	0.0010387	P_RES
J10_25	307.285	0.0036895	P_IND
J10_26	313.664	0.0012477	P_COM
J10_27	317.690	0.0011114	P_RES
J10_28	323.773	0.0017085	P_RES
J10_29	328.661	0.0023096	P_RES
J10_30	335.866	0.0024655	P_RES
J10_31	341.727	0.0009263	P_RES
J10_32	346.105	0.0015125	P_RES
J10_33	352.136	0.0010389	P_RES
J10_34	356.699	0.0018516	P_RES
J10_35	362.130	0.0004925	P_RES
J10_36	369.002	0.0037296	P_IND
J10_37	374.526	0.0019094	P_COM
J10_38	378.672	0.0010225	P_RES
J10_39	385.497	0.0009112	P_RES
J10_40	391.254	0.0010254	P_RES
J10_41	395.745	0.0010875	P_RES
J10_42	400.427	0.0008294	P_RES
J10_43	406.696	0.0007944	P_RES
J10_44	411.517	0.0025411	P_RES
J10_45	416.829	0.0019323	P_RES
J10_46	422.504	0.0013871	P_COM
J10_47	427.876	0.0014089	P_COM
J10_48	433.389	0.0026322	P_RES
J10_49	439.072	0.0016378	P_RES
J10_50	443.870	0.0011494	P_RES
J10_51	448.438	0.0042925	P_IND
J10_52	454.733	0.0012906	P_RES
J10_53	460.953	0.0010596	P_RES
J10_54	466.471	0.0015945	P_COM
J10_55	470.066	0.0041614	P_COM
J10_56	476.157	0.0018234	P_COM
J10_57	480.988	0.0021133	P_COM
J10_58	486.684	0.0005648	P_RES
J10_59	492.895	0.0016210	P_RES
J10_60	496.393	0.0026223	P_RES
J10_61	502.942	0.0012097	P_RES
J10_62	507.810	0.0008745	P_RES
J10_63	512.306	0.0021453	P_RES
J10_64	517.677	0.0035400	P_RES
J10_65	523.932	0.0031869	P_COM
J10_66	528.285	0.0012315	P_RES
J10_67	533.811	0.0017996	P_RES
J10_68	539.068	0.0019007	P_RES
J10_69	544.730	0.0007967	P_RES
J10_70	549.592	0.0012870	P_RES
J10_71	555.378	0.0018056	P_RES
J10_72	559.483	0.0011519	P_RES
J10_73	564.703	0.0029268	P_COM
J10_74	569.807	0.0025253	P_RES
J10_75	576.237	0.0011863	P_RES
J10_76	580.866	0.0042685	P_COM
J10_77	585.931	0.0036599	P_COM
J10_78	592.288	0.0009275	P_RES
J10_79	597.351	0.0020804	P_COM
J10_80	602.545	0.0018263	P_RES
J10_81	605.949	0.0028601	P_IND
J10_82	613.013	0.0007266	P_RES
J10_83	617.261	0.0005886	P_RES
J10_84	623.092	0.0018185	P_RES
J11_1	169.069	0.0033439	P_IND
J11_2	175.865	0.0033115	P_IND
J11_3	181.561	0.0013542	P_RES
J11_4	186.329	0.0045927	P_RES
J11_5	191.830	0.0013464	P_RES
J11_6	197.621	0.0014075	P_RES
J11_7	203.606	0.0011945	P_COM
J11_8	209.406	0.0030079	P_RES
J11_9	214.506	0.0010757	P_RES
J11_10	221.371	0.0025726	P_RES
J11_11	227.041	0.0008768	P_RES
J11_12	233.287	0.0008762	P_RES
J11_13	238.316	0.0007424	P_RES
J11_14	244.290	0.0012523	P_RES
J11_15	248.940	0.0010189	P_RES
J11_16	254.870	0.0023386	P_COM
J11_17	260.830	0.0016700	P_RES
J11_18	266.525	0.0016257	P_COM
J11_19	271.975	0.0014456	P_COM
J11_20	278.484	0.0008986	P_RES
J11_21	282.690	0.0021521	P_COM
J11_22	289.430	0.0018950	P_COM
J11_23	294.173	0.0013722	P_RES
J11_24	300.532	0.0007073	P_RES
J11_25	304.662	0.0023286	P_IND
J11_26	312.035	0.0017780	P_RES
J11_27	316.872	0.0023293	P_RES
J11_28	323.338	0.0011286	P_RES
J11_29	328.998	0.0007502	P_RES
J11_30	333.711	0.0011845	P_RES
J11_31	338.853	0.0011139	P_COM
J11_32	344.220	0.0018949	P_RES
J11_33	350.852	0.0049144	P_IND
J11_34	354.651	0.0018592	P_RES
J11_35	360.353	0.0006797	P_RES
J11_36	366.321	0.0012948	P_RES
J11_37	371.337	0.0023207	P_RES
J11_38	378.586	0.0014485	P_RES
J11_39	383.739	0.0005411	P_RES
J11_40	387.454	0.0041265	P_RES
J11_41	393.000	0.0041954	P_COM
J11_42	399.040	0.0031089	P_COM
J11_43	403.961	0.0032967	P_IND
J11_44	409.183	0.0009982	P_RES
J11_45	416.907	0.0036893	P_COM
J11_46	420.728	0.0015799	P_RES
J11_47	427.587	0.0010320	P_RES
J11_48	431.590	0.0038279	P_IND
J11_49	436.218	0.0026694	P_RES
J11_50	443.567	0.0012260	P_COM
J11_51	447.243	0.0020042	P_COM
J11_52	453.560	0.0010723	P_RES
J11_53	459.767	0.0004051	P_RES
J11_54	464.516	0.0020219	P_COM
J11_55	469.983	0.0010717	P_COM
J11_56	475.682	0.0023335	P_RES
J11_57	479.355	0.0024120	P_COM
J11_58	484.797	0.0024570	P_COM
J11_59	490.674	0.0013504	P_COM
J11_60	495.414	0.0005720	P_RES
J11_61	501.893	0.0025512	P_RES
J11_62	505.955	0.0020540	P_COM
J11_63	510.598	0.0012096	P_RES
J11_64	515.879	0.0016343	P_RES
J11_65	521.937	0.0014297	P_RES
J11_66	527.687	0.0009082	P_RES
J11_67	533.343	0.0023318	P_COM
J11_68	538.753	0.0027365	P_RES
J11_69	543.490	0.0018623	P_COM
J11_70	549.431	0.0009522	P_RES
J11_71	553.711	0.0022707	P_RES
J11_72	557.972	0.0018540	P_RES
J11_73	565.070	0.0015728	P_RES
J11_74	569.983	0.0014273	P_RES
J11_75	573.271	0.0030761	P_COM
J11_76	580.237	0.0024813	P_RES
J11_77	583.871	0.0014981	P_RES
J11_78	588.733	0.0019544	P_RES
J11_79	594.009	0.0027708	P_COM
J11_80	601.043	0.0022720	P_RES
J11_81	604.865	0.0022891	P_COM
J11_82	610.798	0.0007685	P_RES
J11_83	615.562	0.0010081	P_RES
J11_84	620.968	0.0024846	P_RES
J12_1	168.019	0.0007956	P_RES
J12_2	173.596	0.0017115	P_COM
J12_3	180.725	0.0019071	P_RES
J12_4	185.985	0.0022180	P_RES
J12_5	190.445	0.0029606	P_COM
J12_6	195.964	0.0016077	P_RES
J12_7	201.959	0.0008486	P_RES
J12_8	209.006	0.0029502	P_COM
J12_9	213.113	0.0020033	P_IND
J12_10	218.832	0.0015578	P_RES
J12_11	225.662	0.0016915	P_RES
J12_12	230.097	0.0011820	P_RES
J12_13	236.506	0.0009383	P_RES
J12_14	241.358	0.0012196	P_RES
J12_15	248.543	0.0006017	P_RES
J12_16	254.646	0.0030555	P_COM
J12_17	258.188	0.0006518	P_RES
J12_18	265.540	0.0006267	P_RES
J12_19	271.518	0.0015162	P_RES
J12_20	275.743	0.0018882	P_RES
J12_21	282.071	0.0011437	P_RES
J12_22	287.921	0.0018434	P_RES
J12_23	293.494	0.0008742	P_RES
J12_24	299.349	0.0024613	P_COM
J12_25	304.471	0.0033567	P_COM
J12_26	308.921	0.0011366	P_RES
J12_27	314.183	0.0029180	P_IND
J12_28	320.672	0.0016814	P_RES
J12_29	325.410	0.0030392	P_IND
J12_30	333.077	0.0024056	P_IND
J12_31	336.593	0.0014073	P_RES
J12_32	344.103	0.0009060	P_RES
J12_33	349.362	0.0009025	P_RES
J12_34	354.975	0.0010062	P_RES
J12_35	359.944	0.0014978	P_COM
J12_36	365.811	0.0026574	P_IND
J12_37	370.788	0.0030612	P_IND
J12_38	375.642	0.0026717	P_COM
J12_39	381.464	0.0018657	P_RES
J12_40	387.973	0.0038298	P_RES
J12_41	392.047	0.0018953	P_COM
J12_42	397.540	0.0016261	P_RES
J12_43	404.277	0.0016749	P_RES
J12_44	408.476	0.0012342	P_RES
J12_45	415.201	0.0025202	P_COM
J12_46	420.504	0.0013714	P_RES
J12_47	424.872	0.0050672	P_IND
J12_48	431.232	0.0011255	P_RES
J12_49	435.189	0.0024302	P_COM
J12_50	442.129	0.0016759	P_RES
J12_51	447.154	0.0013524	P_RES
J12_52	451.292	0.0016017	P_RES
J12_53	458.141	0.0029117	P_RES
J12_54	463.727	0.0005893	P_RES
J12_55	468.671	0.0024778	P_RES
J12_56	472.411	0.0016525	P_COM
J12_57	478.142	0.0024626	P_IND
J12_58	484.467	0.0014029	P_RES
J12_59	489.280	0.0011713	P_RES
J12_60	495.077	0.0008004	P_RES
J12_61	500.538	0.0021248	P_RES
J12_62	504.594	0.0011268	P_RES
J12_63	510.238	0.0013895	P_RES
J12_64	514.309	0.0012413	P_RES
J12_65	521.751	0.0056191	P_COM
J12_66	526.892	0.0008612	P_RES
J12_67	530.430	0.0009567	P_RES
J12_68	536.112	0.0026187	P_IND
J12_69	542.713	0.0043900	P_COM
J12_70	546.045	0.0028178	P_IND
J12_71	551.511	0.0011660	P_RES
J12_72	558.287	0.0020570	P_RES
J12_73	563.226	0.0051661	P_COM
J12_74	567.681	0.0029840	P_COM
J12_75	573.269	0.0013875	P_RES
J12_76	579.090	0.0015368	P_RES
J12_77	582.386	0.0011069	P_RES
J12_78	587.784	0.0015882	P_RES
J12_79	593.606	0.0021634	P_COM
J12_80	597.415	0.0011545	P_RES
J12_81	604.294	0.0016039	P_RES
J12_82	609.792	0.0021742	P_RES
J12_83	613.398	0.0008375	P_RES
J12_84	618.914	0.0027931	P_COM
J13_1	167.543	0.0021007	P_RES
J13_2	173.553	0.0024106	P_RES
J13_3	179.620	0.0031017	P_COM
J13_4	184.073	0.0018219	P_COM
J13_5	189.674	0.0010747	P_RES
J13_6	194.492	0.0019031	P_RES
J13_7	201.695	0.0008891	P_RES
J13_8	205.629	0.0029559	P_RES
J13_9	211.751	0.0022667	P_COM
J13_10	218.485	0.0013598	P_RES
J13_11	223.856	0.0014830	P_RES
J13_12	228.508	0.0010139	P_RES
J13_13	234.360	0.0011851	P_RES
J13_14	241.436	0.0012234	P_RES
J13_15	245.874	0.0021589	P_COM
J13_16	252.380	0.0009730	P_RES
J13_17	257.146	0.0034902	P_IND
J13_18	263.969	0.0017059	P_COM
J13_19	269.228	0.0025546	P_COM
J13_20	274.264	0.0028861	P_RES
J13_21	279.460	0.0023912	P_COM
J13_22	285.712	0.0011221	P_RES
J13_23	291.960	0.0016619	P_RES
J13_24	296.974	0.0038979	P_IND
J13_25	303.235	0.0027502	P_COM
J13_26	309.259	0.0049274	P_COM
J13_27	313.507	0.0010226	P_COM
J13_28	318.558	0.0011127	P_RES
J13_29	325.054	0.0015176	P_RES
J13_30	330.733	0.0026731	P_IND
J13_31	335.658	0.0024466	P_RES
J13_32	341.417	0.0024900	P_RES
J13_33	347.545	0.0007033	P_RES
J13_34	351.426	0.0016962	P_RES
J13_35	358.573	0.0025076	P_COM
J13_36	363.494	0.0017899	P_RES
J13_37	368.883	0.0024611	P_RES
J13_38	373.714	0.0021955	P_RES
J13_39	379.990	0.0027618	P_COM
J13_40	386.160	0.0019037	P_COM
J13_41	390.129	0.0025866	P_IND
J13_42	397.540	0.0055996	P_IND
J13_43	401.050	0.0012774	P_RES
J13_44	407.336	0.0041302	P_COM
J13_45	412.229	0.0019982	P_RES
J13_46	417.956	0.0010466	P_RES
J13_47	422.454	0.0018396	P_COM
J13_48	429.212	0.0011125	P_RES
J13_49	433.359	0.0010710	P_RES
J13_50	438.672	0.0015892	P_RES
J13_51	443.923	0.0009249	P_RES
J13_52	449.912	0.0013849	P_RES
J13_53	454.683	0.0012950	P_RES
J13_54	459.915	0.0018355	P_RES
J13_55	466.447	0.0018494	P_RES
J13_56	471.477	0.0019839	P_RES
J13_57	476.920	0.0025782	P_COM
J13_58	481.407	0.0006646	P_RES
J13_59	488.145	0.0014000	P_RES
J13_60	492.814	0.0018409	P_COM
J13_61	498.613	0.0037993	P_COM
J13_62	504.197	0.0023178	P_IND
J13_63	508.648	0.0010028	P_RES
J13_64	512.862	0.0032422	P_IND
J13_65	519.424	0.0026562	P_COM
J13_66	523.847	0.0008521	P_RES
J13_67	530.570	0.0009727	P_RES
J13_68	534.596	0.0014348	P_RES
J13_69	541.024	0.0027162	P_COM
J13_70	544.651	0.0006884	P_RES
J13_71	551.401	0.0046700	P_IND
J13_72	555.123	0.0010924	P_RES
J13_73	559.724	0.0020301	P_COM
J13_74	565.342	0.0022322	P_COM
J13_75	570.381	0.0027056	P_IND
J13_76	575.855	0.0015613	P_RES
J13_77	581.181	0.0005684	P_COM
J13_78	586.943	0.0011015	P_RES
J13_79	592.368	0.0018408	P_COM
J13_80	596.487	0.0035685	P_COM
J13_81	601.696	0.0016652	P_RES
J13_82	608.242	0.0013971	P_RES
J13_83	613.425	0.0062984	P_IND
J13_84	617.566	0.0006446	P_RES
J14_1	164.618	0.0012522	P_RES
J14_2	170.083	0.0008205	P_RES
J14_3	176.229	0.0020795	P_RES
J14_4	182.352	0.0019992	P_RES
J14_5	189.359	0.0010615	P_RES
J14_6	194.953	0.0017406	P_RES
J14_7	200.058	0.0009161	P_RES
J14_8	205.360	0.0003518	P_RES
J14_9	210.995	0.0011505	P_RES
J14_10	215.466	0.0012762	P_COM
J14_11	222.698	0.0029673	P_IND
J14_12	228.613	0.0016740	P_COM
J14_13	233.302	0.0026474	P_COM
J14_14	238.667	0.0027480	P_COM
J14_15	243.955	0.0012112	P_RES
J14_16	251.260	0.0028650	P_COM
J14_17	255.287	0.0023672	P_RES
J14_18	262.445	0.0012158	P_RES
J14_19	266.256	0.0020929	P_COM
J14_20	273.143	0.0009650	P_RES
J14_21	279.626	0.0010766	P_RES
J14_22	285.151	0.0018464	P_COM
J14_23	288.995	0.0032164	P_RES
J14_24	296.552	0.0006199	P_RES
J14_25	302.031	0.0016978	P_COM
J14_26	306.691	0.0014859	P_COM
J14_27	312.399	0.0009233	P_RES
J14_28	318.245	0.0020191	P_RES
J14_29	323.103	0.0011759	P_RES
J14_30	329.355	0.0018339	P_COM
J14_31	334.412	0.0018299	P_RES
J14_32	338.877	0.0025422	P_IND
J14_33	346.676	0.0013232	P_COM
J14_34	351.874	0.0006805	P_RES
J14_35	357.033	0.0013191	P_RES
J14_36	361.080	0.0038403	P_IND
J14_37	366.996	0.0027333	P_RES
J14_38	373.028	0.0009062	P_RES
J14_39	378.545	0.0009303	P_RES
J14_40	383.759	0.0018750	P_RES
J14_41	388.894	0.0006144	P_RES
J14_42	394.790	0.0014935	P_RES
J14_43	401.158	0.0017276	P_COM
J14_44	406.459	0.0018295	P_IND
J14_45	410.263	0.0027375	P_COM
J14_46	415.799	0.0036771	P_IND
J14_47	420.803	0.0049467	P_IND
J14_48	426.494	0.0012493	P_RES
J14_49	432.869	0.0019482	P_RES
J14_50	438.351	0.0021367	P_COM
J14_51	443.648	0.0012682	P_RES
J14_52	447.947	0.0024722	P_IND
J14_53	453.660	0.0021958	P_COM
J14_54	460.011	0.0016363	P_RES
J14_55	463.724	0.0013875	P_RES
J14_56	470.490	0.0019778	P_COM
J14_57	474.613	0.0011347	P_RES
J14_58	480.430	0.0016083	P_RES
J14_59	486.141	0.0020153	P_RES
J14_60	491.702	0.0017031	P_COM
J14_61	496.703	0.0010093	P_RES
J14_62	502.421	0.0013675	P_RES
J14_63	506.923	0.0016391	P_RES
J14_64	513.026	0.0008807	P_RES
J14_65	517.973	0.0029810	P_RES
J14_66	524.054	0.0022979	P_COM
J14_67	527.291	0.0045787	P_IND
J14_68	533.402	0.0027061	P_IND
J14_69	539.407	0.0030552	P_IND
J14_70	543.235	0.0027910	P_COM
J14_71	549.132	0.0013831	P_RES
J14_72	554.654	0.0007137	P_RES
J14_73	560.366	0.0038112	P_COM
J14_74	564.955	0.0014687	P_COM
J14_75	570.348	0.0007251	P_RES
J14_76	575.394	0.0034477	P_COM
J14_77	578.944	0.0045677	P_COM
J14_78	584.769	0.0041042	P_COM
J14_79	589.425	0.0008033	P_RES
J14_80	595.745	0.0011529	P_RES
J14_81	600.587	0.0017930	P_COM
J14_82	605.501	0.0077889	P_IND
J14_83	611.843	0.0012403	P_RES
J14_84	615.968	0.0012320	P_RES
J15_1	164.352	0.0014680	P_COM
J15_2	168.697	0.0013866	P_RES
J15_3	175.095	0.0026913	P_COM
J15_4	181.656	0.0009080	P_RES
J15_5	186.618	0.0032657	P_RES
J15_6	193.570	0.0039586	P_RES
J15_7	198.400	0.0010804	P_RES
J15_8	204.251	0.0011696	P_RES
J15_9	208.651	0.0013498	P_RES
J15_10	215.072	0.0023221	P_RES
J15_11	220.977	0.0009506	P_RES
J15_12	226.794	0.0023280	P_COM
J15_13	233.156	0.0005826	P_RES
J15_14	238.381	0.0017113	P_COM
J15_15	243.012	0.0022441	P_COM
J15_16	250.118	0.0024961	P_RES
J15_17	254.495	0.0009362	P_RES
J15_18	260.041	0.0010590	P_RES
J15_19	264.757	0.0006290	P_RES
J15_20	271.159	0.0037724	P_IND
J15_21	278.079	0.0013593	P_RES
J15_22	282.503	0.0014911	P_RES
J15_23	287.463	0.0016024	P_RES
J15_24	294.134	0.0011543	P_RES
J15_25	298.863	0.0035727	P_RES
J15_26	303.929	0.0014474	P_RES
J15_27	311.026	0.0007624	P_RES
J15_28	315.604	0.0014725	P_RES
J15_29	320.986	0.0010344	P_RES
J15_30	328.330	0.0015680	P_COM
J15_31	332.677	0.0012513	P_RES
J15_32	337.373	0.0022345	P_RES
J15_33	342.824	0.0018056	P_COM
J15_34	349.603	0.0009405	P_COM
J15_35	355.147	0.0054279	P_IND
J15_36	361.089	0.0015692	P_RES
J15_37	365.272	0.0008357	P_RES
J15_38	370.376	0.0036521	P_COM
J15_39	378.012	0.0010400	P_RES
J15_40	383.217	0.0032858	P_COM
J15_41	387.853	0.0009530	P_RES
J15_42	393.968	0.0006603	P_RES
J15_43	399.196	0.0006900	P_RES
J15_44	405.147	0.0010193	P_RES
J15_45	409.618	0.0025917	P_IND
J15_46	415.101	0.0007169	P_RES
J15_47	420.756	0.0015831	P_RES
J15_48	424.809	0.0016501	P_RES
J15_49	432.115	0.0019718	P_RES
J15_50	436.773	0.0011735	P_RES
J15_51	441.133	0.0013109	P_RES
J15_52	447.780	0.0007795	P_RES
J15_53	451.598	0.0016470	P_RES
J15_54	457.829	0.0024592	P_COM
J15_55	463.013	0.0012302	P_RES
J15_56	467.816	0.0038548	P_IND
J15_57	474.732	0.0015327	P_RES
J15_58	479.376	0.0008363	P_RES
J15_59	484.530	0.0042056	P_COM
J15_60	490.224	0.0022389	P_RES
J15_61	494.481	0.0020924	P_RES
J15_62	500.714	0.0011384	P_RES
J15_63	505.390	0.0034299	P_RES
J15_64	510.248	0.0017685	P_RES
J15_65	517.132	0.0043540	P_IND
J15_66	521.971	0.0011834	P_RES
J15_67	526.264	0.0017434	P_RES
J15_68	530.670	0.0023764	P_RES
J15_69	538.170	0.0014058	P_RES
J15_70	543.228	0.0005280	P_RES
J15_71	547.771	0.0007057	P_RES
J15_72	553.429	0.0021973	P_RES
J15_73	557.611	0.0027677	P_IND
J15_74	563.832	0.0011510	P_RES
J15_75	567.895	0.0012702	P_RES
J15_76	574.467	0.0015289	P_RES
J15_77	577.404	0.0015643	P_RES
J15_78	582.970	0.0013735	P_RES
J15_79	588.396	0.0007957	P_RES
J15_80	594.763	0.0025530	P_RES
J15_81	599.768	0.0040796	P_IND
J15_82	603.142	0.0012078	P_RES
J15_83	608.391	0.0006261	P_RES
J15_84	613.781	0.0034498	P_RES
J16_1	163.596	0.0042392	P_COM
J16_2	169.202	0.0012851	P_COM
J16_3	174.348	0.0004218	P_RES
J16_4	179.885	0.0022281	P_RES
J16_5	184.088	0.0013035	P_RES
J16_6	191.939	0.0025661	P_RES
J16_7	196.627	0.0024797	P_RES
J16_8	203.230	0.0022838	P_RES
J16_9	208.255	0.0013356	P_RES
J16_10	214.672	0.0027063	P_RES
J16_11	220.330	0.0029033	P_COM
J16_12	224.616	0.0014418	P_RES
J16_13	230.101	0.0011420	P_RES
J16_14	235.366	0.0009317	P_RES
J16_15	241.820	0.0016126	P_RES
J16_16	246.523	0.0009916	P_RES
J16_17	253.339	0.0010248	P_RES
J16_18	259.217	0.0008244	P_RES
J16_19	265.069	0.0016742	P_COM
J16_20	271.050	0.0032508	P_IND
J16_21	274.711	0.0018614	P_RES
J16_22	280.139	0.0014087	P_COM
J16_23	285.989	0.0030532	P_IND
J16_24	291.715	0.0007452	P_RES
J16_25	298.692	0.0010402	P_RES
J16_26	304.388	0.0013889	P_RES
J16_27	308.528	0.0021660	P_COM
J16_28	315.652	0.0019875	P_COM
J16_29	321.200	0.0003619	P_RES
J16_30	326.490	0.0007341	P_RES
J16_31	331.324	0.0009666	P_RES
J16_32	336.424	0.0027017	P_COM
J16_33	341.813	0.0016045	P_RES
J16_34	347.072	0.0027011	P_RES
J16_35	352.491	0.0018158	P_COM
J16_36	358.354	0.0007099	P_RES
J16_37	363.550	0.0017224	P_RES
J16_38	369.224	0.0025947	P_COM
J16_39	375.081	0.0014244	P_COM
J16_40	379.738	0.0015501	P_RES
J16_41	387.138	0.0010796	P_COM
J16_42	392.666	0.0009486	P_COM
J16_43	397.982	0.0008961	P_RES
J16_44	403.378	0.0009726	P_RES
J16_45	407.077	0.0007017	P_RES
J16_46	414.415	0.0017855	P_RES
J16_47	419.004	0.0027823	P_COM
J16_48	423.879	0.0011398	P_RES
J16_49	430.477	0.0015610	P_RES
J16_50	433.991	0.0011751	P_RES
J16_51	440.920	0.0014257	P_COM
J16_52	445.097	0.0013826	P_RES
J16_53	450.129	0.0011580	P_RES
J16_54	457.224	0.0009554	P_RES
J16_55	462.666	0.0034759	P_COM
J16_56	466.758	0.0032876	P_COM
J16_57	471.400	0.0010732	P_RES
J16_58	478.479	0.0051098	P_COM
J16_59	482.611	0.0010154	P_RES
J16_60	489.033	0.0014350	P_RES
J16_61	494.263	0.0010325	P_RES
J16_62	498.097	0.0011565	P_RES
J16_63	503.397	0.0041045	P_IND
J16_64	508.422	0.0023200	P_RES
J16_65	514.655	0.0015745	P_RES
J16_66	519.818	0.0020174	P_RES
J16_67	525.157	0.0035781	P_IND
J16_68	529.524	0.0026333	P_RES
J16_69	535.152	0.0007984	P_RES
J16_70	541.668	0.0012907	P_RES
J16_71	547.034	0.0011658	P_RES
J16_72	550.509	0.0002524	P_RES
J16_73	556.122	0.0019512	P_RES
J16_74	560.687	0.0038727	P_IND
J16_75	567.620	0.0006849	P_RES
J16_76	571.852	0.0008886	P_RES
J16_77	576.431	0.0010160	P_RES
J16_78	580.972	0.0033028	P_IND
J16_79	588.229	0.0011624	P_RES
J16_80	592.314	0.0040479	P_IND
J16_81	598.743	0.0010188	P_RES
J16_82	603.317	0.0023726	P_RES
J16_83	606.825	0.0012376	P_COM
J16_84	612.422	0.0030700	P_COM
J17_1	161.529	0.0023995	P_IND
J17_2	167.546	0.0006766	P_RES
J17_3	172.625	0.0031763	P_COM
J17_4	177.638	0.0018911	P_RES
J17_5	184.224	0.0016225	P_RES
J17_6	189.831	0.0026862	P_RES
J17_7	195.450	0.0021340	P_COM
J17_8	199.909	0.0010838	P_RES
J17_9	207.070	0.0017896	P_RES
J17_10	212.198	0.0018866	P_IND
J17_11	218.069	0.0047733	P_IND
J17_12	223.174	0.0033297	P_RES
J17_13	230.094	0.0012047	P_RES
J17_14	233.772	0.0008570	P_RES
J17_15	240.234	0.0026326	P_RES
J17_16	245.735	0.0017081	P_RES
J17_17	251.187	0.0011674	P_RES
J17_18	256.489	0.0012787	P_RES
J17_19	261.929	0.0022695	P_RES
J17_20	268.737	0.0006722	P_RES
J17_21	275.167	0.0013315	P_RES
J17_22	280.261	0.0010297	P_RES
J17_23	284.072	0.0030084	P_RES
J17_24	289.834	0.0012797	P_RES
J17_25	297.120	0.0027096	P_IND
J17_26	302.574	0.0036509	P_IND
J17_27	307.077	0.0018134	P_RES
J17_28	314.168	0.0028943	P_COM
J17_29	318.211	0.0016974	P_RES
J17_30	323.745	0.0011197	P_RES
J17_31	328.613	0.0018238	P_COM
J17_32	335.580	0.0019375	P_RES
J17_33	339.845	0.0015629	P_COM
J17_34	345.478	0.0010399	P_RES
J17_35	351.129	0.0015628	P_RES
J17_36	357.164	0.0011383	P_RES
J17_37	363.597	0.0010277	P_RES
J17_38	368.177	0.0039544	P_RES
J17_39	373.973	0.0010751	P_RES
J17_40	379.830	0.0016518	P_RES
J17_41	385.723	0.0012723	P_RES
J17_42	388.998	0.0014362	P_RES
J17_43	396.447	0.0011166	P_RES
J17_44	400.773	0.0015977	P_RES
J17_45	406.825	0.0019038	P_RES
J17_46	411.321	0.0005023	P_RES
J17_47	416.424	0.0034758	P_COM
J17_48	423.299	0.0009084	P_RES
J17_49	428.664	0.0024308	P_COM
J17_50	432.778	0.0035506	P_COM
J17_51	439.102	0.0010467	P_RES
J17_52	445.044	0.0018674	P_RES
J17_53	450.171	0.0025089	P_RES
J17_54	453.974	0.0013387	P_COM
J17_55	459.158	0.0013375	P_RES
J17_56	466.379	0.0004208	P_RES
J17_57	470.464	0.0013465	P_RES
J17_58	476.750	0.0014118	P_RES
J17_59	480.735	0.0017193	P_RES
J17_60	487.252	0.0017803	P_RES
J17_61	492.467	0.0009083	P_RES
J17_62	497.225	0.0013756	P_RES
J17_63	502.626	0.0009961	P_RES
J17_64	508.629	0.0006891	P_COM
J17_65	512.097	0.0022582	P_RES
J17_66	517.267	0.0018399	P_COM
J17_67	524.025	0.0015708	P_RES
J17_68	529.641	0.0011252	P_RES
J17_69	533.406	0.0023492	P_RES
J17_70	539.497	0.0014644	P_RES
J17_71	544.184	0.0029623	P_COM
J17_72	549.184	0.0008440	P_RES
J17_73	555.661	0.0022552	P_RES
J17_74	559.051	0.0026067	P_COM
J17_75	564.513	0.0009077	P_RES
J17_76	571.308	0.0021850	P_RES
J17_77	574.998	0.0015164	P_RES
J17_78	581.370	0.0046101	P_IND
J17_79	586.453	0.0023880	P_RES
J17_80	590.841	0.0012836	P_COM
J17_81	595.978	0.0017026	P_RES
J17_82	602.313	0.0009740	P_RES
J17_83	607.094	0.0009041	P_RES
J17_84	610.860	0.0021880	P_IND
J18_1	158.206	0.0033914	P_COM
J18_2	165.807	0.0017125	P_RES
J18_3	170.827	0.0009442	P_RES
J18_4	176.003	0.0009390	P_RES
J18_5	181.566	0.0016417	P_COM
J18_6	188.891	0.0016242	P_RES
J18_7	193.703	0.0018940	P_COM
J18_8	198.669	0.0040012	P_IND
J18_9	205.171	0.0013936	P_RES
J18_10	211.511	0.0021933	P_RES
J18_11	216.765	0.0011777	P_RES
J18_12	222.804	0.0026927	P_IND
J18_13	227.478	0.0008059	P_RES
J18_14	232.285	0.0009806	P_RES
J18_15	239.430	0.0017479	P_RES
J18_16	243.128	0.0052530	P_IND
J18_17	248.829	0.0012226	P_RES
J18_18	255.819	0.0013676	P_RES
J18_19	262.150	0.0010331	P_RES
J18_20	267.757	0.0020555	P_RES
J18_21	272.141	0.0012736	P_RES
J18_22	276.815	0.0013926	P_RES
J18_23	284.542	0.0014120	P_RES
J18_24	289.459	0.0044718	P_IND
J18_25	295.771	0.0026799	P_IND
J18_26	300.764	0.0013937	P_RES
J18_27	304.941	0.0017867	P_RES
J18_28	311.752	0.0012604	P_RES
J18_29	317.050	0.0009756	P_COM
J18_30	323.326	0.0011147	P_COM
J18_31	327.192	0.0029851	P_IND
J18_32	333.644	0.0009081	P_RES
J18_33	339.206	0.0016796	P_RES
J18_34	344.150	0.0011177	P_RES
J18_35	349.510	0.0012468	P_RES
J18_36	356.593	0.0018761	P_COM
J18_37	361.643	0.0006768	P_RES
J18_38	366.466	0.0018924	P_COM
J18_39	372.345	0.0020067	P_RES
J18_40	377.569	0.0031217	P_COM
J18_41	383.039	0.0013021	P_RES
J18_42	387.601	0.0016170	P_RES
J18_43	393.874	0.0012528	P_RES
J18_44	399.239	0.0011688	P_RES
J18_45	406.111	0.0018137	P_RES
J18_46	409.677	0.0021748	P_COM
J18_47	414.933	0.0012381	P_RES
J18_48	419.952	0.0025439	P_RES
J18_49	426.394	0.0019703	P_RES
J18_50	432.226	0.0032527	P_COM
J18_51	437.626	0.0007508	P_RES
J18_52	443.003	0.0019859	P_COM
J18_53	447.344	0.0013075	P_RES
J18_54	452.691	0.0045935	P_COM
J18_55	458.830	0.0014810	P_RES
J18_56	463.668	0.0014595	P_RES
J18_57	468.847	0.0028525	P_COM
J18_58	474.346	0.0011817	P_RES
J18_59	480.684	0.0011773	P_COM
J18_60	484.650	0.0025458	P_COM
J18_61	491.076	0.0026546	P_COM
J18_62	495.520	0.0010316	P_RES
J18_63	500.519	0.0011193	P_RES
J18_64	506.249	0.0025460	P_COM
J18_65	511.921	0.0011928	P_RES
J18_66	516.948	0.0023701	P_IND
J18_67	521.173	0.0011584	P_COM
J18_68	527.059	0.0016151	P_RES
J18_69	532.125	0.0045487	P_IND
J18_70	537.020	0.0012584	P_RES
J18_71	541.845	0.0015897	P_RES
J18_72	548.581	0.0014572	P_RES
J18_73	554.120	0.0006588	P_RES
J18_74	558.515	0.0016679	P_IND
J18_75	562.946	0.0003610	P_RES
J18_76	568.214	0.0036494	P_RES
J18_77	574.716	0.0026808	P_RES
J18_78	579.631	0.0019005	P_IND
J18_79	584.775	0.0013879	P_RES
J18_80	589.089	0.0011134	P_RES
J18_81	595.370	0.0012537	P_COM
J18_82	600.563	0.0016535	P_RES
J18_83	605.702	0.0019815	P_COM
J18_84	609.245	0.0009838	P_RES
J19_1	158.256	0.0007302	P_RES
J19_2	164.079	0.0020377	P_RES
J19_3	169.429	0.0027960	P_COM
J19_4	174.019	0.0014873	P_RES
J19_5	180.673	0.0020665	P_RES
J19_6	186.186	0.0017394	P_RES
J19_7	192.964	0.0016402	P_RES
J19_8	196.547	0.0035726	P_COM
J19_9	204.076	0.0010506	P_RES
J19_10	209.895	0.0055108	P_RES
J19_11	213.719	0.0021576	P_COM
J19_12	220.797	0.0008761	P_RES
J19_13	225.758	0.0016489	P_RES
J19_14	231.687	0.0011360	P_RES
J19_15	235.874	0.0009856	P_RES
J19_16	241.814	0.0008770	P_RES
J19_17	247.782	0.0009510	P_RES
J19_18	252.776	0.0022716	P_COM
J19_19	258.886	0.0023814	P_RES
J19_20	266.289	0.0014567	P_RES
J19_21	269.829	0.0026604	P_COM
J19_22	275.410	0.0013990	P_RES
J19_23	282.923	0.0043033	P_IND
J19_24	288.502	0.0005871	P_RES
J19_25	294.372	0.0014254	P_RES
J19_26	299.181	0.0007620	P_COM
J19_27	304.181	0.0041919	P_IND
J19_28	310.199	0.0016532	P_RES
J19_29	316.699	0.0014123	P_RES
J19_30	321.026	0.0042510	P_COM
J19_31	327.298	0.0027742	P_RES
J19_32	333.280	0.0019046	P_COM
J19_33	337.834	0.0039873	P_RES
J19_34	342.392	0.0036231	P_IND
J19_35	348.991	0.0010260	P_RES
J19_36	354.525	0.0020881	P_RES
J19_37	359.657	0.0009838	P_RES
J19_38	365.968	0.0009923	P_RES
J19_39	371.368	0.0025387	P_COM
J19_40	375.028	0.0013890	P_RES
J19_41	380.442	0.0017843	P_RES
J19_42	386.241	0.0027571	P_RES
J19_43	391.618	0.0008359	P_RES
J19_44	398.358	0.0018607	P_IND
J19_45	403.756	0.0024452	P_COM
J19_46	409.804	0.0024527	P_COM
J19_47	414.809	0.0008850	P_RES
J19_48	418.759	0.0013111	P_RES
J19_49	424.530	0.0045966	P_IND
J19_50	431.152	0.0017455	P_COM
J19_51	434.809	0.0037230	P_IND
J19_52	439.864	0.0023940	P_COM
J19_53	447.428	0.0011063	P_RES
J19_54	452.582	0.0029625	P_RES
J19_55	457.234	0.0012400	P_RES
J19_56	462.383	0.0023177	P_RES
J19_57	466.563	0.0039198	P_IND
J19_58	473.478	0.0014908	P_RES
J19_59	479.287	0.0010790	P_RES
J19_60	484.641	0.0012837	P_RES
J19_61	488.759	0.0024250	P_COM
J19_62	493.838	0.0024927	P_IND
J19_63	500.126	0.0041485	P_COM
J19_64	505.793	0.0051107	P_COM
J19_65	509.297	0.0021795	P_RES
J19_66	515.842	0.0014504	P_RES
J19_67	520.808	0.0030006	P_COM
J19_68	525.362	0.0015023	P_RES
J19_69	530.195	0.0005127	P_RES
J19_70	535.992	0.0012522	P_RES
J19_71	540.654	0.0029899	P_RES
J19_72	546.296	0.0033221	P_RES
J19_73	550.559	0.0015712	P_RES
J19_74	557.298	0.0008031	P_RES
J19_75	561.466	0.0036463	P_COM
J19_76	566.308	0.0036517	P_COM
J19_77	572.100	0.0014822	P_RES
J19_78	578.131	0.0040153	P_COM
J19_79	583.380	0.0011773	P_RES
J19_80	587.369	0.0024540	P_RES
J19_81	593.246	0.0014480	P_RES
J19_82	597.042	0.0033409	P_COM
J19_83	602.952	0.0011321	P_RES
J19_84	609.268	0.0011815	P_RES
J20_1	157.229	0.0012330	P_RES
J20_2	162.700	0.0014542	P_RES
J20_3	167.600	0.0009593	P_COM
J20_4	173.571	0.0013654	P_RES
J20_5	179.578	0.0022246	P_RES
J20_6	184.539	0.0014919	P_RES
J20_7	190.144	0.0015352	P_RES
J20_8	195.633	0.0016519	P_RES
J20_9	200.426	0.0008587	P_RES
J20_10	207.748	0.0014619	P_RES
J20_11	213.201	0.0038681	P_IND
J20_12	217.409	0.0007914	P_RES
J20_13	223.341	0.0024382	P_COM
J20_14	230.512	0.0031730	P_IND
J20_15	235.088	0.0030059	P_RES
J20_16	240.209	0.0023569	P_COM
J20_17	247.231	0.0009673	P_RES
J20_18	252.614	0.0062180	P_COM
J20_19	257.233	0.0004319	P_RES
J20_20	264.819	0.0011246	P_RES
J20_21	269.267	0.0056653	P_RES
J20_22	274.572	0.0009398	P_RES
J20_23	281.363	0.0015577	P_COM
J20_24	285.172	0.0009363	P_RES
J20_25	291.421	0.0021599	P_RES
J20_26	297.308	0.0011584	P_RES
J20_27	303.213	0.0032519	P_COM
J20_28	307.450	0.0015554	P_RES
J20_29	314.292	0.0009617	P_RES
J20_30	320.368	0.0011081	P_COM
J20_31	325.132	0.0023212	P_RES
J20_32	329.937	0.0016692	P_COM
J20_33	335.366	0.0019965	P_IND
J20_34	342.157	0.0049073	P_RES
J20_35	347.657	0.0012309	P_RES
J20_36	353.271	0.0016988	P_RES
J20_37	356.926	0.0011256	P_RES
J20_38	364.311	0.0005374	P_RES
J20_39	368.729	0.0019567	P_IND
J20_40	375.678	0.0004611	P_RES
J20_41	380.050	0.0038353	P_COM
J20_42	385.730	0.0029052	P_COM
J20_43	390.160	0.0034333	P_COM
J20_44	395.642	0.0019221	P_RES
J20_45	401.399	0.0022771	P_COM
J20_46	406.212	0.0017966	P_RES
J20_47	412.491	0.0017267	P_RES
J20_48	417.724	0.0032093	P_RES
J20_49	422.796	0.0021586	P_COM
J20_50	428.077	0.0010802	P_RES
J20_51	433.610	0.0028369	P_RES
J20_52	440.130	0.0025296	P_RES
J20_53	445.604	0.0018962	P_RES
J20_54	451.093	0.0027629	P_IND
J20_55	454.276	0.0013217	P_RES
J20_56	460.995	0.0012367	P_RES
J20_57	465.906	0.0012971	P_RES
J20_58	471.883	0.0030734	P_COM
J20_59	476.628	0.0023858	P_COM
J20_60	480.941	0.0015397	P_RES
J20_61	487.504	0.0017146	P_RES
J20_62	491.722	0.0011073	P_RES
J20_63	498.264	0.0011285	P_RES
J20_64	503.989	0.0016345	P_RES
J20_65	507.101	0.0016543	P_RES
J20_66	512.420	0.0011772	P_RES
J20_67	518.491	0.0021152	P_RES
J20_68	524.001	0.0008433	P_RES
J20_69	528.641	0.0031858	P_RES
J20_70	533.479	0.0021875	P_RES
J20_71	539.373	0.0023816	P_COM
J20_72	545.465	0.0011131	P_RES
J20_73	548.971	0.0011725	P_RES
J20_74	554.951	0.0041377	P_IND
J20_75	560.248	0.0034032	P_RES
J20_76	564.832	0.0035566	P_COM
J20_77	570.038	0.0024528	P_RES
J20_78	575.744	0.0020202	P_RES
J20_79	580.610	0.0029197	P_IND
J20_80	585.172	0.0011324	P_RES
J20_81	592.422	0.0007512	P_RES
J20_82	596.416	0.0005673	P_RES
J20_83	602.561	0.0017941	P_RES
J20_84	606.470	0.0015497	P_COM
J21_1	154.436	0.0008709	P_RES
J21_2	160.697	0.0010694	P_RES
J21_3	165.912	0.0012832	P_COM
J21_4	170.691	0.0013902	P_RES
J21_5	178.255	0.0014457	P_RES
J21_6	183.352	0.0015139	P_RES
J21_7	188.423	0.0018010	P_RES
J21_8	194.548	0.0008417	P_RES
J21_9	199.875	0.0007209	P_RES
J21_10	205.661	0.0034198	P_IND
J21_11	211.504	0.0027391	P_RES
J21_12	216.319	0.0012021	P_RES
J21_13	221.880	0.0010596	P_RES
J21_14	227.967	0.0006447	P_RES
J21_15	233.434	0.0014387	P_COM
J21_16	239.036	0.0011616	P_RES
J21_17	245.479	0.0032728	P_IND
J21_18	251.484	0.0016489	P_RES
J21_19	256.030	0.0022781	P_COM
J21_20	262.801	0.0012275	P_RES
J21_21	266.968	0.0027207	P_RES
J21_22	273.899	0.0016040	P_RES
J21_23	278.325	0.0017217	P_RES
J21_24	285.008	0.0033169	P_IND
J21_25	289.733	0.0011921	P_RES
J21_26	296.685	0.0008869	P_RES
J21_27	301.470	0.0018930	P_RES
J21_28	306.941	0.0009942	P_RES
J21_29	311.773	0.0014963	P_RES
J21_30	316.969	0.0009461	P_RES
J21_31	322.868	0.0022220	P_RES
J21_32	329.398	0.0019791	P_COM
J21_33	334.800	0.0049048	P_IND
J21_34	339.254	0.0010367	P_RES
J21_35	346.157	0.0016451	P_RES
J21_36	350.647	0.0019946	P_RES
J21_37	356.321	0.0008091	P_RES
J21_38	361.946	0.0011509	P_RES
J21_39	368.486	0.0019623	P_COM
J21_40	371.960	0.0018474	P_IND
J21_41	378.004	0.0016976	P_COM
J21_42	382.690	0.0024972	P_RES
J21_43	388.204	0.0018133	P_RES
J21_44	395.135	0.0013368	P_RES
J21_45	399.233	0.0012713	P_RES
J21_46	404.531	0.0024669	P_COM
J21_47	410.990	0.0011877	P_RES
J21_48	415.236	0.0010598	P_RES
J21_49	421.259	0.0012390	P_RES
J21_50	426.550	0.0011095	P_RES
J21_51	432.419	0.0005085	P_RES
J21_52	437.842	0.0014945	P_RES
J21_53	442.946	0.0014270	P_RES
J21_54	448.788	0.0026709	P_COM
J21_55	454.312	0.0012478	P_RES
J21_56	460.104	0.0029870	P_COM
J21_57	465.287	0.0012439	P_RES
J21_58	469.991	0.0026704	P_RES
J21_59	474.806	0.0012805	P_RES
J21_60	479.371	0.0021839	P_RES
J21_61	486.258	0.0018140	P_RES
J21_62	490.577	0.0018955	P_COM
J21_63	496.997	0.0012456	P_RES
J21_64	500.563	0.0016283	P_RES
J21_65	507.863	0.0013983	P_RES
J21_66	511.460	0.0037077	P_COM
J21_67	516.455	0.0008744	P_RES
J21_68	521.883	0.0014872	P_RES
J21_69	528.640	0.0007502	P_COM
J21_70	533.669	0.0010329	P_RES
J21_71	537.367	0.0017298	P_IND
J21_72	543.550	0.0008289	P_RES
J21_73	548.598	0.0020245	P_RES
J21_74	553.574	0.0040634	P_COM
J21_75	558.051	0.0014716	P_RES
J21_76	563.956	0.0025995	P_COM
J21_77	567.996	0.0010619	P_RES
J21_78	574.207	0.0025127	P_RES
J21_79	578.578	0.0008858	P_RES
J21_80	584.887	0.0014237	P_RES
J21_81	589.982	0.0008784	P_RES
J21_82	593.718	0.0006312	P_RES
J21_83	600.968	0.0007150	P_RES
J21_84	605.066	0.0010256	P_COM
J22_1	152.813	0.0023821	P_RES
J22_2	158.771	0.0008297	P_RES
J22_3	164.445	0.0004561	P_RES
J22_4	169.557	0.0019870	P_RES
J22_5	174.888	0.0012465	P_RES
J22_6	181.712	0.0010959	P_RES
J22_7	186.116	0.0018747	P_IND
J22_8	192.007	0.0017216	P_COM
J22_9	198.171	0.0044172	P_IND
J22_10	203.816	0.0014401	P_COM
J22_11	210.198	0.0015076	P_RES
J22_12	215.479	0.0008377	P_RES
J22_13	220.342	0.0009740	P_RES
J22_14	227.824	0.0005377	P_RES
J22_15	232.172	0.0008566	P_RES
J22_16	239.074	0.0027988	P_COM
J22_17	242.396	0.0023407	P_RES
J22_18	248.726	0.0019426	P_COM
J22_19	255.606	0.0004849	P_RES
J22_20	260.797	0.0007090	P_RES
J22_21	266.620	0.0044580	P_COM
J22_22	271.712	0.0021940	P_IND
J22_23	278.010	0.0033097	P_RES
J22_24	282.584	0.0009672	P_RES
J22_25	289.289	0.0017562	P_COM
J22_26	294.433	0.0014451	P_RES
J22_27	300.305	0.0009779	P_RES
J22_28	304.604	0.0041671	P_RES
J22_29	310.994	0.0012396	P_RES
J22_30	316.842	0.0011412	P_RES
J22_31	320.812	0.0009305	P_RES
J22_32	326.931	0.0009739	P_RES
J22_33	331.768	0.0016487	P_RES
J22_34	338.549	0.0008430	P_RES
J22_35	343.919	0.0014104	P_RES
J22_36	349.372	0.0010791	P_RES
J22_37	355.783	0.0014881	P_RES
J22_38	360.989	0.0013584	P_RES
J22_39	364.812	0.0008840	P_RES
J22_40	370.658	0.0046464	P_COM
J22_41	377.125	0.0018696	P_RES
J22_42	383.289	0.0008971	P_RES
J22_43	388.424	0.0009986	P_RES
J22_44	392.530	0.0046493	P_COM
J22_45	398.540	0.0016722	P_RES
J22_46	404.171	0.0022250	P_RES
J22_47	408.828	0.0021900	P_IND
J22_48	414.024	0.0018257	P_RES
J22_49	419.085	0.0011619	P_RES
J22_50	426.722	0.0020681	P_RES
J22_51	431.182	0.0021933	P_IND
J22_52	436.748	0.0016677	P_RES
J22_53	440.978	0.0033987	P_RES
J22_54	446.810	0.0011698	P_RES
J22_55	452.505	0.0014158	P_RES
J22_56	457.037	0.0030475	P_RES
J22_57	463.013	0.0026450	P_COM
J22_58	468.990	0.0012684	P_RES
J22_59	472.477	0.0009411	P_RES
J22_60	479.576	0.0021982	P_IND
J22_61	482.866	0.0010134	P_RES
J22_62	489.207	0.0009859	P_RES
J22_63	495.472	0.0039506	P_COM
J22_64	500.118	0.0009547	P_RES
J22_65	503.898	0.0019403	P_COM
J22_66	511.144	0.0005594	P_RES
J22_67	514.641	0.0020075	P_COM
J22_68	520.737	0.0017437	P_COM
J22_69	527.063	0.0010100	P_RES
J22_70	530.519	0.0007567	P_RES
J22_71	536.845	0.0021241	P_COM
J22_72	541.376	0.0008876	P_RES
J22_73	546.770	0.0013985	P_COM
J22_74	551.706	0.0011281	P_RES
J22_75	555.967	0.0027361	P_IND
J22_76	562.164	0.0012771	P_RES
J22_77	567.716	0.0017020	P_COM
J22_78	573.258	0.0023235	P_COM
J22_79	576.608	0.0026077	P_IND
J22_80	584.048	0.0014108	P_RES
J22_81	587.752	0.0020757	P_RES
J22_82	593.536	0.0007544	P_RES
J22_83	598.133	0.0018606	P_COM
J22_84	602.491	0.0012899	P_RES
J23_1	151.960	0.0034832	P_IND
J23_2	156.304	0.0010555	P_RES
J23_3	161.537	0.0010166	P_RES
J23_4	168.802	0.0012939	P_RES
J23_5	175.136	0.0008951	P_RES
J23_6	180.459	0.0016858	P_RES
J23_7	185.571	0.0023212	P_IND
J23_8	191.498	0.0010830	P_RES
J23_9	197.305	0.0027514	P_COM
J23_10	201.910	0.0032687	P_IND
J23_11	207.182	0.0015723	P_RES
J23_12	214.657	0.0017537	P_RES
J23_13	220.450	0.0020430	P_RES
J23_14	225.161	0.0010043	P_RES
J23_15	229.935	0.0011626	P_RES
J23_16	236.634	0.0023706	P_IND
J23_17	241.138	0.0008539	P_RES
J23_18	246.717	0.0022609	P_RES
J23_19	254.183	0.0015291	P_COM
J23_20	258.008	0.0017552	P_RES
J23_21	264.940	0.0011131	P_RES
J23_22	270.686	0.0031371	P_RES
J23_23	274.758	0.0017685	P_COM
J23_24	281.914	0.0008970	P_COM
J23_25	287.971	0.0016884	P_RES
J23_26	293.568	0.0010655	P_RES
J23_27	297.767	0.0019663	P_RES
J23_28	304.696	0.0009402	P_COM
J23_29	309.292	0.0015791	P_RES
J23_30	314.282	0.0007551	P_RES
J23_31	319.277	0.0007301	P_RES
J23_32	325.581	0.0026589	P_COM
J23_33	332.392	0.0021195	P_COM
J23_34	337.490	0.0016632	P_RES
J23_35	341.371	0.0007522	P_RES
J23_36	346.833	0.0027009	P_COM
J23_37	352.334	0.0020793	P_RES
J23_38	359.861	0.0014124	P_RES
J23_39	363.370	0.0017262	P_COM
J23_40	370.127	0.0010267	P_COM
J23_41	375.287	0.0009687	P_COM
J23_42	380.404	0.0015575	P_RES
J23_43	385.235	0.0014363	P_RES
J23_44	391.620	0.0009868	P_RES
J23_45	397.004	0.0008743	P_RES
J23_46	401.668	0.0012005	P_RES
J23_47	407.888	0.0009691	P_RES
J23_48	413.264	0.0015704	P_RES
J23_49	417.506	0.0014397	P_RES
J23_50	424.135	0.0010913	P_RES
J23_51	430.080	0.0021992	P_RES
J23_52	434.515	0.0013048	P_RES
J23_53	439.284	0.0017138	P_RES
J23_54	445.003	0.0008275	P_RES
J23_55	449.996	0.0012984	P_RES
J23_56	455.457	0.0078766	P_COM
J23_57	462.143	0.0010377	P_RES
J23_58	465.828	0.0026417	P_COM
J23_59	472.539	0.0006463	P_RES
J23_60	476.459	0.0022638	P_COM
J23_61	483.525	0.0032913	P_COM
J23_62	487.102	0.0019323	P_RES
J23_63	493.239	0.0014563	P_COM
J23_64	498.030	0.0014666	P_RES
J23_65	503.822	0.0008524	P_RES
J23_66	509.726	0.0012918	P_COM
J23_67	514.504	0.0018703	P_RES
J23_68	518.765	0.0013702	P_RES
J23_69	524.457	0.0023293	P_COM
J23_70	529.473	0.0009339	P_RES
J23_71	533.603	0.0007754	P_RES
J23_72	539.138	0.0032856	P_IND
J23_73	544.465	0.0005713	P_RES
J23_74	549.793	0.0014264	P_RES
J23_75	556.522	0.0029098	P_COM
J23_76	561.369	0.0023354	P_RES
J23_77	566.377	0.0008968	P_RES
J23_78	571.073	0.0025089	P_COM
J23_79	577.014	0.0013490	P_RES
J23_80	581.775	0.0005020	P_RES
J23_81	587.178	0.0016248	P_RES
J23_82	592.446	0.0032978	P_COM
J23_83	596.584	0.0008338	P_RES
J23_84	600.742	0.0016932	P_RES
J24_1	150.383	0.0014963	P_COM
J24_2	156.504	0.0018483	P_COM
J24_3	160.172	0.0030847	P_IND
J24_4	166.686	0.0029221	P_COM
J24_5	171.451	0.0008519	P_RES
J24_6	178.161	0.0017572	P_RES
J24_7	184.802	0.0006488	P_RES
J24_8	189.085	0.0014650	P_RES
J24_9	194.193	0.0006465	P_RES
J24_10	201.536	0.0011871	P_RES
J24_11	206.847	0.0020517	P_RES
J24_12	213.219	0.0021748	P_COM
J24_13	217.737	0.0007933	P_RES
J24_14	223.341	0.0015354	P_RES
J24_15	228.465	0.0016302	P_RES
J24_16	233.756	0.0025628	P_RES
J24_17	240.911	0.0004641	P_RES
J24_18	245.217	0.0007109	P_RES
J24_19	252.689	0.0035469	P_COM
J24_20	258.298	0.0016696	P_RES
J24_21	263.490	0.0010601	P_RES
J24_22	268.259	0.0023296	P_COM
J24_23	272.910	0.0015862	P_COM
J24_24	279.693	0.0022247	P_RES
J24_25	284.577	0.0006148	P_RES
J24_26	291.056	0.0011562	P_RES
J24_27	297.482	0.0014392	P_RES
J24_28	301.957	0.0014580	P_RES
J24_29	307.952	0.0005858	P_RES
J24_30	311.990	0.0022240	P_RES
J24_31	319.557	0.0013701	P_RES
J24_32	324.741	0.0027171	P_IND
J24_33	330.540	0.0009081	P_RES
J24_34	336.052	0.0025326	P_IND
J24_35	341.549	0.0024999	P_COM
J24_36	345.150	0.0032538	P_COM
J24_37	352.284	0.0017708	P_RES
J24_38	358.046	0.0018254	P_RES
J24_39	362.105	0.0034160	P_COM
J24_40	367.556	0.0016053	P_RES
J24_41	373.840	0.0021256	P_IND
J24_42	377.879	0.0010880	P_RES
J24_43	385.017	0.0025639	P_COM
J24_44	390.048	0.0023631	P_RES
J24_45	396.090	0.0013356	P_RES
J24_46	401.955	0.0012320	P_RES
J24_47	405.737	0.0007446	P_RES
J24_48	411.264	0.0013128	P_RES
J24_49	417.108	0.0008648	P_RES
J24_50	422.576	0.0010289	P_RES
J24_51	426.632	0.0014784	P_RES
J24_52	432.820	0.0023323	P_RES
J24_53	438.498	0.0018876	P_RES
J24_54	442.568	0.0010927	P_RES
J24_55	448.741	0.0014275	P_RES
J24_56	454.212	0.0019839	P_RES
J24_57	460.782	0.0009732	P_RES
J24_58	463.987	0.0027591	P_RES
J24_59	469.339	0.0028368	P_RES
J24_60	474.478	0.0006592	P_RES
J24_61	479.922	0.0010957	P_RES
J24_62	486.877	0.0044510	P_IND
J24_63	491.422	0.0024275	P_COM
J24_64	496.045	0.0015005	P_RES
J24_65	501.703	0.0003298	P_RES
J24_66	507.766	0.0017072	P_RES
J24_67	512.633	0.0021920	P_COM
J24_68	517.898	0.0015964	P_RES
J24_69	522.246	0.0019336	P_RES
J24_70	527.048	0.0019167	P_IND
J24_71	532.875	0.0027429	P_RES
J24_72	538.949	0.0010899	P_RES
J24_73	543.845	0.0019569	P_COM
J24_74	547.745	0.0017022	P_COM
J24_75	553.101	0.0037388	P_IND
J24_76	558.627	0.0037624	P_IND
J24_77	563.980	0.0009400	P_RES
J24_78	568.386	0.0022861	P_COM
J24_79	574.062	0.0044556	P_IND
J24_80	579.331	0.0021931	P_RES
J24_81	585.453	0.0012898	P_RES
J24_82	590.985	0.0017989	P_RES
J24_83	595.183	0.0015391	P_IND
J24_84	601.065	0.0025590	P_COM
J25_1	147.077	0.0006161	P_RES
J25_2	154.250	0.0021104	P_COM
J25_3	159.821	0.0017116	P_RES
J25_4	164.265	0.0025044	P_IND
J25_5	171.800	0.0018462	P_RES
J25_6	177.277	0.0025560	P_IND
J25_7	181.197	0.0014828	P_RES
J25_8	187.087	0.0026328	P_IND
J25_9	194.734	0.0018375	P_RES
J25_10	199.244	0.0011039	P_RES
J25_11	204.066	0.0016303	P_RES
J25_12	210.385	0.0040195	P_IND
J25_13	216.400	0.0039454	P_IND
J25_14	220.909	0.0023959	P_IND
J25_15	227.246	0.0012180	P_RES
J25_16	232.922	0.0010943	P_RES
J25_17	239.599	0.0014676	P_RES
J25_18	243.659	0.0022154	P_COM
J25_19	249.486	0.0018693	P_RES
J25_20	255.062	0.0020631	P_RES
J25_21	260.891	0.0030100	P_RES
J25_22	266.458	0.0016544	P_COM
J25_23	271.286	0.0011274	P_RES
J25_24	278.217	0.0012154	P_COM
J25_25	284.054	0.0025470	P_COM
J25_26	289.835	0.0032335	P_COM
J25_27	295.333	0.0015197	P_COM
J25_28	301.198	0.0036203	P_COM
J25_29	306.326	0.0020814	P_COM
J25_30	311.150	0.0014214	P_RES
J25_31	316.859	0.0012311	P_RES
J25_32	321.506	0.0015151	P_COM
J25_33	328.339	0.0050916	P_IND
J25_34	332.863	0.0006866	P_RES
J25_35	339.396	0.0021046	P_RES
J25_36	345.667	0.0012679	P_RES
J25_37	349.480	0.0030087	P_COM
J25_38	355.340	0.0010085	P_RES
J25_39	361.474	0.0017781	P_RES
J25_40	367.478	0.0013490	P_COM
J25_41	373.056	0.0011929	P_RES
J25_42	377.887	0.0010657	P_RES
J25_43	383.432	0.0039043	P_COM
J25_44	387.807	0.0016156	P_RES
J25_45	393.730	0.0011626	P_RES
J25_46	399.982	0.0016343	P_RES
J25_47	405.650	0.0013181	P_RES
J25_48	409.869	0.0016831	P_RES
J25_49	415.456	0.0011822	P_RES
J25_50	420.015	0.0042531	P_COM
J25_51	426.151	0.0048956	P_IND
J25_52	431.804	0.0029364	P_COM
J25_53	436.303	0.0012908	P_RES
J25_54	441.931	0.0023889	P_COM
J25_55	448.222	0.0019011	P_RES
J25_56	453.961	0.0013573	P_RES
J25_57	458.423	0.0020859	P_RES
J25_58	464.491	0.0042177	P_IND
J25_59	469.526	0.0047991	P_IND
J25_60	473.676	0.0025130	P_COM
J25_61	478.960	0.0023012	P_COM
J25_62	485.516	0.0010531	P_RES
J25_63	490.587	0.0024158	P_RES
J25_64	495.139	0.0020812	P_COM
J25_65	500.131	0.0018804	P_RES
J25_66	505.557	0.0026303	P_COM
J25_67	511.611	0.0007373	P_RES
J25_68	515.082	0.0011579	P_RES
J25_69	521.115	0.0017853	P_RES
J25_70	526.311	0.0008317	P_RES
J25_71	530.668	0.0016353	P_RES
J25_72	536.783	0.0010964	P_COM
J25_73	542.113	0.0007363	P_RES
J25_74	546.763	0.0008849	P_RES
J25_75	551.948	0.0008042	P_RES
J25_76	556.689	0.0012724	P_RES
J25_77	563.470	0.0058925	P_IND
J25_78	567.502	0.0019876	P_RES
J25_79	572.919	0.0014880	P_COM
J25_80	577.641	0.0012753	P_RES
J25_81	582.169	0.0009039	P_RES
J25_82	587.578	0.0035965	P_RES
J25_83	593.754	0.0014433	P_COM
J25_84	598.947	0.0022025	P_RES
J26_1	147.015	0.0027152	P_IND
J26_2	152.379	0.0024943	P_RES
J26_3	158.695	0.0022742	P_COM
J26_4	164.058	0.0023675	P_IND
J26_5	168.776	0.0017797	P_RES
J26_6	175.542	0.0071232	P_IND
J26_7	180.523	0.0041596	P_IND
J26_8	186.115	0.0039742	P_RES
J26_9	192.879	0.0023080	P_RES
J26_10	197.467	0.0051582	P_IND
J26_11	203.313	0.0013397	P_RES
J26_12	210.094	0.0034232	P_IND
J26_13	214.623	0.0007255	P_RES
J26_14	219.609	0.0021454	P_COM
J26_15	226.909	0.0013886	P_RES
J26_16	232.279	0.0009990	P_RES
J26_17	236.732	0.0024983	P_COM
J26_18	241.888	0.0064308	P_COM
J26_19	248.545	0.0032135	P_IND
J26_20	255.148	0.0015161	P_RES
J26_21	259.576	0.0008915	P_COM
J26_22	264.645	0.0028119	P_IND
J26_23	270.068	0.0016208	P_RES
J26_24	277.055	0.0011226	P_RES
J26_25	282.050	0.0015853	P_RES
J26_26	286.562	0.0011421	P_RES
J26_27	293.840	0.0019102	P_COM
J26_28	299.787	0.0028609	P_COM
J26_29	304.833	0.0009711	P_RES
J26_30	309.054	0.0027947	P_RES
J26_31	315.891	0.0022378	P_RES
J26_32	321.155	0.0023989	P_IND
J26_33	327.612	0.0048954	P_COM
J26_34	331.132	0.0022305	P_RES
J26_35	337.616	0.0010590	P_RES
J26_36	342.304	0.0010083	P_RES
J26_37	347.887	0.0025812	P_COM
J26_38	354.962	0.0007155	P_RES
J26_39	360.343	0.0014967	P_RES
J26_40	364.265	0.0005138	P_RES
J26_41	369.553	0.0024055	P_RES
J26_42	374.829	0.0011955	P_RES
J26_43	380.269	0.0016735	P_COM
J26_44	385.896	0.0027731	P_COM
J26_45	391.766	0.0021126	P_COM
J26_46	398.077	0.0006688	P_RES
J26_47	402.680	0.0045876	P_COM
J26_48	409.498	0.0009472	P_RES
J26_49	414.061	0.0011516	P_RES
J26_50	418.064	0.0012388	P_RES
J26_51	423.529	0.0014095	P_RES
J26_52	430.177	0.0031202	P_COM
J26_53	435.008	0.0003169	P_RES
J26_54	439.870	0.0011317	P_RES
J26_55	444.925	0.0024460	P_RES
J26_56	451.489	0.0010730	P_RES
J26_57	457.337	0.0008293	P_RES
J26_58	461.700	0.0009701	P_RES
J26_59	466.739	0.0020423	P_COM
J26_60	473.326	0.0026943	P_RES
J26_61	478.826	0.0009083	P_RES
J26_62	483.569	0.0011431	P_RES
J26_63	488.809	0.0005835	P_RES
J26_64	492.594	0.0015302	P_RES
J26_65	498.539	0.0018468	P_COM
J26_66	503.958	0.0015910	P_RES
J26_67	508.899	0.0010698	P_RES
J26_68	514.920	0.0020405	P_IND
J26_69	518.361	0.0032359	P_COM
J26_70	525.611	0.0029444	P_RES
J26_71	529.430	0.0028658	P_IND
J26_72	535.159	0.0004952	P_RES
J26_73	539.993	0.0012963	P_RES
J26_74	546.681	0.0009326	P_RES
J26_75	551.333	0.0040847	P_IND
J26_76	557.020	0.0008285	P_RES
J26_77	560.308	0.0027361	P_IND
J26_78	566.367	0.0023871	P_COM
J26_79	571.637	0.0052124	P_RES
J26_80	575.942	0.0016088	P_COM
J26_81	580.591	0.0019666	P_RES
J26_82	585.785	0.0037982	P_IND
J26_83	590.886	0.0006852	P_RES
J26_84	596.880	0.0013186	P_RES
J27_1	144.566	0.0014103	P_COM
J27_2	150.127	0.0038013	P_IND
J27_3	156.611	0.0026320	P_COM
J27_4	162.530	0.0015784	P_RES
J27_5	168.061	0.0017459	P_COM
J27_6	172.211	0.0015435	P_RES
J27_7	178.710	0.0017039	P_COM
J27_8	184.811	0.0012335	P_RES
J27_9	190.131	0.0011147	P_RES
J27_10	195.151	0.0004646	P_RES
J27_11	202.432	0.0019609	P_RES
J27_12	206.338	0.0011243	P_RES
J27_13	214.010	0.0010845	P_RES
J27_14	218.879	0.0005509	P_RES
J27_15	224.149	0.0015477	P_RES
J27_16	229.118	0.0024949	P_COM
J27_17	235.594	0.0010609	P_RES
J27_18	240.684	0.0005871	P_RES
J27_19	246.587	0.0036633	P_COM
J27_20	251.882	0.0011656	P_COM
J27_21	257.672	0.0019005	P_RES
J27_22	264.019	0.0010956	P_RES
J27_23	270.333	0.0026365	P_COM
J27_24	275.021	0.0012565	P_RES
J27_25	279.461	0.0009948	P_RES
J27_26	286.340	0.0025197	P_RES
J27_27	292.509	0.0018228	P_COM
J27_28	297.643	0.0020170	P_RES
J27_29	302.984	0.0043340	P_COM
J27_30	309.123	0.0034158	P_RES
J27_31	314.914	0.0051088	P_IND
J27_32	318.795	0.0022559	P_IND
J27_33	325.676	0.0017616	P_COM
J27_34	329.471	0.0012590	P_RES
J27_35	335.090	0.0005346	P_RES
J27_36	340.313	0.0038574	P_IND
J27_37	346.683	0.0008328	P_RES
J27_38	351.731	0.0014446	P_COM
J27_39	358.002	0.0004981	P_RES
J27_40	363.123	0.0009083	P_RES
J27_41	367.997	0.0026300	P_COM
J27_42	373.279	0.0023407	P_COM
J27_43	379.072	0.0023426	P_RES
J27_44	386.033	0.0007815	P_RES
J27_45	389.425	0.0023987	P_COM
J27_46	395.465	0.0010767	P_RES
J27_47	401.189	0.0020324	P_COM
J27_48	407.607	0.0005144	P_RES
J27_49	411.029	0.0034051	P_COM
J27_50	418.020	0.0018039	P_RES
J27_51	422.892	0.0023542	P_RES
J27_52	427.116	0.0031167	P_IND
J27_53	434.655	0.0005408	P_RES
J27_54	439.941	0.0011616	P_COM
J27_55	443.663	0.0018724	P_RES
J27_56	449.384	0.0012419	P_RES
J27_57	453.998	0.0020827	P_COM
J27_58	459.523	0.0033822	P_IND
J27_59	465.168	0.0028186	P_RES
J27_60	470.517	0.0016059	P_COM
J27_61	475.238	0.0007396	P_RES
J27_62	482.469	0.0009258	P_RES
J27_63	487.115	0.0011216	P_RES
J27_64	492.511	0.0010732	P_RES
J27_65	497.932	0.0025583	P_COM
J27_66	502.189	0.0032259	P_IND
J27_67	508.502	0.0020764	P_RES
J27_68	512.417	0.0025254	P_COM
J27_69	517.360	0.0058559	P_IND
J27_70	522.328	0.0045192	P_IND
J27_71	527.622	0.0021796	P_COM
J27_72	533.661	0.0018740	P_RES
J27_73	539.700	0.0043262	P_RES
J27_74	544.991	0.0010982	P_RES
J27_75	548.619	0.0013119	P_RES
J27_76	553.150	0.0007639	P_RES
J27_77	560.354	0.0007546	P_RES
J27_78	563.404	0.0007088	P_RES
J27_79	570.308	0.0011417	P_RES
J27_80	574.432	0.0008347	P_RES
J27_81	578.843	0.0043642	P_IND
J27_82	584.300	0.0012844	P_RES
J27_83	590.289	0.0018380	P_RES
J27_84	596.659	0.0022636	P_RES
J28_1	142.882	0.0017310	P_COM
J28_2	148.212	0.0013704	P_RES
J28_3	154.150	0.0010487	P_RES
J28_4	161.407	0.0014808	P_RES
J28_5	166.828	0.0018680	P_RES
J28_6	170.960	0.0046592	P_RES
J28_7	176.727	0.0018784	P_RES
J28_8	183.170	0.0007333	P_RES
J28_9	188.833	0.0024771	P_IND
J28_10	193.513	0.0010648	P_RES
J28_11	201.036	0.0022664	P_RES
J28_12	206.017	0.0016025	P_RES
J28_13	211.755	0.0026637	P_RES
J28_14	216.612	0.0030373	P_COM
J28_15	222.371	0.0007855	P_RES
J28_16	227.372	0.0044426	P_IND
J28_17	233.129	0.0010233	P_RES
J28_18	240.216	0.0006989	P_RES
J28_19	245.977	0.0018717	P_RES
J28_20	251.693	0.0012073	P_RES
J28_21	257.397	0.0022507	P_RES
J28_22	262.925	0.0035659	P_RES
J28_23	267.900	0.0038096	P_IND
J28_24	272.991	0.0009569	P_RES
J28_25	278.987	0.0017602	P_COM
J28_26	283.501	0.0023115	P_IND
J28_27	290.021	0.0028975	P_RES
J28_28	295.675	0.0009964	P_RES
J28_29	301.726	0.0012965	P_RES
J28_30	305.931	0.0017948	P_RES
J28_31	311.013	0.0024263	P_RES
J28_32	316.585	0.0014027	P_RES
J28_33	324.053	0.0008046	P_RES
J28_34	329.139	0.0005260	P_RES
J28_35	334.229	0.0018887	P_RES
J28_36	338.923	0.0013602	P_RES
J28_37	344.569	0.0015296	P_COM
J28_38	350.301	0.0030039	P_COM
J28_39	356.280	0.0011617	P_RES
J28_40	360.718	0.0027791	P_RES
J28_41	367.370	0.0021345	P_RES
J28_42	371.919	0.0036162	P_RES
J28_43	377.954	0.0010707	P_RES
J28_44	384.106	0.0018647	P_COM
J28_45	389.977	0.0009510	P_RES
J28_46	395.503	0.0016836	P_RES
J28_47	399.489	0.0014539	P_RES
J28_48	405.382	0.0016964	P_RES
J28_49	411.217	0.0012515	P_RES
J28_50	415.928	0.0048347	P_COM
J28_51	420.716	0.0012610	P_RES
J28_52	426.781	0.0011276	P_RES
J28_53	431.389	0.0005714	P_RES
J28_54	436.193	0.0046852	P_IND
J28_55	443.140	0.0012659	P_RES
J28_56	448.091	0.0014971	P_COM
J28_57	453.247	0.0017454	P_RES
J28_58	457.778	0.0005703	P_RES
J28_59	464.251	0.0021249	P_RES
J28_60	468.282	0.0029128	P_COM
J28_61	473.308	0.0010026	P_RES
J28_62	480.268	0.0016949	P_RES
J28_63	485.730	0.0010555	P_RES
J28_64	489.253	0.0009099	P_RES
J28_65	494.882	0.0013676	P_RES
J28_66	499.725	0.0035770	P_COM
J28_67	505.879	0.0043956	P_IND
J28_68	510.710	0.0010729	P_RES
J28_69	516.219	0.0010484	P_RES
J28_70	522.520	0.0018067	P_RES
J28_71	526.921	0.0041661	P_IND
J28_72	532.286	0.0013254	P_RES
J28_73	537.254	0.0019185	P_RES
J28_74	542.545	0.0021172	P_IND
J28_75	548.239	0.0021809	P_COM
J28_76	551.779	0.0014029	P_COM
J28_77	558.357	0.0024371	P_RES
J28_78	563.403	0.0019860	P_RES
J28_79	567.496	0.0029936	P_IND
J28_80	573.244	0.0026818	P_COM
J28_81	579.113	0.0025951	P_RES
J28_82	582.667	0.0014665	P_COM
J28_83	589.387	0.0019722	P_COM
J28_84	594.038	0.0006111	P_RES
J29_1	141.207	0.0020963	P_COM
J29_2	147.676	0.0029584	P_IND
J29_3	153.174	0.0035015	P_IND
J29_4	157.789	0.0011700	P_RES
J29_5	163.787	0.0010304	P_RES
J29_6	171.128	0.0017032	P_RES
J29_7	175.628	0.0007440	P_RES
J29_8	181.100	0.0017514	P_RES
J29_9	188.231	0.0009685	P_RES
J29_10	193.410	0.0006233	P_RES
J29_11	197.811	0.0025569	P_RES
J29_12	203.649	0.0018966	P_RES
J29_13	209.220	0.0029947	P_IND
J29_14	215.616	0.0020997	P_IND
J29_15	220.480	0.0010745	P_RES
J29_16	226.999	0.0021791	P_RES
J29_17	233.026	0.0010110	P_RES
J29_18	237.476	0.0008951	P_RES
J29_19	243.714	0.0017935	P_RES
J29_20	248.321	0.0026349	P_RES
J29_21	254.217	0.0033548	P_IND
J29_22	259.257	0.0007736	P_RES
J29_23	264.863	0.0024767	P_RES
J29_24	271.101	0.0013513	P_RES
J29_25	276.232	0.0010876	P_RES
J29_26	283.468	0.0010896	P_COM
J29_27	289.387	0.0020506	P_RES
J29_28	294.539	0.0015602	P_RES
J29_29	299.844	0.0029327	P_COM
J29_30	304.706	0.0013307	P_COM
J29_31	310.640	0.0024875	P_COM
J29_32	315.435	0.0012315	P_RES
J29_33	320.501	0.0015813	P_RES
J29_34	327.537	0.0016693	P_RES
J29_35	332.248	0.0014151	P_COM
J29_36	337.070	0.0032693	P_COM
J29_37	344.096	0.0017891	P_COM
J29_38	348.524	0.0020188	P_COM
J29_39	353.629	0.0006667	P_RES
J29_40	359.140	0.0023351	P_RES
J29_41	364.865	0.0019759	P_RES
J29_42	371.884	0.0013499	P_RES
J29_43	377.537	0.0012697	P_RES
J29_44	381.494	0.0008889	P_RES
J29_45	388.209	0.0008019	P_RES
J29_46	391.760	0.0019909	P_RES
J29_47	398.696	0.0006771	P_RES
J29_48	403.653	0.0012653	P_RES
J29_49	408.615	0.0009932	P_RES
J29_50	414.785	0.0005355	P_RES
J29_51	418.662	0.0004960	P_RES
J29_52	423.894	0.0014159	P_RES
J29_53	430.385	0.0041863	P_COM
J29_54	435.863	0.0006013	P_RES
J29_55	440.618	0.0007471	P_RES
J29_56	446.010	0.0016138	P_RES
J29_57	451.166	0.0017384	P_IND
J29_58	456.337	0.0011924	P_COM
J29_59	463.393	0.0012028	P_RES
J29_60	466.413	0.0008450	P_RES
J29_61	473.338	0.0018428	P_RES
J29_62	478.254	0.0017615	P_COM
J29_63	482.610	0.0012735	P_RES
J29_64	487.840	0.0011934	P_RES
J29_65	494.592	0.0018494	P_RES
J29_66	499.553	0.0018548	P_RES
J29_67	504.042	0.0031464	P_IND
J29_68	510.280	0.0005890	P_RES
J29_69	515.831	0.0034747	P_IND
J29_70	518.806	0.0021157	P_RES
J29_71	525.176	0.0028758	P_COM
J29_72	529.432	0.0009813	P_RES
J29_73	535.840	0.0033859	P_IND
J29_74	541.832	0.0014914	P_RES
J29_75	546.984	0.0011231	P_RES
J29_76	550.264	0.0019158	P_COM
J29_77	555.715	0.0008790	P_RES
J29_78	561.215	0.0007373	P_RES
J29_79	565.378	0.0016469	P_RES
J29_80	571.103	0.0027493	P_RES
J29_81	577.695	0.0008300	P_RES
J29_82	581.281	0.0012019	P_RES
J29_83	586.472	0.0039197	P_IND
J29_84	592.493	0.0024360	P_RES
J30_1	140.474	0.0014496	P_RES
J30_2	146.868	0.0016641	P_COM
J30_3	151.566	0.0045758	P_RES
J30_4	157.488	0.0009560	P_RES
J30_5	163.010	0.0007445	P_RES
J30_6	167.347	0.0018209	P_RES
J30_7	173.399	0.0014595	P_RES
J30_8	179.497	0.0017615	P_IND
J30_9	184.408	0.0011492	P_RES
J30_10	192.279	0.0028453	P_COM
J30_11	197.776	0.0008788	P_RES
J30_12	203.501	0.0005130	P_RES
J30_13	206.982	0.0007630	P_RES
J30_14	212.873	0.0018270	P_RES
J30_15	219.076	0.0025511	P_RES
J30_16	224.236	0.0027808	P_RES
J30_17	231.711	0.0011327	P_RES
J30_18	237.009	0.0016520	P_RES
J30_19	240.729	0.0019619	P_COM
J30_20	247.062	0.0012233	P_RES
J30_21	254.230	0.0008918	P_RES
J30_22	259.420	0.0010776	P_RES
J30_23	264.511	0.0017416	P_COM
J30_24	269.409	0.0010893	P_COM
J30_25	275.203	0.0016597	P_RES
J30_26	280.486	0.0027942	P_IND
J30_27	286.031	0.0010145	P_RES
J30_28	291.973	0.0027011	P_COM
J30_29	296.628	0.0006832	P_RES
J30_30	303.805	0.0019556	P_RES
J30_31	309.247	0.0006198	P_RES
J30_32	313.309	0.0017941	P_COM
J30_33	319.811	0.0021013	P_COM
J30_34	324.336	0.0014153	P_RES
J30_35	330.480	0.0065047	P_IND
J30_36	335.539	0.0003665	P_RES
J30_37	343.030	0.0028253	P_COM
J30_38	346.833	0.0007949	P_RES
J30_39	353.269	0.0028929	P_COM
J30_40	358.964	0.0026256	P_IND
J30_41	364.407	0.0051822	P_COM
J30_42	368.947	0.0035931	P_IND
J30_43	373.832	0.0014096	P_COM
J30_44	379.408	0.0022572	P_COM
J30_45	385.381	0.0020356	P_RES
J30_46	389.935	0.0015227	P_RES
J30_47	397.567	0.0023561	P_RES
J30_48	402.951	0.0033278	P_IND
J30_49	406.056	0.0020336	P_RES
J30_50	411.643	0.0042141	P_RES
J30_51	419.068	0.0018771	P_RES
J30_52	423.262	0.0006431	P_RES
J30_53	429.580	0.0030395	P_IND
J30_54	434.026	0.0014616	P_RES
J30_55	439.104	0.0031183	P_COM
J30_56	444.826	0.0017445	P_RES
J30_57	450.253	0.0016531	P_RES
J30_58	455.422	0.0008302	P_RES
J30_59	460.840	0.0017436	P_RES
J30_60	466.657	0.0020874	P_RES
J30_61	469.959	0.0012928	P_RES
J30_62	476.271	0.0014960	P_RES
J30_63	482.414	0.0019561	P_RES
J30_64	486.620	0.0033258	P_RES
J30_65	491.551	0.0011403	P_RES
J30_66	498.082	0.0019344	P_RES
J30_67	501.537	0.0020510	P_RES
J30_68	508.331	0.0012584	P_RES
J30_69	512.082	0.0018157	P_COM
J30_70	517.242	0.0007988	P_RES
J30_71	523.426	0.0014783	P_IND
J30_72	529.419	0.0008790	P_RES
J30_73	533.784	0.0010135	P_RES
J30_74	539.923	0.0027520	P_COM
J30_75	544.999	0.0016542	P_RES
J30_76	550.129	0.0013289	P_RES
J30_77	555.179	0.0007984	P_RES
J30_78	559.451	0.0028466	P_RES
J30_79	563.923	0.0016551	P_IND
J30_80	570.637	0.0024154	P_COM
J30_81	576.348	0.0032089	P_IND
J30_82	579.377	0.0012406	P_RES
J30_83	586.644	0.0006867	P_RES
J30_84	589.592	0.0029909	P_COM
J31_1	138.382	0.0010937	P_RES
J31_2	144.715	0.0007604	P_RES
J31_3	148.655	0.0019488	P_RES
J31_4	155.104	0.0012254	P_RES
J31_5	161.974	0.0043947	P_COM
J31_6	165.802	0.0015675	P_RES
J31_7	171.750	0.0039935	P_IND
J31_8	178.465	0.0022528	P_RES
J31_9	184.505	0.0011898	P_RES
J31_10	188.811	0.0021707	P_RES
J31_11	195.507	0.0013443	P_COM
J31_12	200.094	0.0012982	P_COM
J31_13	205.892	0.0016078	P_COM
J31_14	212.684	0.0015265	P_RES
J31_15	217.248	0.0020973	P_RES
J31_16	224.494	0.0017543	P_COM
J31_17	228.626	0.0021519	P_RES
J31_18	234.914	0.0003958	P_RES
J31_19	239.047	0.0020321	P_IND
J31_20	245.371	0.0026795	P_COM
J31_21	252.022	0.0010922	P_RES
J31_22	256.027	0.0011020	P_COM
J31_23	261.911	0.0009571	P_RES
J31_24	267.360	0.0030257	P_COM
J31_25	272.817	0.0006556	P_RES
J31_26	278.815	0.0020983	P_COM
J31_27	285.176	0.0007863	P_RES
J31_28	290.803	0.0020541	P_RES
J31_29	295.863	0.0005622	P_RES
J31_30	301.183	0.0010352	P_RES
J31_31	306.762	0.0008148	P_RES
J31_32	312.760	0.0037104	P_COM
J31_33	318.998	0.0013877	P_RES
J31_34	323.122	0.0044476	P_COM
J31_35	328.768	0.0009136	P_RES
J31_36	334.146	0.0008873	P_RES
J31_37	339.660	0.0011562	P_RES
J31_38	345.589	0.0018491	P_RES
J31_39	350.498	0.0017549	P_COM
J31_40	356.701	0.0013444	P_RES
J31_41	362.651	0.0030587	P_IND
J31_42	366.679	0.0014174	P_RES
J31_43	372.313	0.0014308	P_RES
J31_44	378.783	0.0019167	P_RES
J31_45	383.305	0.0013472	P_RES
J31_46	389.049	0.0005870	P_RES
J31_47	395.359	0.0013236	P_RES
J31_48	400.271	0.0008559	P_RES
J31_49	405.270	0.0018065	P_RES
J31_50	412.018	0.0029146	P_COM
J31_51	417.118	0.0016338	P_COM
J31_52	422.207	0.0014517	P_RES
J31_53	426.698	0.0024543	P_RES
J31_54	431.235	0.0012875	P_RES
J31_55	437.162	0.0013986	P_COM
J31_56	443.794	0.0041685	P_IND
J31_57	448.631	0.0007060	P_RES
J31_58	454.064	0.0016663	P_RES
J31_59	459.065	0.0007350	P_COM
J31_60	463.915	0.0020506	P_RES
J31_61	470.038	0.0013975	P_COM
J31_62	475.001	0.0010862	P_RES
J31_63	480.427	0.0030686	P_COM
J31_64	484.749	0.0020404	P_RES
J31_65	489.826	0.0021005	P_RES
J31_66	494.959	0.0007069	P_RES
J31_67	500.967	0.0011168	P_COM
J31_68	506.861	0.0016556	P_RES
J31_69	511.058	0.0007697	P_RES
J31_70	516.287	0.0010923	P_RES
J31_71	522.616	0.0013185	P_RES
J31_72	526.994	0.0022178	P_COM
J31_73	532.974	0.0026680	P_RES
J31_74	538.386	0.0021471	P_RES
J31_75	541.425	0.0014068	P_RES
J31_76	547.977	0.0021222	P_COM
J31_77	553.260	0.0008467	P_RES
J31_78	557.802	0.0008687	P_RES
J31_79	563.121	0.0024882	P_IND
J31_80	568.013	0.0014686	P_RES
J31_81	572.368	0.0012597	P_RES
J31_82	579.773	0.0009622	P_RES
J31_83	584.521	0.0042582	P_COM
J31_84	589.267	0.0006956	P_RES
J32_1	136.968	0.0015826	P_RES
J32_2	142.493	0.0017586	P_RES
J32_3	147.940	0.0008067	P_RES
J32_4	153.244	0.0009461	P_RES
J32_5	158.421	0.0019073	P_IND
J32_6	166.165	0.0018224	P_RES
J32_7	170.230	0.0009825	P_RES
J32_8	175.403	0.0033233	P_COM
J32_9	181.942	0.0007635	P_RES
J32_10	188.288	0.0014164	P_RES
J32_11	192.751	0.0010183	P_RES
J32_12	199.600	0.0020009	P_RES
J32_13	204.350	0.0015979	P_COM
J32_14	209.887	0.0013391	P_COM
J32_15	215.681	0.0006911	P_RES
J32_16	221.697	0.0023853	P_RES
J32_17	227.125	0.0016644	P_RES
J32_18	233.064	0.0013575	P_COM
J32_19	239.213	0.0018872	P_COM
J32_20	243.778	0.0010869	P_RES
J32_21	250.184	0.0012805	P_RES
J32_22	256.309	0.0009353	P_RES
J32_23	262.019	0.0031057	P_IND
J32_24	267.140	0.0007057	P_RES
J32_25	271.578	0.0012831	P_RES
J32_26	277.359	0.0011399	P_RES
J32_27	282.761	0.0014881	P_RES
J32_28	288.044	0.0010086	P_RES
J32_29	295.515	0.0024353	P_RES
J32_30	300.005	0.0015173	P_COM
J32_31	305.753	0.0005099	P_RES
J32_32	311.365	0.0007871	P_RES
J32_33	315.831	0.0020660	P_RES
J32_34	322.224	0.0013017	P_RES
J32_35	328.850	0.0015187	P_RES
J32_36	334.394	0.0009681	P_RES
J32_37	339.398	0.0034762	P_IND
J32_38	344.162	0.0017168	P_COM
J32_39	349.273	0.0015078	P_COM
J32_40	356.356	0.0022503	P_IND
J32_41	360.306	0.0008889	P_RES
J32_42	366.321	0.0028569	P_COM
J32_43	370.580	0.0051752	P_IND
J32_44	376.072	0.0013255	P_RES
J32_45	383.240	0.0011268	P_RES
J32_46	388.388	0.0014044	P_RES
J32_47	394.243	0.0019837	P_COM
J32_48	397.749	0.0032933	P_IND
J32_49	403.570	0.0016771	P_RES
J32_50	409.472	0.0003874	P_RES
J32_51	415.507	0.0016681	P_RES
J32_52	420.569	0.0007185	P_RES
J32_53	426.506	0.0007037	P_RES
J32_54	430.508	0.0034558	P_COM
J32_55	434.947	0.0007461	P_RES
J32_56	441.955	0.0028365	P_COM
J32_57	446.237	0.0013805	P_RES
J32_58	451.103	0.0015003	P_COM
J32_59	456.879	0.0010914	P_RES
J32_60	462.081	0.0015290	P_RES
J32_61	468.662	0.0012973	P_RES
J32_62	473.350	0.0024062	P_COM
J32_63	478.377	0.0025051	P_RES
J32_64	484.114	0.0015379	P_RES
J32_65	489.318	0.0021671	P_RES
J32_66	493.512	0.0025667	P_RES
J32_67	500.300	0.0041977	P_IND
J32_68	504.447	0.0037435	P_IND
J32_69	508.608	0.0017011	P_COM
J32_70	515.280	0.0022691	P_RES
J32_71	520.862	0.0024916	P_COM
J32_72	525.807	0.0017424	P_COM
J32_73	530.424	0.0022234	P_RES
J32_74	536.515	0.0018812	P_RES
J32_75	541.963	0.0013029	P_RES
J32_76	546.767	0.0030429	P_COM
J32_77	550.900	0.0019350	P_RES
J32_78	557.451	0.0007590	P_RES
J32_79	562.560	0.0021434	P_COM
J32_80	566.375	0.0018898	P_COM
J32_81	571.870	0.0010887	P_RES
J32_82	578.190	0.0014896	P_COM
J32_83	582.772	0.0019152	P_COM
J32_84	586.982	0.0045059	P_COM
J33_1	135.335	0.0014946	P_COM
J33_2	140.765	0.0008076	P_RES
J33_3	145.966	0.0012365	P_RES
J33_4	151.551	0.0020424	P_RES
J33_5	158.107	0.0015949	P_RES
J33_6	162.717	0.0038589	P_IND
J33_7	169.542	0.0006603	P_RES
J33_8	175.536	0.0025852	P_IND
J33_9	180.749	0.0007894	P_RES
J33_10	186.560	0.0023607	P_RES
J33_11	192.595	0.0008226	P_RES
J33_12	197.593	0.0011055	P_RES
J33_13	202.661	0.0012221	P_RES
J33_14	209.649	0.0012848	P_RES
J33_15	213.648	0.0015181	P_RES
J33_16	220.326	0.0035778	P_RES
J33_17	226.392	0.0008841	P_RES
J33_18	230.623	0.0013892	P_RES
J33_19	235.848	0.0007642	P_RES
J33_20	242.977	0.0033983	P_IND
J33_21	247.159	0.0009579	P_RES
J33_22	253.127	0.0012108	P_RES
J33_23	259.770	0.0007120	P_RES
J33_24	265.472	0.0007039	P_RES
J33_25	270.478	0.0032470	P_COM
J33_26	277.095	0.0008729	P_RES
J33_27	282.426	0.0022673	P_RES
J33_28	286.320	0.0017349	P_COM
J33_29	292.657	0.0016885	P_RES
J33_30	298.693	0.0019647	P_RES
J33_31	304.686	0.0024185	P_RES
J33_32	308.587	0.0021271	P_RES
J33_33	314.003	0.0029214	P_RES
J33_34	320.093	0.0012760	P_COM
J33_35	326.554	0.0016411	P_COM
J33_36	331.527	0.0008756	P_RES
J33_37	336.309	0.0019800	P_COM
J33_38	341.745	0.0011713	P_RES
J33_39	348.226	0.0008127	P_RES
J33_40	354.624	0.0009098	P_COM
J33_41	359.352	0.0012381	P_RES
J33_42	365.295	0.0017282	P_RES
J33_43	370.585	0.0008122	P_RES
J33_44	376.263	0.0021012	P_IND
J33_45	380.508	0.0015031	P_COM
J33_46	386.311	0.0007398	P_RES
J33_47	392.399	0.0015318	P_COM
J33_48	396.656	0.0015961	P_RES
J33_49	403.136	0.0039072	P_COM
J33_50	406.621	0.0011053	P_RES
J33_51	412.224	0.0044016	P_COM
J33_52	419.031	0.0035730	P_COM
J33_53	424.029	0.0019971	P_RES
J33_54	428.331	0.0009299	P_RES
J33_55	434.621	0.0032401	P_RES
J33_56	438.808	0.0028612	P_IND
J33_57	445.460	0.0013831	P_RES
J33_58	451.512	0.0007648	P_RES
J33_59	455.689	0.0020132	P_RES
J33_60	461.784	0.0011121	P_RES
J33_61	466.592	0.0010671	P_RES
J33_62	471.732	0.0025237	P_COM
J33_63	477.731	0.0017681	P_COM
J33_64	482.391	0.0020850	P_RES
J33_65	486.074	0.0014819	P_COM
J33_66	492.145	0.0013021	P_RES
J33_67	497.565	0.0022898	P_RES
J33_68	503.708	0.0021122	P_RES
J33_69	509.027	0.0010097	P_RES
J33_70	512.764	0.0012821	P_COM
J33_71	518.842	0.0008023	P_RES
J33_72	522.985	0.0019268	P_RES
J33_73	529.960	0.0050438	P_COM
J33_74	533.797	0.0010461	P_RES
J33_75	539.941	0.0019732	P_IND
J33_76	543.367	0.0011934	P_RES
J33_77	548.698	0.0014316	P_RES
J33_78	554.203	0.0013885	P_RES
J33_79	559.713	0.0014866	P_RES
J33_80	563.986	0.0012273	P_RES
J33_81	571.379	0.0011115	P_RES
J33_82	576.563	0.0022915	P_COM
J33_83	580.778	0.0010759	P_RES
J33_84	584.947	0.0007103	P_RES
J34_1	132.536	0.0013140	P_RES
J34_2	139.569	0.0006829	P_RES
J34_3	145.980	0.0022218	P_COM
J34_4	149.978	0.0010940	P_RES
J34_5	156.259	0.0020928	P_RES
J34_6	162.896	0.0013468	P_RES
J34_7	166.373	0.0056113	P_COM
J34_8	172.641	0.0008095	P_RES
J34_9	179.220	0.0004119	P_RES
J34_10	184.801	0.0007190	P_RES
J34_11	191.045	0.0030880	P_COM
J34_12	195.564	0.0017249	P_COM
J34_13	202.406	0.0025847	P_RES
J34_14	207.410	0.0016717	P_COM
J34_15	212.348	0.0010840	P_RES
J34_16	218.129	0.0014458	P_RES
J34_17	223.285	0.0036645	P_IND
J34_18	229.464	0.0025160	P_COM
J34_19	236.428	0.0010832	P_RES
J34_20	240.178	0.0014172	P_RES
J34_21	245.603	0.0020432	P_COM
J34_22	252.794	0.0041144	P_RES
J34_23	258.581	0.0040850	P_IND
J34_24	263.317	0.0008343	P_RES
J34_25	268.853	0.0035442	P_COM
J34_26	273.404	0.0009476	P_RES
J34_27	280.810	0.0005848	P_RES
J34_28	286.353	0.0006629	P_RES
J34_29	291.712	0.0018888	P_RES
J34_30	297.136	0.0017713	P_RES
J34_31	302.836	0.0012413	P_RES
J34_32	308.872	0.0017551	P_COM
J34_33	314.094	0.0006513	P_RES
J34_34	319.781	0.0013680	P_RES
J34_35	323.334	0.0006478	P_RES
J34_36	331.098	0.0007572	P_RES
J34_37	335.955	0.0019191	P_RES
J34_38	339.823	0.0009105	P_RES
J34_39	345.760	0.0007720	P_RES
J34_40	352.015	0.0005047	P_RES
J34_41	356.509	0.0009527	P_RES
J34_42	363.113	0.0016026	P_RES
J34_43	368.507	0.0022364	P_RES
J34_44	373.398	0.0026334	P_RES
J34_45	379.733	0.0037446	P_COM
J34_46	385.640	0.0018684	P_RES
J34_47	390.315	0.0007203	P_RES
J34_48	396.077	0.0021620	P_COM
J34_49	400.635	0.0025490	P_IND
J34_50	406.801	0.0012198	P_RES
J34_51	411.390	0.0014807	P_RES
J34_52	417.193	0.0014356	P_COM
J34_53	422.214	0.0014689	P_RES
J34_54	426.379	0.0016279	P_RES
J34_55	432.247	0.0015399	P_RES
J34_56	437.608	0.0012183	P_RES
J34_57	443.239	0.0065676	P_IND
J34_58	447.836	0.0017444	P_RES
J34_59	452.858	0.0024526	P_RES
J34_60	458.258	0.0024753	P_COM
J34_61	464.965	0.0025468	P_COM
J34_62	469.480	0.0033523	P_RES
J34_63	474.831	0.0020825	P_RES
J34_64	479.363	0.0012937	P_COM
J34_65	485.550	0.0014556	P_RES
J34_66	491.393	0.0027626	P_COM
J34_67	496.762	0.0018622	P_RES
J34_68	502.177	0.0017358	P_IND
J34_69	506.598	0.0005294	P_RES
J34_70	512.446	0.0044256	P_IND
J34_71	517.553	0.0012194	P_COM
J34_72	522.381	0.0018123	P_COM
J34_73	527.489	0.0014231	P_RES
J34_74	532.146	0.0008497	P_RES
J34_75	536.633	0.0014104	P_RES
J34_76	541.777	0.0029001	P_RES
J34_77	548.684	0.0046432	P_IND
J34_78	553.870	0.0015651	P_RES
J34_79	557.593	0.0038416	P_IND
J34_80	562.345	0.0023708	P_RES
J34_81	568.947	0.0023823	P_RES
J34_82	573.866	0.0013068	P_RES
J34_83	578.903	0.0014010	P_COM
J34_84	584.993	0.0032368	P_IND
J35_1	131.453	0.0025310	P_COM
J35_2	138.002	0.0017493	P_IND
J35_3	144.371	0.0009093	P_RES
J35_4	148.470	0.0013655	P_RES
J35_5	155.698	0.0023145	P_RES
J35_6	160.423	0.0006611	P_RES
J35_7	166.260	0.0006352	P_RES
J35_8	172.248	0.0023033	P_IND
J35_9	178.220	0.0010637	P_RES
J35_10	182.654	0.0018564	P_COM
J35_11	188.296	0.0004897	P_RES
J35_12	194.505	0.0025636	P_COM
J35_13	199.325	0.0011623	P_RES
J35_14	206.233	0.0033824	P_COM
J35_15	211.610	0.0018006	P_IND
J35_16	215.712	0.0018055	P_COM
J35_17	223.250	0.0025123	P_RES
J35_18	227.052	0.0008110	P_RES
J35_19	232.487	0.0013800	P_RES
J35_20	238.437	0.0010490	P_RES
J35_21	243.998	0.0016022	P_RES
J35_22	250.063	0.0030376	P_IND
J35_23	257.050	0.0010522	P_RES
J35_24	262.694	0.0026446	P_RES
J35_25	266.627	0.0018110	P_COM
J35_26	272.775	0.0014388	P_RES
J35_27	277.685	0.0023562	P_IND
J35_28	284.679	0.0011507	P_RES
J35_29	290.054	0.0013264	P_COM
J35_30	296.239	0.0021131	P_COM
J35_31	300.709	0.0018189	P_RES
J35_32	306.836	0.0020634	P_RES
J35_33	311.365	0.0008995	P_RES
J35_34	317.807	0.0025359	P_RES
J35_35	322.827	0.0017417	P_COM
J35_36	328.299	0.0011511	P_RES
J35_37	333.631	0.0040176	P_RES
J35_38	339.713	0.0016643	P_RES
J35_39	345.766	0.0019426	P_COM
J35_40	351.341	0.0021280	P_COM
J35_41	354.678	0.0010603	P_RES
J35_42	362.110	0.0005431	P_RES
J35_43	365.489	0.0017081	P_RES
J35_44	371.168	0.0006997	P_RES
J35_45	378.373	0.0017221	P_RES
J35_46	381.794	0.0034439	P_COM
J35_47	387.264	0.0008654	P_RES
J35_48	394.801	0.0020847	P_COM
J35_49	398.638	0.0006777	P_RES
J35_50	403.312	0.0023000	P_RES
J35_51	409.266	0.0011973	P_RES
J35_52	416.215	0.0023762	P_COM
J35_53	419.672	0.0009968	P_RES
J35_54	426.281	0.0015626	P_RES
J35_55	430.872	0.0009332	P_RES
J35_56	436.491	0.0006966	P_RES
J35_57	440.740	0.0021465	P_RES
J35_58	447.075	0.0012952	P_RES
J35_59	451.772	0.0020903	P_RES
J35_60	456.608	0.0010322	P_RES
J35_61	463.267	0.0021897	P_RES
J35_62	468.821	0.0008517	P_RES
J35_63	473.197	0.0019901	P_COM
J35_64	478.726	0.0025803	P_RES
J35_65	484.392	0.0014329	P_COM
J35_66	488.466	0.0008276	P_RES
J35_67	494.103	0.0016532	P_RES
J35_68	499.963	0.0016524	P_COM
J35_69	503.999	0.0020243	P_RES
J35_70	510.788	0.0015994	P_RES
J35_71	514.700	0.0021275	P_RES
J35_72	520.191	0.0038248	P_IND
J35_73	525.806	0.0009163	P_COM
J35_74	530.286	0.0016495	P_RES
J35_75	536.984	0.0017275	P_RES
J35_76	541.588	0.0006571	P_RES
J35_77	547.351	0.0012856	P_RES
J35_78	550.791	0.0020388	P_RES
J35_79	557.618	0.0013099	P_RES
J35_80	561.033	0.0014338	P_RES
J35_81	567.574	0.0042774	P_COM
J35_82	572.007	0.0012787	P_RES
J35_83	576.623	0.0031485	P_RES
J35_84	581.361	0.0006371	P_RES
J36_1	131.202	0.0012185	P_RES
J36_2	136.745	0.0018764	P_RES
J36_3	141.108	0.0008222	P_RES
J36_4	146.925	0.0019147	P_COM
J36_5	153.822	0.0017351	P_COM
J36_6	158.386	0.0013920	P_RES
J36_7	164.047	0.0006166	P_RES
J36_8	170.146	0.0019954	P_RES
J36_9	175.012	0.0028416	P_COM
J36_10	181.563	0.0009453	P_RES
J36_11	187.152	0.0011264	P_COM
J36_12	191.666	0.0018778	P_RES
J36_13	197.919	0.0012018	P_RES
J36_14	203.725	0.0017437	P_RES
J36_15	209.988	0.0016945	P_RES
J36_16	214.133	0.0019288	P_RES
J36_17	219.692	0.0014695	P_RES
J36_18	225.610	0.0009302	P_RES
J36_19	231.609	0.0017362	P_RES
J36_20	238.779	0.0015375	P_RES
J36_21	244.063	0.0021310	P_COM
J36_22	248.993	0.0019028	P_COM
J36_23	254.927	0.0017749	P_RES
J36_24	260.058	0.0023683	P_RES
J36_25	266.591	0.0041235	P_RES
J36_26	271.753	0.0019398	P_COM
J36_27	276.242	0.0011595	P_RES
J36_28	281.623	0.0026069	P_COM
J36_29	287.137	0.0008280	P_RES
J36_30	292.502	0.0017329	P_IND
J36_31	298.285	0.0021803	P_RES
J36_32	304.628	0.0006972	P_RES
J36_33	309.249	0.0009518	P_RES
J36_34	316.205	0.0032735	P_IND
J36_35	321.794	0.0017794	P_RES
J36_36	326.605	0.0020595	P_COM
J36_37	332.828	0.0038351	P_COM
J36_38	337.226	0.0023404	P_COM
J36_39	342.601	0.0010350	P_RES
J36_40	348.010	0.0032198	P_IND
J36_41	354.367	0.0007892	P_RES
J36_42	359.926	0.0025521	P_IND
J36_43	364.443	0.0012414	P_RES
J36_44	371.091	0.0014131	P_RES
J36_45	375.163	0.0042811	P_IND
J36_46	381.828	0.0035627	P_RES
J36_47	387.522	0.0016606	P_RES
J36_48	392.025	0.0011759	P_RES
J36_49	397.927	0.0013207	P_RES
J36_50	401.834	0.0022377	P_COM
J36_51	407.804	0.0012322	P_RES
J36_52	412.678	0.0015264	P_RES
J36_53	419.766	0.0010010	P_RES
J36_54	424.488	0.0017978	P_RES
J36_55	429.369	0.0017600	P_COM
J36_56	434.118	0.0039082	P_COM
J36_57	439.130	0.0022748	P_RES
J36_58	445.852	0.0015194	P_IND
J36_59	451.831	0.0011594	P_RES
J36_60	455.727	0.0011462	P_RES
J36_61	461.148	0.0016285	P_RES
J36_62	467.595	0.0019879	P_RES
J36_63	471.444	0.0036059	P_RES
J36_64	477.395	0.0009827	P_RES
J36_65	481.875	0.0015603	P_COM
J36_66	488.146	0.0020580	P_COM
J36_67	492.877	0.0007530	P_RES
J36_68	497.224	0.0028732	P_RES
J36_69	503.537	0.0040843	P_IND
J36_70	509.094	0.0021072	P_RES
J36_71	513.711	0.0015699	P_RES
J36_72	519.191	0.0011504	P_RES
J36_73	524.144	0.0008808	P_RES
J36_74	529.230	0.0011224	P_RES
J36_75	533.830	0.0010489	P_RES
J36_76	539.318	0.0023404	P_RES
J36_77	544.484	0.0017226	P_COM
J36_78	549.718	0.0034000	P_RES
J36_79	555.914	0.0017005	P_RES
J36_80	560.350	0.0012615	P_RES
J36_81	564.454	0.0014988	P_IND
J36_82	571.573	0.0041543	P_COM
J36_83	574.719	0.0039528	P_COM
J36_84	580.039	0.0009437	P_RES
J37_1	128.983	0.0033966	P_COM
J37_2	135.332	0.0044316	P_COM
J37_3	139.364	0.0020423	P_RES
J37_4	146.339	0.0050364	P_IND
J37_5	150.631	0.0033561	P_RES
J37_6	155.744	0.0008624	P_RES
J37_7	162.662	0.0016481	P_RES
J37_8	168.887	0.0013981	P_COM
J37_9	173.959	0.0017116	P_RES
J37_10	180.632	0.0012563	P_RES
J37_11	185.778	0.0006323	P_RES
J37_12	189.774	0.0018145	P_RES
J37_13	197.219	0.0012219	P_RES
J37_14	201.302	0.0007394	P_RES
J37_15	208.157	0.0030473	P_COM
J37_16	214.017	0.0006697	P_RES
J37_17	220.084	0.0021619	P_RES
J37_18	224.902	0.0029768	P_IND
J37_19	230.552	0.0020199	P_RES
J37_20	235.936	0.0033449	P_COM
J37_21	240.461	0.0022292	P_COM
J37_22	247.939	0.0007221	P_RES
J37_23	253.465	0.0015608	P_RES
J37_24	257.564	0.0017857	P_RES
J37_25	264.807	0.0036216	P_COM
J37_26	268.992	0.0019359	P_RES
J37_27	275.691	0.0010512	P_COM
J37_28	280.833	0.0012851	P_RES
J37_29	285.906	0.0018724	P_RES
J37_30	292.193	0.0007698	P_RES
J37_31	297.541	0.0006714	P_RES
J37_32	303.095	0.0009389	P_RES
J37_33	308.667	0.0007824	P_RES
J37_34	313.856	0.0018917	P_RES
J37_35	320.510	0.0026738	P_IND
J37_36	325.857	0.0009499	P_COM
J37_37	329.452	0.0013948	P_RES
J37_38	336.119	0.0036558	P_IND
J37_39	340.733	0.0023427	P_RES
J37_40	347.526	0.0027429	P_IND
J37_41	352.595	0.0026518	P_RES
J37_42	357.480	0.0034990	P_COM
J37_43	363.884	0.0009849	P_RES
J37_44	369.704	0.0016566	P_RES
J37_45	373.665	0.0008914	P_RES
J37_46	380.500	0.0014920	P_RES
J37_47	384.757	0.0008897	P_RES
J37_48	390.157	0.0010531	P_COM
J37_49	394.823	0.0003929	P_RES
J37_50	401.020	0.0009422	P_RES
J37_51	407.037	0.0009708	P_RES
J37_52	411.571	0.0024376	P_COM
J37_53	417.207	0.0012916	P_RES
J37_54	422.140	0.0013819	P_RES
J37_55	428.636	0.0019079	P_RES
J37_56	432.259	0.0017466	P_COM
J37_57	438.849	0.0023011	P_RES
J37_58	444.816	0.0014074	P_RES
J37_59	449.054	0.0016634	P_COM
J37_60	453.230	0.0010519	P_RES
J37_61	458.692	0.0024890	P_COM
J37_62	464.510	0.0033801	P_IND
J37_63	469.759	0.0021279	P_COM
J37_64	474.698	0.0009704	P_RES
J37_65	480.934	0.0022844	P_RES
J37_66	485.255	0.0015203	P_RES
J37_67	490.404	0.0007491	P_RES
J37_68	496.132	0.0013520	P_RES
J37_69	501.447	0.0021493	P_COM
J37_70	506.682	0.0007502	P_RES
J37_71	511.539	0.0021726	P_COM
J37_72	517.626	0.0023228	P_RES
J37_73	522.725	0.0024996	P_RES
J37_74	527.523	0.0009098	P_RES
J37_75	532.574	0.0010734	P_COM
J37_76	538.946	0.0034332	P_RES
J37_77	542.793	0.0009724	P_RES
J37_78	547.616	0.0016976	P_COM
J37_79	553.777	0.0018612	P_RES
J37_80	558.574	0.0008963	P_RES
J37_81	563.328	0.0020097	P_COM
J37_82	567.847	0.0026802	P_COM
J37_83	573.380	0.0033231	P_COM
J37_84	578.258	0.0012327	P_RES
J38_1	126.714	0.0013047	P_RES
J38_2	133.585	0.0009747	P_RES
J38_3	138.032	0.0013524	P_RES
J38_4	144.427	0.0013290	P_RES
J38_5	150.535	0.0015448	P_RES
J38_6	156.461	0.0008650	P_RES
J38_7	160.824	0.0008575	P_RES
J38_8	166.574	0.0032953	P_RES
J38_9	171.915	0.0016351	P_RES
J38_10	177.906	0.0010487	P_RES
J38_11	184.808	0.0033094	P_IND
J38_12	188.072	0.0019153	P_RES
J38_13	194.304	0.0025319	P_RES
J38_14	201.707	0.0009389	P_RES
J38_15	205.537	0.0021491	P_COM
J38_16	211.915	0.0027949	P_COM
J38_17	217.598	0.0020808	P_RES
J38_18	222.831	0.0014024	P_RES
J38_19	228.247	0.0044940	P_IND
J38_20	233.321	0.0010795	P_RES
J38_21	240.283	0.0009048	P_RES
J38_22	245.261	0.0012001	P_COM
J38_23	252.047	0.0016006	P_RES
J38_24	255.868	0.0008802	P_RES
J38_25	263.567	0.0012494	P_RES
J38_26	267.480	0.0027492	P_COM
J38_27	274.036	0.0033444	P_IND
J38_28	279.018	0.0016061	P_RES
J38_29	285.005	0.0009918	P_RES
J38_30	289.723	0.0016979	P_RES
J38_31	295.408	0.0025953	P_RES
J38_32	301.965	0.0020993	P_COM
J38_33	307.508	0.0006839	P_RES
J38_34	312.683	0.0011791	P_COM
J38_35	318.634	0.0014862	P_RES
J38_36	324.259	0.0015663	P_RES
J38_37	328.130	0.0016392	P_RES
J38_38	335.167	0.0008488	P_RES
J38_39	339.744	0.0010152	P_RES
J38_40	344.608	0.0031156	P_RES
J38_41	351.116	0.0024355	P_COM
J38_42	355.730	0.0008678	P_RES
J38_43	362.631	0.0013389	P_RES
J38_44	367.523	0.0015359	P_RES
J38_45	371.581	0.0036164	P_IND
J38_46	377.744	0.0032614	P_IND
J38_47	382.218	0.0014714	P_COM
J38_48	389.471	0.0008840	P_RES
J38_49	393.604	0.0006899	P_RES
J38_50	400.056	0.0014784	P_COM
J38_51	403.688	0.0008905	P_RES
J38_52	410.895	0.0026867	P_COM
J38_53	416.409	0.0008042	P_RES
J38_54	420.703	0.0008157	P_RES
J38_55	426.685	0.0034431	P_IND
J38_56	432.725	0.0011047	P_RES
J38_57	436.753	0.0010850	P_RES
J38_58	441.731	0.0014271	P_RES
J38_59	448.055	0.0009763	P_RES
J38_60	453.500	0.0026750	P_COM
J38_61	457.079	0.0013408	P_RES
J38_62	463.866	0.0018357	P_RES
J38_63	468.925	0.0047830	P_IND
J38_64	473.897	0.0019831	P_COM
J38_65	478.030	0.0015118	P_RES
J38_66	485.331	0.0012318	P_RES
J38_67	489.840	0.0023658	P_RES
J38_68	493.519	0.0027396	P_COM
J38_69	499.173	0.0034587	P_RES
J38_70	504.087	0.0029997	P_RES
J38_71	509.547	0.0019968	P_COM
J38_72	514.591	0.0008963	P_RES
J38_73	521.831	0.0027962	P_IND
J38_74	526.677	0.0015970	P_RES
J38_75	529.973	0.0010048	P_RES
J38_76	536.291	0.0007950	P_RES
J38_77	540.362	0.0029222	P_IND
J38_78	545.538	0.0008097	P_RES
J38_79	551.974	0.0012693	P_RES
J38_80	555.704	0.0016664	P_COM
J38_81	562.686	0.0034459	P_IND
J38_82	567.528	0.0021439	P_RES
J38_83	572.679	0.0012929	P_RES
J38_84	577.573	0.0015085	P_COM
J39_1	126.253	0.0031973	P_COM
J39_2	132.130	0.0013242	P_COM
J39_3	136.517	0.0005053	P_RES
J39_4	141.397	0.0019263	P_COM
J39_5	147.536	0.0009288	P_RES
J39_6	154.707	0.0008725	P_RES
J39_7	158.495	0.0028140	P_COM
J39_8	165.156	0.0031055	P_IND
J39_9	171.418	0.0031936	P_COM
J39_10	177.040	0.0013629	P_RES
J39_11	182.482	0.0035256	P_RES
J39_12	186.761	0.0008186	P_RES
J39_13	193.612	0.0008849	P_RES
J39_14	199.609	0.0009394	P_RES
J39_15	204.454	0.0026631	P_COM
J39_16	209.598	0.0015637	P_RES
J39_17	215.079	0.0008006	P_RES
J39_18	220.993	0.0027708	P_COM
J39_19	227.664	0.0017274	P_RES
J39_20	232.206	0.0013375	P_RES
J39_21	239.318	0.0014372	P_RES
J39_22	243.497	0.0015144	P_RES
J39_23	249.397	0.0007310	P_RES
J39_24	255.500	0.0009469	P_RES
J39_25	260.501	0.0011103	P_RES
J39_26	265.582	0.0015625	P_RES
J39_27	272.383	0.0006072	P_RES
J39_28	276.391	0.0014190	P_RES
J39_29	284.109	0.0034721	P_IND
J39_30	289.353	0.0012082	P_RES
J39_31	295.042	0.0016110	P_COM
J39_32	299.812	0.0009544	P_RES
J39_33	305.317	0.0017185	P_COM
J39_34	309.646	0.0025927	P_COM
J39_35	316.781	0.0009078	P_RES
J39_36	322.119	0.0071922	P_IND
J39_37	327.057	0.0015537	P_COM
J39_38	331.916	0.0008732	P_RES
J39_39	337.828	0.0020077	P_COM
J39_40	343.547	0.0040787	P_IND
J39_41	348.493	0.0009939	P_RES
J39_42	353.645	0.0014489	P_RES
J39_43	358.875	0.0014723	P_RES
J39_44	364.744	0.0010756	P_RES
J39_45	370.907	0.0020123	P_IND
J39_46	375.917	0.0031104	P_IND
J39_47	381.486	0.0042033	P_IND
J39_48	387.790	0.0019731	P_COM
J39_49	392.927	0.0026411	P_IND
J39_50	396.839	0.0021602	P_RES
J39_51	403.724	0.0041009	P_COM
J39_52	408.153	0.0018047	P_COM
J39_53	414.492	0.0005603	P_RES
J39_54	418.437	0.0021518	P_COM
J39_55	424.117	0.0013670	P_COM
J39_56	430.975	0.0018900	P_RES
J39_57	434.758	0.0009331	P_RES
J39_58	439.894	0.0010736	P_RES
J39_59	445.960	0.0007402	P_RES
J39_60	452.239	0.0019393	P_IND
J39_61	457.373	0.0023872	P_COM
J39_62	462.147	0.0013593	P_RES
J39_63	466.809	0.0029613	P_COM
J39_64	471.906	0.0015559	P_RES
J39_65	477.088	0.0012733	P_COM
J39_66	481.529	0.0076463	P_IND
J39_67	488.346	0.0020459	P_COM
J39_68	492.525	0.0020271	P_RES
J39_69	497.088	0.0056444	P_IND
J39_70	503.088	0.0010465	P_RES
J39_71	508.645	0.0011898	P_RES
J39_72	513.250	0.0011832	P_RES
J39_73	518.250	0.0020417	P_IND
J39_74	524.856	0.0010389	P_RES
J39_75	529.789	0.0011987	P_RES
J39_76	534.798	0.0031460	P_COM
J39_77	540.484	0.0021092	P_RES
J39_78	544.685	0.0052621	P_IND
J39_79	550.486	0.0007079	P_RES
J39_80	555.793	0.0042395	P_IND
J39_81	560.664	0.0010879	P_RES
J39_82	564.359	0.0012739	P_RES
J39_83	570.170	0.0046968	P_IND
J39_84	574.893	0.0013523	P_COM
J40_1	124.506	0.0017645	P_RES
J40_2	128.889	0.0012539	P_RES
J40_3	134.561	0.0019066	P_RES
J40_4	141.192	0.0006169	P_RES
J40_5	146.227	0.0018166	P_RES
J40_6	151.210	0.0016538	P_RES
J40_7	158.495	0.0009471	P_RES
J40_8	164.498	0.0035296	P_IND
J40_9	168.426	0.0014071	P_COM
J40_10	173.488	0.0028093	P_COM
J40_11	181.500	0.0018300	P_RES
J40_12	186.865	0.0010972	P_RES
J40_13	191.781	0.0055365	P_IND
J40_14	196.129	0.0018165	P_RES
J40_15	201.777	0.0026673	P_COM
J40_16	209.741	0.0012968	P_RES
J40_17	215.394	0.0016979	P_RES
J40_18	220.410	0.0010346	P_RES
J40_19	226.183	0.0006605	P_RES
J40_20	232.184	0.0017954	P_RES
J40_21	237.646	0.0008746	P_RES
J40_22	241.839	0.0018359	P_RES
J40_23	247.720	0.0009184	P_RES
J40_24	254.586	0.0015087	P_RES
J40_25	258.981	0.0030457	P_COM
J40_26	265.124	0.0010475	P_RES
J40_27	269.504	0.0005801	P_RES
J40_28	275.970	0.0008663	P_RES
J40_29	280.608	0.0019574	P_COM
J40_30	288.101	0.0015116	P_RES
J40_31	292.882	0.0025414	P_IND
J40_32	297.108	0.0016733	P_RES
J40_33	304.546	0.0022436	P_COM
J40_34	309.042	0.0014706	P_COM
J40_35	314.089	0.0010850	P_RES
J40_36	319.242	0.0015439	P_RES
J40_37	325.614	0.0016922	P_RES
J40_38	330.296	0.0028213	P_IND
J40_39	335.640	0.0021862	P_RES
J40_40	340.966	0.0034402	P_RES
J40_41	346.551	0.0022774	P_RES
J40_42	353.783	0.0020419	P_RES
J40_43	358.788	0.0017437	P_RES
J40_44	363.029	0.0022208	P_COM
J40_45	368.543	0.0011325	P_COM
J40_46	373.635	0.0017831	P_RES
J40_47	380.185	0.0012523	P_RES
J40_48	384.729	0.0013196	P_COM
J40_49	390.128	0.0018392	P_RES
J40_50	395.673	0.0026472	P_RES
J40_51	400.682	0.0038743	P_COM
J40_52	407.408	0.0027365	P_IND
J40_53	413.337	0.0016232	P_RES
J40_54	417.706	0.0018577	P_COM
J40_55	422.189	0.0041995	P_COM
J40_56	428.463	0.0025510	P_COM
J40_57	434.475	0.0039072	P_IND
J40_58	439.282	0.0013134	P_COM
J40_59	443.231	0.0028296	P_IND
J40_60	450.283	0.0031563	P_RES
J40_61	454.287	0.0027429	P_COM
J40_62	459.134	0.0020368	P_RES
J40_63	465.604	0.0014927	P_RES
J40_64	470.938	0.0052046	P_COM
J40_65	475.738	0.0014961	P_RES
J40_66	481.501	0.0008650	P_RES
J40_67	486.675	0.0019394	P_COM
J40_68	492.341	0.0018578	P_RES
J40_69	496.330	0.0005714	P_RES
J40_70	502.887	0.0020425	P_RES
J40_71	506.339	0.0023494	P_COM
J40_72	512.603	0.0007432	P_RES
J40_73	517.526	0.0033385	P_IND
J40_74	522.899	0.0005783	P_RES
J40_75	526.825	0.0016908	P_COM
J40_76	533.347	0.0037310	P_IND
J40_77	538.896	0.0033635	P_COM
J40_78	543.901	0.0008777	P_RES
J40_79	547.553	0.0009056	P_COM
J40_80	552.714	0.0048731	P_IND
J40_81	559.690	0.0033010	P_COM
J40_82	563.229	0.0010448	P_RES
J40_83	568.456	0.0018585	P_COM
J40_84	574.177	0.0018652	P_COM
J41_1	122.228	0.0016691	P_COM
J41_2	128.138	0.0014095	P_RES
J41_3	132.453	0.0022286	P_COM
J41_4	139.509	0.0018044	P_COM
J41_5	143.479	0.0031154	P_IND
J41_6	150.487	0.0026210	P_IND
J41_7	156.410	0.0016281	P_RES
J41_8	160.608	0.0016043	P_RES
J41_9	167.941	0.0021938	P_RES
J41_10	173.769	0.0019576	P_RES
J41_11	177.905	0.0008283	P_RES
J41_12	183.343	0.0017188	P_RES
J41_13	190.764	0.0028254	P_IND
J41_14	196.475	0.0011003	P_RES
J41_15	202.094	0.0016160	P_RES
J41_16	207.248	0.0012780	P_RES
J41_17	213.511	0.0007088	P_RES
J41_18	218.695	0.0006199	P_RES
J41_19	224.240	0.0017858	P_RES
J41_20	229.069	0.0019925	P_COM
J41_21	234.530	0.0007766	P_RES
J41_22	241.168	0.0032314	P_COM
J41_23	245.507	0.0013465	P_RES
J41_24	251.333	0.0018265	P_COM
J41_25	258.003	0.0012189	P_RES
J41_26	262.928	0.0009928	P_RES
J41_27	269.564	0.0004451	P_RES
J41_28	274.525	0.0026141	P_IND
J41_29	279.303	0.0022417	P_COM
J41_30	286.208	0.0023226	P_RES
J41_31	290.032	0.0006369	P_RES
J41_32	297.547	0.0023372	P_COM
J41_33	301.959	0.0011668	P_RES
J41_34	308.152	0.0012123	P_RES
J41_35	312.195	0.0047283	P_IND
J41_36	319.294	0.0006607	P_RES
J41_37	324.575	0.0006907	P_RES
J41_38	328.391	0.0004812	P_RES
J41_39	333.707	0.0021767	P_RES
J41_40	340.942	0.0007344	P_RES
J41_41	345.196	0.0037073	P_RES
J41_42	351.995	0.0008486	P_RES
J41_43	355.841	0.0022099	P_COM
J41_44	362.706	0.0025072	P_RES
J41_45	367.834	0.0035855	P_COM
J41_46	372.093	0.0030134	P_COM
J41_47	377.881	0.0015548	P_RES
J41_48	384.115	0.0009185	P_COM
J41_49	388.492	0.0010207	P_RES
J41_50	394.312	0.0022658	P_RES
J41_51	400.532	0.0005561	P_RES
J41_52	405.154	0.0043033	P_RES
J41_53	410.666	0.0037332	P_COM
J41_54	416.357	0.0013939	P_COM
J41_55	420.681	0.0007022	P_RES
J41_56	426.226	0.0026420	P_COM
J41_57	432.835	0.0029113	P_IND
J41_58	437.080	0.0011778	P_RES
J41_59	441.305	0.0035484	P_COM
J41_60	447.438	0.0016544	P_RES
J41_61	453.299	0.0030016	P_RES
J41_62	458.129	0.0012863	P_RES
J41_63	463.568	0.0016796	P_RES
J41_64	467.647	0.0012812	P_RES
J41_65	475.101	0.0008004	P_RES
J41_66	479.856	0.0016304	P_RES
J41_67	484.245	0.0009388	P_RES
J41_68	488.752	0.0022820	P_IND
J41_69	496.096	0.0012045	P_RES
J41_70	499.438	0.0024909	P_COM
J41_71	504.844	0.0009528	P_RES
J41_72	511.100	0.0023687	P_RES
J41_73	515.240	0.0008322	P_RES
J41_74	521.237	0.0041470	P_RES
J41_75	526.790	0.0011048	P_RES
J41_76	530.968	0.0034279	P_IND
J41_77	536.176	0.0005367	P_RES
J41_78	541.023	0.0012991	P_RES
J41_79	547.443	0.0011456	P_RES
J41_80	550.929	0.0009009	P_RES
J41_81	556.634	0.0035715	P_IND
J41_82	561.272	0.0006586	P_RES
J41_83	566.699	0.0004974	P_RES
J41_84	572.782	0.0016638	P_COM
J42_1	121.387	0.0036755	P_IND
J42_2	127.007	0.0017239	P_RES
J42_3	130.795	0.0022585	P_RES
J42_4	136.347	0.0008104	P_RES
J42_5	142.395	0.0014983	P_RES
J42_6	149.657	0.0010927	P_RES
J42_7	154.534	0.0023265	P_RES
J42_8	159.470	0.0014938	P_COM
J42_9	166.673	0.0014035	P_COM
J42_10	171.692	0.0007028	P_RES
J42_11	176.106	0.0020467	P_COM
J42_12	182.852	0.0008921	P_RES
J42_13	188.437	0.0011481	P_RES
J42_14	194.906	0.0021896	P_IND
J42_15	199.340	0.0003692	P_RES
J42_16	204.309	0.0010689	P_RES
J42_17	210.542	0.0024716	P_COM
J42_18	215.906	0.0009126	P_RES
J42_19	222.583	0.0030753	P_IND
J42_20	228.683	0.0047434	P_IND
J42_21	234.592	0.0023892	P_COM
J42_22	239.679	0.0011741	P_IND
J42_23	245.306	0.0011782	P_RES
J42_24	249.351	0.0016778	P_COM
J42_25	255.299	0.0005489	P_RES
J42_26	262.434	0.0016402	P_RES
J42_27	267.763	0.0008732	P_RES
J42_28	272.184	0.0022619	P_RES
J42_29	277.256	0.0014928	P_RES
J42_30	282.760	0.0007468	P_RES
J42_31	289.587	0.0011874	P_RES
J42_32	293.687	0.0007118	P_RES
J42_33	300.351	0.0016127	P_RES
J42_34	305.625	0.0005792	P_RES
J42_35	310.508	0.0020793	P_RES
J42_36	317.356	0.0010205	P_RES
J42_37	323.035	0.0008524	P_RES
J42_38	327.112	0.0018513	P_RES
J42_39	332.354	0.0013155	P_RES
J42_40	337.535	0.0009832	P_RES
J42_41	345.164	0.0036016	P_RES
J42_42	349.767	0.0013847	P_RES
J42_43	355.073	0.0008956	P_RES
J42_44	360.128	0.0022552	P_IND
J42_45	365.666	0.0024874	P_RES
J42_46	371.258	0.0009871	P_RES
J42_47	376.418	0.0019960	P_RES
J42_48	381.737	0.0015488	P_COM
J42_49	387.036	0.0009545	P_RES
J42_50	393.655	0.0019667	P_COM
J42_51	397.392	0.0009371	P_RES
J42_52	403.311	0.0007751	P_RES
J42_53	409.770	0.0023974	P_IND
J42_54	413.311	0.0064789	P_IND
J42_55	420.514	0.0009571	P_RES
J42_56	424.246	0.0011459	P_RES
J42_57	431.130	0.0010955	P_RES
J42_58	436.435	0.0014380	P_RES
J42_59	439.856	0.0033527	P_COM
J42_60	445.388	0.0028558	P_COM
J42_61	450.466	0.0010021	P_RES
J42_62	457.291	0.0013496	P_COM
J42_63	461.343	0.0011239	P_RES
J42_64	466.690	0.0024439	P_COM
J42_65	471.578	0.0037201	P_IND
J42_66	478.326	0.0009168	P_RES
J42_67	483.664	0.0008508	P_RES
J42_68	488.552	0.0020155	P_RES
J42_69	492.770	0.0010793	P_RES
J42_70	497.514	0.0011563	P_RES
J42_71	502.833	0.0038677	P_IND
J42_72	508.690	0.0028920	P_RES
J42_73	515.046	0.0023984	P_COM
J42_74	520.493	0.0010570	P_RES
J42_75	524.338	0.0026678	P_RES
J42_76	530.676	0.0013328	P_RES
J42_77	535.272	0.0010880	P_RES
J42_78	540.978	0.0015894	P_RES
J42_79	544.333	0.0017252	P_RES
J42_80	551.197	0.0018217	P_RES
J42_81	555.504	0.0022498	P_IND
J42_82	561.060	0.0013490	P_RES
J42_83	566.066	0.0029544	P_IND
J42_84	572.009	0.0026250	P_COM
J43_1	117.763	0.0042174	P_COM
J43_2	123.781	0.0011123	P_RES
J43_3	129.615	0.0014004	P_COM
J43_4	134.719	0.0021814	P_IND
J43_5	142.345	0.0020911	P_COM
J43_6	146.788	0.0007916	P_RES
J43_7	153.653	0.0029200	P_COM
J43_8	157.690	0.0023152	P_COM
J43_9	164.899	0.0015192	P_RES
J43_10	169.777	0.0010179	P_RES
J43_11	175.346	0.0017163	P_RES
J43_12	180.343	0.0036956	P_IND
J43_13	185.899	0.0017103	P_RES
J43_14	191.485	0.0027588	P_IND
J43_15	197.033	0.0006047	P_RES
J43_16	203.980	0.0008567	P_RES
J43_17	208.714	0.0027970	P_COM
J43_18	215.445	0.0009654	P_RES
J43_19	220.707	0.0023294	P_RES
J43_20	225.727	0.0018285	P_RES
J43_21	231.851	0.0012382	P_RES
J43_22	237.142	0.0017682	P_COM
J43_23	243.722	0.0021160	P_RES
J43_24	247.793	0.0009340	P_RES
J43_25	252.954	0.0017166	P_COM
J43_26	259.675	0.0029857	P_IND
J43_27	264.148	0.0008949	P_RES
J43_28	271.492	0.0014358	P_COM
J43_29	277.105	0.0014931	P_RES
J43_30	281.754	0.0036671	P_IND
J43_31	288.237	0.0015788	P_RES
J43_32	293.194	0.0051775	P_IND
J43_33	297.646	0.0007376	P_RES
J43_34	303.438	0.0006203	P_RES
J43_35	308.659	0.0020450	P_COM
J43_36	315.331	0.0007953	P_RES
J43_37	319.630	0.0019773	P_RES
J43_38	325.540	0.0017470	P_RES
J43_39	331.569	0.0008532	P_RES
J43_40	336.175	0.0018063	P_RES
J43_41	343.313	0.0005971	P_RES
J43_42	348.349	0.0016764	P_RES
J43_43	352.868	0.0018616	P_RES
J43_44	357.653	0.0027987	P_RES
J43_45	363.944	0.0014300	P_RES
J43_46	370.740	0.0034987	P_IND
J43_47	375.464	0.0031973	P_RES
J43_48	381.092	0.0009161	P_RES
J43_49	386.446	0.0010915	P_RES
J43_50	390.679	0.0006282	P_RES
J43_51	397.563	0.0010614	P_RES
J43_52	402.077	0.0007950	P_RES
J43_53	408.415	0.0009781	P_COM
J43_54	412.094	0.0009391	P_COM
J43_55	418.766	0.0008404	P_RES
J43_56	423.220	0.0012705	P_RES
J43_57	428.581	0.0017635	P_RES
J43_58	433.856	0.0008836	P_RES
J43_59	438.595	0.0014133	P_RES
J43_60	443.785	0.0011853	P_RES
J43_61	448.637	0.0013375	P_COM
J43_62	454.842	0.0012462	P_RES
J43_63	459.869	0.0011606	P_RES
J43_64	466.561	0.0035559	P_IND
J43_65	471.225	0.0022897	P_RES
J43_66	475.265	0.0010258	P_RES
J43_67	480.266	0.0024741	P_RES
J43_68	487.352	0.0028235	P_IND
J43_69	491.125	0.0032680	P_COM
J43_70	496.951	0.0020621	P_RES
J43_71	501.299	0.0007960	P_RES
J43_72	506.646	0.0017208	P_RES
J43_73	512.591	0.0011424	P_RES
J43_74	516.551	0.0010848	P_RES
J43_75	522.835	0.0007369	P_RES
J43_76	527.098	0.0024679	P_COM
J43_77	534.145	0.0023111	P_RES
J43_78	538.853	0.0046324	P_COM
J43_79	544.022	0.0021823	P_RES
J43_80	549.562	0.0017749	P_RES
J43_81	552.745	0.0007780	P_RES
J43_82	559.242	0.0009869	P_RES
J43_83	563.232	0.0007757	P_RES
J43_84	568.516	0.0021861	P_COM
J44_1	116.084	0.0008593	P_RES
J44_2	123.120	0.0018713	P_RES
J44_3	127.955	0.0020934	P_RES
J44_4	134.403	0.0024549	P_IND
J44_5	140.872	0.0022300	P_RES
J44_6	146.508	0.0014645	P_COM
J44_7	150.948	0.0013920	P_IND
J44_8	156.997	0.0016494	P_RES
J44_9	162.272	0.0012628	P_RES
J44_10	168.335	0.0010119	P_RES
J44_11	174.044	0.0011984	P_RES
J44_12	178.964	0.0020887	P_RES
J44_13	185.182	0.0027020	P_RES
J44_14	190.784	0.0023975	P_COM
J44_15	197.258	0.0008594	P_RES
J44_16	201.975	0.0004713	P_RES
J44_17	208.099	0.0011739	P_RES
J44_18	213.280	0.0022258	P_RES
J44_19	219.318	0.0022527	P_IND
J44_20	223.938	0.0008233	P_RES
J44_21	229.237	0.0032001	P_RES
J44_22	236.605	0.0006017	P_COM
J44_23	241.755	0.0009470	P_RES
J44_24	247.148	0.0017773	P_RES
J44_25	251.473	0.0030023	P_RES
J44_26	257.180	0.0017364	P_COM
J44_27	264.271	0.0008282	P_RES
J44_28	268.318	0.0025310	P_COM
J44_29	275.516	0.0009267	P_RES
J44_30	281.172	0.0020188	P_COM
J44_31	285.077	0.0018516	P_COM
J44_32	291.713	0.0008584	P_RES
J44_33	296.308	0.0050352	P_RES
J44_34	303.017	0.0006883	P_RES
J44_35	308.146	0.0010383	P_RES
J44_36	313.738	0.0013941	P_RES
J44_37	319.301	0.0013079	P_RES
J44_38	325.489	0.0018826	P_RES
J44_39	330.830	0.0008684	P_RES
J44_40	334.470	0.0017394	P_COM
J44_41	341.357	0.0029394	P_COM
J44_42	346.356	0.0013246	P_RES
J44_43	351.801	0.0030854	P_COM
J44_44	357.005	0.0013382	P_COM
J44_45	362.513	0.0027385	P_IND
J44_46	368.143	0.0003429	P_RES
J44_47	373.461	0.0009123	P_RES
J44_48	377.947	0.0008557	P_RES
J44_49	385.388	0.0007861	P_RES
J44_50	389.887	0.0008969	P_RES
J44_51	393.783	0.0046123	P_COM
J44_52	399.294	0.0013687	P_RES
J44_53	405.357	0.0025877	P_IND
J44_54	410.981	0.0039009	P_COM
J44_55	416.342	0.0010197	P_RES
J44_56	421.813	0.0011265	P_COM
J44_57	426.651	0.0018375	P_COM
J44_58	432.105	0.0027464	P_IND
J44_59	438.037	0.0032358	P_IND
J44_60	442.914	0.0043419	P_RES
J44_61	449.220	0.0014760	P_RES
J44_62	452.938	0.0010239	P_RES
J44_63	458.858	0.0010512	P_RES
J44_64	463.942	0.0026116	P_RES
J44_65	469.273	0.0034592	P_IND
J44_66	474.516	0.0010358	P_RES
J44_67	479.878	0.0012997	P_RES
J44_68	484.006	0.0008347	P_RES
J44_69	489.714	0.0025697	P_RES
J44_70	495.113	0.0015050	P_RES
J44_71	500.815	0.0009125	P_RES
J44_72	505.088	0.0020144	P_RES
J44_73	509.649	0.0015405	P_RES
J44_74	516.397	0.0019877	P_RES
J44_75	521.058	0.0007127	P_RES
J44_76	526.224	0.0013739	P_RES
J44_77	530.380	0.0051796	P_IND
J44_78	536.053	0.0008998	P_RES
J44_79	541.965	0.0017660	P_RES
J44_80	546.212	0.0013567	P_RES
J44_81	550.956	0.0020683	P_IND
J44_82	557.198	0.0009347	P_COM
J44_83	563.279	0.0006853	P_RES
J44_84	567.650	0.0013911	P_RES
J45_1	114.619	0.0015729	P_RES
J45_2	120.601	0.0021246	P_RES
J45_3	127.217	0.0026966	P_RES
J45_4	132.982	0.0021338	P_RES
J45_5	139.129	0.0012679	P_RES
J45_6	142.691	0.0017436	P_RES
J45_7	148.588	0.0029243	P_COM
J45_8	154.708	0.0026230	P_RES
J45_9	160.296	0.0024012	P_COM
J45_10	167.239	0.0019276	P_RES
J45_11	172.820	0.0041058	P_COM
J45_12	177.977	0.0016486	P_RES
J45_13	182.663	0.0009975	P_RES
J45_14	190.049	0.0011133	P_RES
J45_15	193.502	0.0036935	P_COM
J45_16	200.990	0.0024892	P_RES
J45_17	205.309	0.0044976	P_RES
J45_18	210.717	0.0015758	P_RES
J45_19	217.379	0.0021892	P_RES
J45_20	223.677	0.0017315	P_COM
J45_21	228.156	0.0021724	P_RES
J45_22	234.727	0.0018114	P_RES
J45_23	239.923	0.0013365	P_RES
J45_24	244.444	0.0012242	P_RES
J45_25	249.725	0.0011868	P_RES
J45_26	257.411	0.0039736	P_IND
J45_27	262.268	0.0011125	P_RES
J45_28	267.066	0.0009966	P_RES
J45_29	273.480	0.0012723	P_RES
J45_30	277.885	0.0023888	P_RES
J45_31	283.705	0.0022754	P_COM
J45_32	288.883	0.0005211	P_RES
J45_33	295.736	0.0031497	P_IND
J45_34	300.848	0.0012395	P_COM
J45_35	307.133	0.0010670	P_RES
J45_36	311.203	0.0038197	P_COM
J45_37	318.204	0.0027403	P_COM
J45_38	322.533	0.0036113	P_COM
J45_39	327.334	0.0012720	P_RES
J45_40	332.887	0.0018221	P_RES
J45_41	338.706	0.0010453	P_RES
J45_42	345.785	0.0022011	P_COM
J45_43	350.396	0.0013813	P_RES
J45_44	356.076	0.0013261	P_RES
J45_45	360.614	0.0009884	P_COM
J45_46	367.178	0.0023157	P_RES
J45_47	371.954	0.0024364	P_RES
J45_48	376.015	0.0050340	P_IND
J45_49	382.037	0.0010969	P_RES
J45_50	387.520	0.0027212	P_RES
J45_51	392.803	0.0015586	P_RES
J45_52	399.071	0.0009014	P_RES
J45_53	404.814	0.0028681	P_RES
J45_54	409.473	0.0014982	P_RES
J45_55	415.176	0.0018039	P_RES
J45_56	419.570	0.0027470	P_IND
J45_57	424.765	0.0009548	P_RES
J45_58	429.611	0.0008232	P_RES
J45_59	435.016	0.0014748	P_RES
J45_60	440.337	0.0007374	P_RES
J45_61	447.138	0.0018522	P_RES
J45_62	452.874	0.0031617	P_RES
J45_63	457.876	0.0012231	P_RES
J45_64	461.767	0.0016034	P_RES
J45_65	467.620	0.0027538	P_COM
J45_66	472.245	0.0015357	P_RES
J45_67	479.139	0.0018218	P_RES
J45_68	483.194	0.0016339	P_RES
J45_69	487.950	0.0021341	P_COM
J45_70	494.654	0.0021599	P_RES
J45_71	498.444	0.0005947	P_RES
J45_72	504.895	0.0019973	P_IND
J45_73	509.820	0.0007489	P_RES
J45_74	513.498	0.0012698	P_COM
J45_75	518.827	0.0016411	P_RES
J45_76	523.787	0.0018536	P_RES
J45_77	530.452	0.0022995	P_COM
J45_78	534.300	0.0012502	P_RES
J45_79	539.999	0.0015324	P_RES
J45_80	544.361	0.0014789	P_RES
J45_81	549.526	0.0031554	P_COM
J45_82	554.764	0.0021609	P_COM
J45_83	559.993	0.0018931	P_RES
J45_84	565.967	0.0016103	P_COM
J46_1	113.788	0.0011793	P_RES
J46_2	119.995	0.0012440	P_RES
J46_3	124.788	0.0016656	P_RES
J46_4	130.510	0.0005886	P_RES
J46_5	137.042	0.0008218	P_RES
J46_6	142.414	0.0016312	P_RES
J46_7	147.918	0.0023866	P_RES
J46_8	153.345	0.0024033	P_RES
J46_9	158.650	0.0011834	P_COM
J46_10	164.935	0.0015456	P_RES
J46_11	170.144	0.0005228	P_RES
J46_12	176.981	0.0014197	P_RES
J46_13	182.335	0.0008397	P_RES
J46_14	187.489	0.0014865	P_RES
J46_15	193.624	0.0011480	P_COM
J46_16	197.874	0.0016713	P_RES
J46_17	203.144	0.0013513	P_RES
J46_18	209.894	0.0041975	P_RES
J46_19	214.423	0.0005526	P_RES
J46_20	222.053	0.0016027	P_COM
J46_21	227.421	0.0009431	P_COM
J46_22	232.913	0.0009833	P_RES
J46_23	236.970	0.0018226	P_RES
J46_24	243.889	0.0015399	P_COM
J46_25	249.509	0.0028074	P_IND
J46_26	254.472	0.0009668	P_RES
J46_27	259.413	0.0007780	P_RES
J46_28	265.082	0.0009803	P_RES
J46_29	270.399	0.0010414	P_RES
J46_30	275.970	0.0014055	P_RES
J46_31	283.273	0.0017225	P_RES
J46_32	288.692	0.0027994	P_RES
J46_33	293.565	0.0015691	P_COM
J46_34	299.242	0.0014827	P_IND
J46_35	305.574	0.0018778	P_RES
J46_36	309.544	0.0005840	P_RES
J46_37	316.073	0.0010921	P_RES
J46_38	320.835	0.0041027	P_RES
J46_39	327.153	0.0011584	P_RES
J46_40	332.941	0.0006830	P_RES
J46_41	337.423	0.0011789	P_RES
J46_42	343.912	0.0021966	P_IND
J46_43	348.647	0.0031074	P_RES
J46_44	352.778	0.0021113	P_RES
J46_45	359.631	0.0017753	P_IND
J46_46	364.632	0.0013708	P_RES
J46_47	370.213	0.0011014	P_RES
J46_48	374.399	0.0011178	P_RES
J46_49	381.398	0.0008652	P_RES
J46_50	385.645	0.0009456	P_RES
J46_51	390.558	0.0029442	P_IND
J46_52	398.163	0.0023154	P_COM
J46_53	401.206	0.0031020	P_RES
J46_54	407.336	0.0013053	P_COM
J46_55	412.096	0.0022038	P_RES
J46_56	419.520	0.0016902	P_RES
J46_57	423.741	0.0036942	P_RES
J46_58	430.059	0.0014348	P_RES
J46_59	434.619	0.0032498	P_IND
J46_60	440.090	0.0009839	P_RES
J46_61	445.685	0.0008985	P_RES
J46_62	449.547	0.0014570	P_RES
J46_63	455.264	0.0039134	P_IND
J46_64	459.559	0.0016082	P_RES
J46_65	466.310	0.0019965	P_RES
J46_66	471.871	0.0019516	P_COM
J46_67	475.298	0.0006781	P_RES
J46_68	480.674	0.0022660	P_RES
J46_69	486.974	0.0017889	P_RES
J46_70	491.831	0.0048883	P_IND
J46_71	498.016	0.0011304	P_COM
J46_72	501.536	0.0018931	P_IND
J46_73	507.589	0.0019920	P_COM
J46_74	513.136	0.0007108	P_RES
J46_75	518.387	0.0009145	P_RES
J46_76	523.416	0.0008105	P_RES
J46_77	528.387	0.0004981	P_RES
J46_78	532.747	0.0033835	P_COM
J46_79	538.307	0.0024755	P_RES
J46_80	543.225	0.0035442	P_IND
J46_81	549.935	0.0009594	P_RES
J46_82	554.296	0.0027475	P_RES
J46_83	559.032	0.0061537	P_COM
J46_84	564.772	0.0024072	P_COM
J47_1	113.327	0.0032917	P_RES
J47_2	116.636	0.0010268	P_RES
J47_3	123.615	0.0018079	P_RES
J47_4	129.574	0.0007858	P_RES
J47_5	133.831	0.0011890	P_RES
J47_6	140.260	0.0018778	P_RES
J47_7	146.525	0.0010448	P_RES
J47_8	150.977	0.0030149	P_COM
J47_9	156.394	0.0013493	P_RES
J47_10	163.046	0.0012143	P_RES
J47_11	167.751	0.0012132	P_RES
J47_12	173.934	0.0009091	P_RES
J47_13	181.036	0.0017778	P_COM
J47_14	186.362	0.0039750	P_RES
J47_15	191.229	0.0016728	P_RES
J47_16	196.522	0.0023752	P_IND
J47_17	201.602	0.0019582	P_COM
J47_18	207.147	0.0012615	P_RES
J47_19	214.638	0.0010372	P_COM
J47_20	218.787	0.0015226	P_RES
J47_21	224.592	0.0017081	P_RES
J47_22	231.444	0.0007708	P_RES
J47_23	236.847	0.0021829	P_RES
J47_24	241.889	0.0004412	P_RES
J47_25	248.355	0.0014647	P_RES
J47_26	254.002	0.0037698	P_COM
J47_27	258.587	0.0008350	P_RES
J47_28	264.820	0.0009620	P_RES
J47_29	269.236	0.0006660	P_RES
J47_30	275.453	0.0006227	P_RES
J47_31	280.061	0.0004687	P_RES
J47_32	286.095	0.0005921	P_RES
J47_33	291.368	0.0005499	P_RES
J47_34	298.628	0.0013371	P_RES
J47_35	302.410	0.0023214	P_IND
J47_36	307.850	0.0027974	P_COM
J47_37	313.931	0.0019541	P_RES
J47_38	319.901	0.0011019	P_RES
J47_39	326.237	0.0006697	P_RES
J47_40	330.990	0.0042069	P_COM
J47_41	336.214	0.0012558	P_RES
J47_42	340.612	0.0010225	P_RES
J47_43	347.203	0.0012077	P_RES
J47_44	353.387	0.0036005	P_IND
J47_45	357.106	0.0011014	P_RES
J47_46	363.508	0.0005507	P_RES
J47_47	368.385	0.0015816	P_RES
J47_48	374.684	0.0007345	P_RES
J47_49	379.384	0.0023259	P_RES
J47_50	383.817	0.0019538	P_RES
J47_51	390.615	0.0009912	P_COM
J47_52	394.491	0.0008778	P_RES
J47_53	399.902	0.0012550	P_RES
J47_54	406.746	0.0017912	P_RES
J47_55	411.972	0.0011128	P_RES
J47_56	416.600	0.0011432	P_RES
J47_57	422.203	0.0011581	P_RES
J47_58	426.688	0.0024718	P_RES
J47_59	431.781	0.0021026	P_IND
J47_60	437.881	0.0015100	P_RES
J47_61	444.110	0.0005130	P_RES
J47_62	449.373	0.0014775	P_RES
J47_63	453.148	0.0033359	P_RES
J47_64	459.647	0.0020196	P_RES
J47_65	465.297	0.0009916	P_RES
J47_66	469.746	0.0012790	P_RES
J47_67	473.968	0.0025543	P_IND
J47_68	480.126	0.0015881	P_RES
J47_69	486.012	0.0040538	P_RES
J47_70	490.208	0.0016657	P_RES
J47_71	495.402	0.0031360	P_RES
J47_72	500.746	0.0004817	P_RES
J47_73	507.103	0.0044840	P_RES
J47_74	511.421	0.0012825	P_COM
J47_75	516.568	0.0037596	P_COM
J47_76	521.459	0.0007430	P_RES
J47_77	526.542	0.0013136	P_RES
J47_78	531.045	0.0009564	P_RES
J47_79	535.801	0.0009827	P_RES
J47_80	540.919	0.0004623	P_RES
J47_81	547.019	0.0021659	P_RES
J47_82	552.231	0.0014373	P_RES
J47_83	557.432	0.0007709	P_COM
J47_84	561.499	0.0008740	P_RES
J48_1	109.763	0.0013904	P_RES
J48_2	115.472	0.0008830	P_RES
J48_3	120.716	0.0018984	P_IND
J48_4	126.994	0.0008347	P_RES
J48_5	133.737	0.0015745	P_RES
J48_6	138.217	0.0008447	P_RES
J48_7	145.438	0.0005238	P_COM
J48_8	150.992	0.0016535	P_RES
J48_9	155.962	0.0004928	P_RES
J48_10	160.769	0.0037900	P_RES
J48_11	166.686	0.0018905	P_RES
J48_12	173.354	0.0013903	P_RES
J48_13	179.258	0.0019783	P_COM
J48_14	184.394	0.0016513	P_RES
J48_15	190.068	0.0027866	P_IND
J48_16	195.495	0.0010957	P_RES
J48_17	201.989	0.0032547	P_IND
J48_18	205.672	0.0023080	P_COM
J48_19	213.361	0.0033078	P_IND
J48_20	217.598	0.0017810	P_COM
J48_21	223.263	0.0017861	P_COM
J48_22	229.462	0.0012608	P_RES
J48_23	234.891	0.0026172	P_RES
J48_24	241.029	0.0009957	P_RES
J48_25	245.172	0.0013391	P_RES
J48_26	251.429	0.0008482	P_RES
J48_27	257.652	0.0011240	P_RES
J48_28	262.593	0.0017879	P_COM
J48_29	268.192	0.0021500	P_RES
J48_30	273.409	0.0010142	P_COM
J48_31	280.033	0.0048406	P_RES
J48_32	284.018	0.0009062	P_RES
J48_33	290.819	0.0016151	P_RES
J48_34	295.769	0.0010426	P_RES
J48_35	302.261	0.0010387	P_RES
J48_36	305.783	0.0014921	P_IND
J48_37	311.648	0.0026490	P_IND
J48_38	316.804	0.0015789	P_RES
J48_39	324.348	0.0014098	P_RES
J48_40	329.513	0.0026607	P_COM
J48_41	334.123	0.0006171	P_RES
J48_42	340.173	0.0041725	P_IND
J48_43	346.227	0.0051706	P_COM
J48_44	351.194	0.0006986	P_RES
J48_45	355.246	0.0013925	P_RES
J48_46	361.956	0.0011678	P_RES
J48_47	366.476	0.0010632	P_RES
J48_48	371.165	0.0022641	P_IND
J48_49	378.802	0.0007181	P_RES
J48_50	383.368	0.0011122	P_RES
J48_51	389.440	0.0009036	P_RES
J48_52	393.502	0.0015988	P_RES
J48_53	399.819	0.0022912	P_COM
J48_54	403.751	0.0039083	P_COM
J48_55	409.688	0.0017027	P_RES
J48_56	413.982	0.0005285	P_RES
J48_57	421.293	0.0011338	P_RES
J48_58	426.660	0.0019249	P_RES
J48_59	430.894	0.0011264	P_RES
J48_60	435.978	0.0012469	P_RES
J48_61	440.767	0.0027396	P_COM
J48_62	446.161	0.0010517	P_RES
J48_63	451.035	0.0034968	P_IND
J48_64	457.362	0.0020432	P_COM
J48_65	461.822	0.0026753	P_COM
J48_66	467.451	0.0008313	P_RES
J48_67	473.272	0.0012632	P_RES
J48_68	478.973	0.0012154	P_RES
J48_69	483.990	0.0016463	P_COM
J48_70	488.688	0.0014318	P_RES
J48_71	493.315	0.0008086	P_COM
J48_72	500.283	0.0019466	P_RES
J48_73	503.970	0.0037873	P_COM
J48_74	510.379	0.0008046	P_RES
J48_75	513.756	0.0033359	P_IND
J48_76	520.699	0.0021348	P_COM
J48_77	524.437	0.0019698	P_RES
J48_78	529.665	0.0011422	P_RES
J48_79	536.387	0.0012053	P_RES
J48_80	541.288	0.0025892	P_COM
J48_81	546.286	0.0015093	P_RES
J48_82	550.077	0.0011741	P_RES
J48_83	554.917	0.0011951	P_COM
J48_84	560.914	0.0029542	P_COM
J49_1	109.370	0.0021809	P_RES
J49_2	114.201	0.0013351	P_RES
J49_3	119.323	0.0023404	P_COM
J49_4	124.895	0.0018576	P_RES
J49_5	132.427	0.0006504	P_RES
J49_6	137.430	0.0008944	P_RES
J49_7	142.594	0.0063312	P_COM
J49_8	149.199	0.0015545	P_RES
J49_9	154.711	0.0015469	P_COM
J49_10	159.775	0.0011655	P_RES
J49_11	166.642	0.0016239	P_COM
J49_12	171.674	0.0011061	P_RES
J49_13	176.055	0.0031771	P_COM
J49_14	181.654	0.0013777	P_RES
J49_15	188.670	0.0028802	P_COM
J49_16	193.583	0.0006778	P_RES
J49_17	199.480	0.0008393	P_RES
J49_18	205.964	0.0009679	P_RES
J49_19	211.206	0.0020564	P_RES
J49_20	217.486	0.0025287	P_RES
J49_21	221.826	0.0017900	P_RES
J49_22	226.358	0.0011240	P_RES
J49_23	233.570	0.0008990	P_RES
J49_24	239.556	0.0011562	P_RES
J49_25	244.499	0.0010365	P_RES
J49_26	250.367	0.0013410	P_RES
J49_27	254.687	0.0019208	P_COM
J49_28	259.906	0.0017282	P_COM
J49_29	267.178	0.0014764	P_COM
J49_30	272.878	0.0013062	P_RES
J49_31	277.013	0.0029280	P_COM
J49_32	282.911	0.0007400	P_RES
J49_33	288.141	0.0012073	P_RES
J49_34	295.270	0.0009690	P_RES
J49_35	300.079	0.0014018	P_RES
J49_36	304.460	0.0016513	P_RES
J49_37	309.615	0.0015014	P_COM
J49_38	316.864	0.0014479	P_COM
J49_39	321.472	0.0040423	P_IND
J49_40	326.117	0.0052038	P_COM
J49_41	332.552	0.0016666	P_RES
J49_42	337.155	0.0037530	P_IND
J49_43	342.739	0.0014818	P_RES
J49_44	349.547	0.0020092	P_COM
J49_45	355.378	0.0019412	P_RES
J49_46	359.047	0.0011955	P_RES
J49_47	365.460	0.0032602	P_RES
J49_48	369.487	0.0016953	P_RES
J49_49	376.136	0.0011015	P_RES
J49_50	382.368	0.0034325	P_COM
J49_51	387.678	0.0015276	P_RES
J49_52	392.356	0.0009732	P_RES
J49_53	398.672	0.0010993	P_RES
J49_54	403.365	0.0016731	P_RES
J49_55	408.998	0.0008359	P_RES
J49_56	412.552	0.0011023	P_RES
J49_57	419.896	0.0010288	P_RES
J49_58	424.604	0.0024804	P_COM
J49_59	428.380	0.0011066	P_RES
J49_60	434.369	0.0014142	P_RES
J49_61	440.994	0.0004281	P_RES
J49_62	444.502	0.0027611	P_COM
J49_63	451.208	0.0057204	P_COM
J49_64	456.288	0.0013925	P_COM
J49_65	461.308	0.0007836	P_RES
J49_66	467.107	0.0013163	P_RES
J49_67	470.673	0.0018781	P_COM
J49_68	477.178	0.0009009	P_RES
J49_69	481.229	0.0017834	P_COM
J49_70	487.934	0.0029031	P_IND
J49_71	491.897	0.0010406	P_RES
J49_72	496.700	0.0018974	P_RES
J49_73	503.312	0.0012859	P_RES
J49_74	508.851	0.0041335	P_COM
J49_75	513.537	0.0015765	P_RES
J49_76	517.153	0.0021901	P_RES
J49_77	523.141	0.0029078	P_COM
J49_78	527.385	0.0006893	P_RES
J49_79	534.265	0.0010713	P_RES
J49_80	539.106	0.0011503	P_RES
J49_81	543.128	0.0031489	P_IND
J49_82	548.427	0.0013540	P_COM
J49_83	555.040	0.0013778	P_RES
J49_84	559.813	0.0009628	P_RES
J50_1	106.637	0.0008525	P_RES
J50_2	113.093	0.0009677	P_RES
J50_3	118.278	0.0014320	P_RES
J50_4	124.594	0.0013086	P_COM
J50_5	130.639	0.0040607	P_COM
J50_6	135.218	0.0008337	P_RES
J50_7	140.079	0.0019062	P_COM
J50_8	147.716	0.0006202	P_RES
J50_9	152.562	0.0023083	P_RES
J50_10	158.100	0.0010089	P_COM
J50_11	162.872	0.0015278	P_RES
J50_12	170.007	0.0031983	P_COM
J50_13	175.732	0.0008309	P_RES
J50_14	180.680	0.0020647	P_RES
J50_15	185.790	0.0017342	P_RES
J50_16	192.005	0.0012756	P_RES
J50_17	197.142	0.0027422	P_IND
J50_18	203.160	0.0037420	P_IND
J50_19	209.010	0.0018642	P_RES
J50_20	214.185	0.0029304	P_IND
J50_21	219.858	0.0005655	P_RES
J50_22	226.163	0.0020135	P_RES
J50_23	231.389	0.0016376	P_RES
J50_24	237.097	0.0017174	P_COM
J50_25	243.561	0.0023875	P_COM
J50_26	247.813	0.0066311	P_IND
J50_27	252.987	0.0013515	P_RES
J50_28	260.000	0.0006210	P_RES
J50_29	265.513	0.0013831	P_COM
J50_30	270.505	0.0013010	P_COM
J50_31	276.964	0.0019845	P_RES
J50_32	280.590	0.0011289	P_RES
J50_33	287.770	0.0054518	P_COM
J50_34	291.556	0.0012501	P_RES
J50_35	297.605	0.0034961	P_COM
J50_36	304.674	0.0032590	P_IND
J50_37	309.386	0.0018732	P_RES
J50_38	313.568	0.0011259	P_COM
J50_39	321.183	0.0044563	P_IND
J50_40	324.865	0.0036780	P_COM
J50_41	330.350	0.0024436	P_COM
J50_42	335.581	0.0013562	P_RES
J50_43	341.653	0.0027674	P_COM
J50_44	347.234	0.0031648	P_COM
J50_45	352.936	0.0013134	P_RES
J50_46	357.075	0.0008359	P_COM
J50_47	364.055	0.0014600	P_RES
J50_48	368.026	0.0017465	P_RES
J50_49	374.206	0.0008353	P_RES
J50_50	380.759	0.0014609	P_RES
J50_51	384.687	0.0043815	P_IND
J50_52	391.127	0.0019145	P_COM
J50_53	395.105	0.0012752	P_COM
J50_54	400.205	0.0017287	P_RES
J50_55	406.327	0.0010784	P_RES
J50_56	412.282	0.0015602	P_RES
J50_57	416.550	0.0008209	P_RES
J50_58	421.576	0.0012088	P_RES
J50_59	427.871	0.0020649	P_RES
J50_60	433.506	0.0011664	P_RES
J50_61	438.328	0.0011454	P_RES
J50_62	443.893	0.0007550	P_RES
J50_63	448.327	0.0007592	P_RES
J50_64	453.438	0.0009863	P_RES
J50_65	458.387	0.0014614	P_RES
J50_66	463.719	0.0023848	P_RES
J50_67	470.394	0.0049472	P_COM
J50_68	475.298	0.0021946	P_IND
J50_69	480.783	0.0009745	P_RES
J50_70	484.870	0.0019652	P_IND
J50_71	489.981	0.0021039	P_COM
J50_72	494.862	0.0022208	P_RES
J50_73	501.981	0.0044087	P_IND
J50_74	506.594	0.0019386	P_RES
J50_75	511.438	0.0006285	P_RES
J50_76	517.578	0.0014725	P_RES
J50_77	520.972	0.0023009	P_IND
J50_78	526.241	0.0016837	P_RES
J50_79	531.197	0.0027514	P_COM
J50_80	536.712	0.0020362	P_COM
J50_81	541.238	0.0011470	P_RES
J50_82	547.728	0.0020393	P_COM
J50_83	552.626	0.0015000	P_RES
J50_84	558.732	0.0013411	P_RES
J51_1	104.612	0.0011964	P_RES
J51_2	110.176	0.0020892	P_RES
J51_3	116.596	0.0015072	P_COM
J51_4	122.951	0.0011275	P_RES
J51_5	128.799	0.0016766	P_COM
J51_6	134.411	0.0022563	P_RES
J51_7	140.051	0.0016456	P_RES
J51_8	145.424	0.0006293	P_RES
J51_9	151.914	0.0030650	P_IND
J51_10	157.278	0.0013675	P_RES
J51_11	162.036	0.0007446	P_RES
J51_12	169.108	0.0038737	P_IND
J51_13	172.556	0.0009990	P_RES
J51_14	180.043	0.0005231	P_RES
J51_15	184.724	0.0018016	P_RES
J51_16	190.118	0.0018592	P_COM
J51_17	196.448	0.0008209	P_RES
J51_18	201.564	0.0016646	P_RES
J51_19	206.294	0.0012169	P_RES
J51_20	213.807	0.0015129	P_RES
J51_21	217.824	0.0037832	P_COM
J51_22	223.335	0.0007719	P_RES
J51_23	228.928	0.0029082	P_IND
J51_24	236.009	0.0026559	P_IND
J51_25	240.074	0.0022847	P_IND
J51_26	247.039	0.0005863	P_RES
J51_27	253.418	0.0016706	P_RES
J51_28	257.188	0.0010767	P_RES
J51_29	262.789	0.0025997	P_RES
J51_30	269.129	0.0004914	P_RES
J51_31	275.608	0.0034548	P_RES
J51_32	281.078	0.0018080	P_COM
J51_33	286.621	0.0010777	P_RES
J51_34	290.267	0.0030811	P_COM
J51_35	295.691	0.0013141	P_RES
J51_36	301.902	0.0026883	P_IND
J51_37	307.446	0.0022188	P_RES
J51_38	312.492	0.0028188	P_COM
J51_39	317.990	0.0021629	P_COM
J51_40	324.613	0.0022320	P_RES
J51_41	328.926	0.0008698	P_RES
J51_42	335.859	0.0020421	P_COM
J51_43	340.662	0.0007428	P_RES
J51_44	346.533	0.0017891	P_COM
J51_45	351.099	0.0030808	P_COM
J51_46	357.107	0.0007319	P_RES
J51_47	360.986	0.0011092	P_RES
J51_48	366.768	0.0009313	P_RES
J51_49	372.943	0.0011117	P_RES
J51_50	378.287	0.0015668	P_COM
J51_51	383.251	0.0019711	P_COM
J51_52	388.753	0.0018620	P_COM
J51_53	394.543	0.0014212	P_RES
J51_54	398.762	0.0015370	P_COM
J51_55	404.118	0.0010937	P_RES
J51_56	410.536	0.0012330	P_RES
J51_57	415.627	0.0025085	P_IND
J51_58	421.302	0.0016908	P_COM
J51_59	425.082	0.0018781	P_RES
J51_60	432.284	0.0046267	P_COM
J51_61	437.452	0.0012262	P_RES
J51_62	441.460	0.0026360	P_IND
J51_63	446.216	0.0027055	P_IND
J51_64	452.636	0.0007998	P_RES
J51_65	456.823	0.0005904	P_RES
J51_66	463.156	0.0049332	P_IND
J51_67	468.096	0.0010498	P_RES
J51_68	474.249	0.0015212	P_RES
J51_69	477.644	0.0047033	P_IND
J51_70	482.939	0.0013952	P_RES
J51_71	488.815	0.0019132	P_RES
J51_72	495.367	0.0061923	P_IND
J51_73	498.346	0.0011555	P_RES
J51_74	504.959	0.0011399	P_COM
J51_75	510.449	0.0015376	P_RES
J51_76	513.948	0.0018030	P_RES
J51_77	520.136	0.0033283	P_RES
J51_78	525.424	0.0017491	P_RES
J51_79	531.066	0.0016555	P_RES
J51_80	534.458	0.0021381	P_RES
J51_81	540.721	0.0025076	P_COM
J51_82	545.084	0.0025383	P_RES
J51_83	551.661	0.0017016	P_RES
J51_84	557.234	0.0037645	P_IND
J52_1	104.897	0.0007801	P_RES
J52_2	110.225	0.0009996	P_RES
J52_3	115.732	0.0012997	P_RES
J52_4	121.035	0.0017260	P_COM
J52_5	127.558	0.0010302	P_RES
J52_6	131.692	0.0017700	P_COM
J52_7	136.915	0.0019100	P_RES
J52_8	144.282	0.0018094	P_RES
J52_9	148.297	0.0017247	P_COM
J52_10	154.763	0.0012562	P_RES
J52_11	161.224	0.0008344	P_RES
J52_12	166.613	0.0009405	P_RES
J52_13	172.461	0.0018566	P_RES
J52_14	176.634	0.0016272	P_RES
J52_15	183.208	0.0011445	P_COM
J52_16	188.267	0.0025680	P_RES
J52_17	194.270	0.0012161	P_RES
J52_18	199.369	0.0034935	P_RES
J52_19	204.714	0.0011889	P_RES
J52_20	212.327	0.0008473	P_RES
J52_21	216.311	0.0015153	P_COM
J52_22	223.097	0.0012915	P_RES
J52_23	229.104	0.0009503	P_RES
J52_24	233.406	0.0010357	P_RES
J52_25	239.892	0.0027615	P_RES
J52_26	246.136	0.0013551	P_COM
J52_27	251.017	0.0017634	P_COM
J52_28	256.287	0.0030068	P_RES
J52_29	262.169	0.0012086	P_RES
J52_30	267.476	0.0016894	P_RES
J52_31	272.710	0.0026896	P_IND
J52_32	278.217	0.0033061	P_COM
J52_33	283.963	0.0013385	P_RES
J52_34	289.257	0.0006555	P_RES
J52_35	296.084	0.0011753	P_RES
J52_36	299.454	0.0020863	P_RES
J52_37	307.061	0.0010592	P_RES
J52_38	311.582	0.0015909	P_RES
J52_39	317.847	0.0032606	P_COM
J52_40	322.239	0.0016403	P_RES
J52_41	328.332	0.0023927	P_RES
J52_42	333.414	0.0013523	P_RES
J52_43	338.898	0.0009360	P_RES
J52_44	345.134	0.0022782	P_IND
J52_45	348.578	0.0027790	P_IND
J52_46	354.755	0.0024033	P_COM
J52_47	361.465	0.0032095	P_IND
J52_48	366.882	0.0016476	P_IND
J52_49	370.396	0.0020660	P_COM
J52_50	376.161	0.0021831	P_RES
J52_51	381.680	0.0022248	P_RES
J52_52	386.433	0.0035180	P_COM
J52_53	393.722	0.0034663	P_COM
J52_54	398.053	0.0016298	P_COM
J52_55	404.419	0.0013529	P_RES
J52_56	409.708	0.0013043	P_RES
J52_57	415.107	0.0014181	P_RES
J52_58	418.132	0.0017934	P_RES
J52_59	424.495	0.0008873	P_RES
J52_60	430.923	0.0007690	P_RES
J52_61	435.335	0.0013639	P_RES
J52_62	441.196	0.0023037	P_RES
J52_63	446.224	0.0015304	P_RES
J52_64	449.978	0.0011501	P_COM
J52_65	456.368	0.0022620	P_COM
J52_66	461.065	0.0021427	P_RES
J52_67	467.092	0.0021476	P_RES
J52_68	472.547	0.0012391	P_RES
J52_69	477.250	0.0035477	P_IND
J52_70	483.356	0.0013962	P_RES
J52_71	486.295	0.0024258	P_COM
J52_72	492.518	0.0012999	P_RES
J52_73	496.897	0.0007118	P_RES
J52_74	503.049	0.0020465	P_RES
J52_75	508.213	0.0016381	P_COM
J52_76	512.547	0.0019643	P_RES
J52_77	517.589	0.0013421	P_RES
J52_78	524.000	0.0017946	P_RES
J52_79	528.535	0.0007631	P_RES
J52_80	533.213	0.0006458	P_RES
J52_81	539.744	0.0018226	P_RES
J52_82	544.967	0.0010236	P_RES
J52_83	550.288	0.0013330	P_RES
J52_84	554.811	0.0008741	P_RES
J53_1	102.133	0.0018602	P_COM
J53_2	107.265	0.0008804	P_RES
J53_3	112.715	0.0018594	P_COM
J53_4	120.482	0.0020803	P_RES
J53_5	124.311	0.0023109	P_RES
J53_6	130.777	0.0040899	P_IND
J53_7	136.571	0.0009638	P_RES
J53_8	141.452	0.0020761	P_RES
J53_9	147.097	0.0011208	P_RES
J53_10	153.536	0.0016955	P_COM
J53_11	159.582	0.0010948	P_RES
J53_12	164.918	0.0018254	P_RES
J53_13	170.049	0.0021604	P_COM
J53_14	175.974	0.0016708	P_RES
J53_15	182.789	0.0052786	P_IND
J53_16	186.836	0.0020347	P_RES
J53_17	193.213	0.0037269	P_IND
J53_18	198.598	0.0034474	P_COM
J53_19	203.981	0.0027591	P_COM
J53_20	210.339	0.0008511	P_RES
J53_21	214.670	0.0016438	P_RES
J53_22	220.841	0.0006286	P_RES
J53_23	226.384	0.0005507	P_RES
J53_24	232.368	0.0024537	P_COM
J53_25	237.641	0.0016908	P_RES
J53_26	242.469	0.0010339	P_RES
J53_27	247.885	0.0054136	P_RES
J53_28	254.522	0.0007792	P_RES
J53_29	260.926	0.0012998	P_COM
J53_30	265.508	0.0010422	P_RES
J53_31	271.790	0.0020393	P_RES
J53_32	277.743	0.0019944	P_RES
J53_33	281.602	0.0016268	P_RES
J53_34	288.608	0.0024690	P_COM
J53_35	292.468	0.0011974	P_RES
J53_36	298.048	0.0018627	P_RES
J53_37	304.123	0.0010607	P_COM
J53_38	309.481	0.0018104	P_RES
J53_39	315.160	0.0053572	P_IND
J53_40	319.942	0.0012625	P_RES
J53_41	326.972	0.0051925	P_IND
J53_42	331.017	0.0012666	P_RES
J53_43	336.356	0.0025958	P_RES
J53_44	341.898	0.0009322	P_RES
J53_45	346.933	0.0022027	P_RES
J53_46	353.406	0.0050374	P_IND
J53_47	358.014	0.0033505	P_RES
J53_48	363.220	0.0043353	P_RES
J53_49	369.038	0.0007847	P_RES
J53_50	375.519	0.0021235	P_COM
J53_51	380.812	0.0016436	P_RES
J53_52	386.084	0.0009984	P_RES
J53_53	390.669	0.0026831	P_RES
J53_54	396.218	0.0021684	P_IND
J53_55	401.480	0.0024204	P_IND
J53_56	407.666	0.0015922	P_COM
J53_57	412.415	0.0042827	P_COM
J53_58	417.853	0.0009397	P_RES
J53_59	423.045	0.0024160	P_COM
J53_60	427.390	0.0041157	P_COM
J53_61	432.486	0.0008381	P_RES
J53_62	437.867	0.0012015	P_RES
J53_63	444.577	0.0010157	P_RES
J53_64	449.126	0.0009266	P_RES
J53_65	454.547	0.0017662	P_RES
J53_66	458.980	0.0012592	P_RES
J53_67	463.875	0.0034884	P_IND
J53_68	469.858	0.0015112	P_RES
J53_69	475.082	0.0011346	P_RES
J53_70	481.565	0.0044463	P_IND
J53_71	484.673	0.0032916	P_COM
J53_72	490.169	0.0012314	P_RES
J53_73	495.323	0.0007623	P_RES
J53_74	502.058	0.0019444	P_IND
J53_75	505.671	0.0031208	P_COM
J53_76	511.046	0.0014221	P_RES
J53_77	517.051	0.0012928	P_RES
J53_78	521.497	0.0026770	P_RES
J53_79	527.922	0.0048028	P_RES
J53_80	533.189	0.0007869	P_RES
J53_81	536.963	0.0014355	P_RES
J53_82	542.315	0.0013340	P_IND
J53_83	547.319	0.0016491	P_COM
J53_84	553.538	0.0004151	P_RES
J54_1	100.071	0.0037317	P_IND
J54_2	105.690	0.0009871	P_RES
J54_3	112.265	0.0014218	P_COM
J54_4	118.273	0.0009151	P_RES
J54_5	123.253	0.0012462	P_RES
J54_6	129.716	0.0041937	P_IND
J54_7	133.753	0.0011031	P_RES
J54_8	140.725	0.0022585	P_COM
J54_9	146.871	0.0016519	P_RES
J54_10	151.560	0.0005320	P_RES
J54_11	158.371	0.0008457	P_RES
J54_12	162.260	0.0004753	P_RES
J54_13	168.576	0.0022137	P_COM
J54_14	173.652	0.0019289	P_RES
J54_15	179.745	0.0009837	P_RES
J54_16	186.678	0.0014490	P_RES
J54_17	192.215	0.0004365	P_RES
J54_18	197.331	0.0021204	P_RES
J54_19	202.745	0.0019504	P_RES
J54_20	209.157	0.0010458	P_RES
J54_21	212.791	0.0039049	P_IND
J54_22	219.236	0.0013861	P_RES
J54_23	225.096	0.0022844	P_COM
J54_24	231.656	0.0013230	P_RES
J54_25	237.288	0.0018013	P_COM
J54_26	240.810	0.0012810	P_COM
J54_27	246.838	0.0011704	P_RES
J54_28	253.857	0.0022897	P_RES
J54_29	258.090	0.0023096	P_IND
J54_30	264.307	0.0025275	P_IND
J54_31	268.837	0.0020181	P_RES
J54_32	274.993	0.0008621	P_RES
J54_33	281.124	0.0007958	P_RES
J54_34	285.554	0.0022770	P_COM
J54_35	292.280	0.0016342	P_RES
J54_36	296.966	0.0035922	P_COM
J54_37	303.297	0.0012687	P_COM
J54_38	307.203	0.0014033	P_RES
J54_39	314.048	0.0014215	P_RES
J54_40	319.283	0.0012725	P_RES
J54_41	323.857	0.0016962	P_RES
J54_42	331.037	0.0016263	P_RES
J54_43	335.240	0.0017617	P_RES
J54_44	341.819	0.0015784	P_RES
J54_45	346.232	0.0035519	P_COM
J54_46	352.912	0.0017595	P_RES
J54_47	356.046	0.0016510	P_RES
J54_48	362.432	0.0013711	P_RES
J54_49	367.630	0.0069202	P_COM
J54_50	373.395	0.0007613	P_RES
J54_51	377.676	0.0017850	P_RES
J54_52	383.496	0.0009834	P_RES
J54_53	388.904	0.0037058	P_COM
J54_54	393.875	0.0028162	P_IND
J54_55	401.011	0.0023802	P_COM
J54_56	405.141	0.0020187	P_RES
J54_57	411.158	0.0008151	P_RES
J54_58	416.174	0.0020295	P_RES
J54_59	421.778	0.0018848	P_RES
J54_60	425.419	0.0046888	P_COM
J54_61	432.244	0.0040039	P_IND
J54_62	437.106	0.0028261	P_IND
J54_63	441.180	0.0016642	P_RES
J54_64	447.834	0.0013380	P_RES
J54_65	453.365	0.0005786	P_RES
J54_66	458.643	0.0027566	P_COM
J54_67	463.793	0.0011863	P_RES
J54_68	468.186	0.0016889	P_RES
J54_69	473.044	0.0011527	P_RES
J54_70	478.806	0.0009380	P_RES
J54_71	483.842	0.0014314	P_RES
J54_72	488.230	0.0008837	P_RES
J54_73	493.390	0.0029667	P_RES
J54_74	499.385	0.0038127	P_RES
J54_75	504.140	0.0009813	P_RES
J54_76	510.497	0.0017871	P_RES
J54_77	516.282	0.0016696	P_IND
J54_78	519.645	0.0018982	P_COM
J54_79	525.614	0.0015105	P_RES
J54_80	531.330	0.0017784	P_RES
J54_81	534.820	0.0025640	P_COM
J54_82	541.224	0.0005736	P_RES
J54_83	545.787	0.0028005	P_IND
J54_84	550.817	0.0036162	P_IND
J55_1	100.298	0.0035856	P_COM
J55_2	105.203	0.0016994	P_RES
J55_3	111.588	0.0035131	P_COM
J55_4	116.906	0.0025977	P_COM
J55_5	121.198	0.0016760	P_RES
J55_6	127.698	0.0013953	P_RES
J55_7	132.488	0.0008815	P_RES
J55_8	138.148	0.0011457	P_RES
J55_9	144.484	0.0011272	P_RES
J55_10	150.998	0.0025642	P_COM
J55_11	154.816	0.0015979	P_COM
J55_12	162.536	0.0048624	P_IND
J55_13	166.997	0.0021977	P_IND
J55_14	172.336	0.0017241	P_COM
J55_15	178.860	0.0016501	P_RES
J55_16	183.997	0.0009483	P_RES
J55_17	189.407	0.0009828	P_RES
J55_18	195.300	0.0019488	P_RES
J55_19	201.414	0.0011244	P_RES
J55_20	205.772	0.0023305	P_RES
J55_21	211.514	0.0009607	P_RES
J55_22	216.835	0.0036989	P_IND
J55_23	224.327	0.0025483	P_RES
J55_24	230.204	0.0013757	P_RES
J55_25	235.247	0.0027140	P_RES
J55_26	240.439	0.0004965	P_RES
J55_27	246.545	0.0010105	P_COM
J55_28	251.884	0.0015161	P_RES
J55_29	256.088	0.0019689	P_RES
J55_30	261.643	0.0011574	P_RES
J55_31	266.841	0.0007344	P_RES
J55_32	273.564	0.0013735	P_RES
J55_33	279.494	0.0006374	P_RES
J55_34	284.403	0.0027649	P_COM
J55_35	291.068	0.0028308	P_COM
J55_36	296.414	0.0008911	P_RES
J55_37	301.359	0.0009514	P_RES
J55_38	306.295	0.0017754	P_RES
J55_39	312.909	0.0012914	P_RES
J55_40	317.979	0.0013725	P_RES
J55_41	323.809	0.0022860	P_RES
J55_42	328.253	0.0031851	P_RES
J55_43	332.718	0.0016569	P_RES
J55_44	338.512	0.0014256	P_COM
J55_45	343.855	0.0018479	P_RES
J55_46	349.081	0.0019410	P_COM
J55_47	356.514	0.0022160	P_RES
J55_48	360.549	0.0005717	P_RES
J55_49	367.140	0.0006991	P_RES
J55_50	370.879	0.0016197	P_RES
J55_51	377.489	0.0016242	P_RES
J55_52	382.927	0.0017968	P_RES
J55_53	387.693	0.0012959	P_COM
J55_54	394.010	0.0028267	P_COM
J55_55	399.597	0.0027838	P_COM
J55_56	403.089	0.0011234	P_RES
J55_57	407.971	0.0007623	P_RES
J55_58	414.902	0.0022935	P_COM
J55_59	418.512	0.0010266	P_RES
J55_60	426.074	0.0018176	P_RES
J55_61	429.109	0.0009392	P_RES
J55_62	434.726	0.0011811	P_RES
J55_63	440.916	0.0012639	P_RES
J55_64	445.041	0.0010865	P_RES
J55_65	450.705	0.0011024	P_RES
J55_66	455.901	0.0025682	P_COM
J55_67	462.392	0.0015254	P_RES
J55_68	467.180	0.0004602	P_RES
J55_69	470.992	0.0004093	P_RES
J55_70	477.340	0.0027078	P_RES
J55_71	482.208	0.0011347	P_RES
J55_72	487.389	0.0018503	P_COM
J55_73	494.103	0.0015931	P_RES
J55_74	498.738	0.0008751	P_RES
J55_75	503.223	0.0013982	P_COM
J55_76	507.914	0.0008613	P_RES
J55_77	512.828	0.0014559	P_RES
J55_78	518.822	0.0014617	P_RES
J55_79	522.832	0.0015329	P_RES
J55_80	530.191	0.0014291	P_RES
J55_81	534.213	0.0011720	P_RES
J55_82	538.916	0.0022021	P_IND
J55_83	543.650	0.0014554	P_RES
J55_84	548.870	0.0011618	P_RES
J56_1	98.014	0.0020478	P_COM
J56_2	103.025	0.0014496	P_RES
J56_3	109.608	0.0023013	P_RES
J56_4	115.722	0.0020289	P_COM
J56_5	120.897	0.0021563	P_COM
J56_6	126.198	0.0007324	P_RES
J56_7	131.384	0.0013193	P_COM
J56_8	137.232	0.0004975	P_RES
J56_9	143.137	0.0009101	P_RES
J56_10	148.793	0.0056869	P_IND
J56_11	154.164	0.0015887	P_RES
J56_12	158.944	0.0035100	P_IND
J56_13	166.232	0.0015089	P_IND
J56_14	171.129	0.0019547	P_RES
J56_15	177.488	0.0005165	P_RES
J56_16	181.655	0.0020417	P_COM
J56_17	188.066	0.0010762	P_RES
J56_18	194.442	0.0040980	P_IND
J56_19	200.045	0.0031957	P_IND
J56_20	203.943	0.0019539	P_RES
J56_21	210.766	0.0009536	P_RES
J56_22	216.852	0.0014075	P_RES
J56_23	221.391	0.0012351	P_RES
J56_24	227.350	0.0019386	P_COM
J56_25	234.022	0.0018924	P_RES
J56_26	238.452	0.0012641	P_RES
J56_27	243.275	0.0007117	P_RES
J56_28	248.744	0.0024897	P_COM
J56_29	255.194	0.0019999	P_RES
J56_30	261.101	0.0009899	P_RES
J56_31	265.223	0.0020776	P_RES
J56_32	270.812	0.0010373	P_RES
J56_33	277.997	0.0012346	P_COM
J56_34	283.220	0.0014843	P_RES
J56_35	288.084	0.0025410	P_RES
J56_36	293.800	0.0007924	P_RES
J56_37	299.323	0.0023813	P_RES
J56_38	304.703	0.0028824	P_COM
J56_39	310.782	0.0008239	P_RES
J56_40	315.535	0.0020372	P_RES
J56_41	321.091	0.0011067	P_RES
J56_42	325.884	0.0022809	P_RES
J56_43	331.291	0.0006199	P_RES
J56_44	338.540	0.0016657	P_RES
J56_45	342.222	0.0026196	P_RES
J56_46	347.527	0.0009168	P_RES
J56_47	353.829	0.0013748	P_RES
J56_48	358.769	0.0024842	P_RES
J56_49	364.191	0.0012970	P_RES
J56_50	370.295	0.0008329	P_RES
J56_51	376.331	0.0025194	P_RES
J56_52	380.064	0.0010277	P_RES
J56_53	386.565	0.0011328	P_COM
J56_54	391.198	0.0020368	P_COM
J56_55	397.306	0.0028980	P_IND
J56_56	401.522	0.0012296	P_RES
J56_57	406.709	0.0025516	P_COM
J56_58	413.430	0.0026777	P_COM
J56_59	418.743	0.0014347	P_RES
J56_60	422.830	0.0038871	P_COM
J56_61	429.236	0.0007295	P_RES
J56_62	433.338	0.0009442	P_RES
J56_63	439.676	0.0010116	P_RES
J56_64	444.522	0.0007461	P_RES
J56_65	449.124	0.0019401	P_COM
J56_66	454.780	0.0010380	P_RES
J56_67	461.289	0.0022004	P_RES
J56_68	464.694	0.0011987	P_RES
J56_69	469.939	0.0006938	P_RES
J56_70	474.635	0.0015469	P_COM
J56_71	480.451	0.0012645	P_RES
J56_72	486.557	0.0016521	P_RES
J56_73	490.677	0.0015235	P_RES
J56_74	496.464	0.0005658	P_RES
J56_75	501.939	0.0037547	P_COM
J56_76	507.143	0.0016220	P_RES
J56_77	512.530	0.0026128	P_COM
J56_78	518.146	0.0033063	P_COM
J56_79	522.484	0.0016408	P_COM
J56_80	526.895	0.0010419	P_RES
J56_81	533.020	0.0015268	P_RES
J56_82	536.667	0.0013638	P_RES
J56_83	543.146	0.0013558	P_RES
J56_84	547.678	0.0009892	P_RES


[RESERVOIRS]
;ID	Head	Pattern
R1	240.000


[TANKS]
;ID	Elev	InitLevel	MinLevel	MaxLevel	Diameter	MinVol	VolCurve
T1	201.266	10.000	4.000	16.000	61.000	0.000
T2	299.219	10.000	4.000	16.000	67.000	0.000
T3	391.818	10.000	4.000	16.000	73.000	0.000
T4	481.995	10.000	4.000	16.000	79.000	0.000
T5	573.663	10.000	4.000	16.000	85.000	0.000


[PIPES]
;ID	Node1	Node2	Length	Diameter	Roughness	MinorLoss	Status
P1	J1_1	J1_2	120.00	350.0	120.0	0.0261	Open
P2	J1_1	J2_1	120.00	600.0	125.0	0.0001	Open
P3	J1_2	J1_3	120.00	350.0	125.0	0.0390	Open
P4	J1_2	J2_2	120.00	400.0	125.0	0.0395	Open
P5	J1_3	J1_4	120.00	350.0	130.0	0.0384	Open
P6	J1_3	J2_3	120.00	300.0	125.0	0.0049	Open
P7	J1_4	J1_5	120.00	500.0	125.0	0.0060	Open
P8	J1_4	J2_4	120.00	350.0	125.0	0.0495	Open
P9	J1_5	J1_6	120.00	400.0	130.0	0.0048	Open
P10	J1_5	J2_5	120.00	400.0	130.0	0.0391	Open
P11	J1_6	J1_7	120.00	400.0	120.0	0.0075	Open
P12	J1_6	J2_6	120.00	450.0	125.0	0.0361	Open
P13	J1_7	J1_8	120.00	600.0	125.0	0.0274	Open
P14	J1_7	J2_7	120.00	500.0	130.0	0.0436	Open
P15	J1_8	J1_9	120.00	500.0	125.0	0.0424	Open
P16	J1_8	J2_8	120.00	300.0	125.0	0.0252	Open
P17	J1_9	J1_10	120.00	300.0	125.0	0.0371	Open
P18	J1_9	J2_9	120.00	300.0	130.0	0.0217	Open
P19	J1_10	J1_11	120.00	350.0	120.0	0.0319	Open
P20	J1_10	J2_10	120.00	450.0	130.0	0.0162	Open
P21	J1_11	J1_12	120.00	400.0	130.0	0.0307	Open
P22	J1_11	J2_11	120.00	400.0	130.0	0.0230	Open
P23	J1_12	J1_13	120.00	300.0	130.0	0.0009	Open
P24	J1_12	J2_12	120.00	350.0	125.0	0.0280	Open
P25	J1_13	J1_14	120.00	500.0	120.0	0.0477	Open
P26	J1_13	J2_13	120.00	300.0	130.0	0.0154	Open
P27	J1_14	J1_15	120.00	300.0	120.0	0.0054	Open
P28	J1_14	J2_14	120.00	450.0	125.0	0.0319	Open
P29	J1_15	J1_16	120.00	600.0	120.0	0.0221	Open
P30	J1_15	J2_15	120.00	600.0	120.0	0.0442	Open
P31	J1_16	J1_17	120.00	500.0	130.0	0.0096	Open
P32	J1_16	J2_16	120.00	500.0	130.0	0.0386	Open
P33	J1_17	J1_18	120.00	500.0	125.0	0.0356	Open
P34	J1_17	J2_17	120.00	350.0	125.0	0.0110	Open
P35	J1_18	J1_19	120.00	300.0	130.0	0.0022	Open
P36	J1_18	J2_18	120.00	400.0	120.0	0.0044	Open
P37	J1_19	J1_20	120.00	350.0	130.0	0.0374	Open
P38	J1_19	J2_19	120.00	600.0	130.0	0.0149	Open
P39	J1_20	J1_21	120.00	400.0	130.0	0.0271	Open
P40	J1_20	J2_20	120.00	300.0	125.0	0.0172	Open
P41	J1_21	J1_22	120.00	300.0	120.0	0.0118	Open
P42	J1_21	J2_21	120.00	450.0	125.0	0.0290	Open
P43	J1_22	J1_23	120.00	600.0	120.0	0.0145	Open
P44	J1_22	J2_22	120.00	300.0	130.0	0.0116	Open
P45	J1_23	J1_24	120.00	600.0	120.0	0.0303	Open
P46	J1_23	J2_23	120.00	500.0	130.0	0.0492	Open
P47	J1_24	J1_25	120.00	300.0	130.0	0.0310	Open
P48	J1_24	J2_24	120.00	400.0	125.0	0.0499	Open
P49	J1_25	J1_26	120.00	450.0	125.0	0.0113	Open
P50	J1_25	J2_25	120.00	500.0	130.0	0.0094	Open
P51	J1_26	J1_27	120.00	400.0	125.0	0.0425	Open
P52	J1_26	J2_26	120.00	450.0	130.0	0.0033	Open
P53	J1_27	J1_28	120.00	450.0	125.0	0.0383	Open
P54	J1_27	J2_27	120.00	350.0	130.0	0.0205	Open
P55	J1_28	J1_29	120.00	400.0	125.0	0.0061	Open
P56	J1_28	J2_28	120.00	350.0	125.0	0.0073	Open
P57	J1_29	J1_30	120.00	600.0	130.0	0.0213	Open
P58	J1_29	J2_29	120.00	300.0	130.0	0.0440	Open
P59	J1_30	J1_31	120.00	350.0	130.0	0.0035	Open
P60	J1_30	J2_30	120.00	450.0	130.0	0.0056	Open
P61	J1_31	J1_32	120.00	350.0	130.0	0.0454	Open
P62	J1_31	J2_31	120.00	500.0	125.0	0.0285	Open
P63	J1_32	J1_33	120.00	350.0	130.0	0.0026	Open
P64	J1_32	J2_32	120.00	400.0	120.0	0.0175	Open
P65	J1_33	J1_34	120.00	600.0	125.0	0.0251	Open
P66	J1_33	J2_33	120.00	450.0	130.0	0.0132	Open
P67	J1_34	J1_35	120.00	300.0	120.0	0.0313	Open
P68	J1_34	J2_34	120.00	600.0	125.0	0.0252	Open
P69	J1_35	J1_36	120.00	450.0	130.0	0.0498	Open
P70	J1_35	J2_35	120.00	400.0	130.0	0.0052	Open
P71	J1_36	J1_37	120.00	450.0	130.0	0.0122	Open
P72	J1_36	J2_36	120.00	300.0	125.0	0.0350	Open
P73	J1_37	J1_38	120.00	350.0	130.0	0.0345	Open
P74	J1_37	J2_37	120.00	400.0	125.0	0.0401	Open
P75	J1_38	J1_39	120.00	500.0	130.0	0.0080	Open
P76	J1_38	J2_38	120.00	350.0	130.0	0.0304	Open
P77	J1_39	J1_40	120.00	450.0	125.0	0.0148	Open
P78	J1_39	J2_39	120.00	600.0	130.0	0.0085	Open
P79	J1_40	J1_41	120.00	450.0	130.0	0.0064	Open
P80	J1_40	J2_40	120.00	300.0	130.0	0.0457	Open
P81	J1_41	J1_42	120.00	400.0	130.0	0.0212	Open
P82	J1_41	J2_41	120.00	600.0	130.0	0.0207	Open
P83	J1_42	J1_43	120.00	300.0	130.0	0.0442	Open
P84	J1_42	J2_42	120.00	450.0	125.0	0.0318	Open
P85	J1_43	J1_44	120.00	600.0	120.0	0.0431	Open
P86	J1_43	J2_43	120.00	350.0	130.0	0.0492	Open
P87	J1_44	J1_45	120.00	350.0	125.0	0.0182	Open
P88	J1_44	J2_44	120.00	350.0	130.0	0.0383	Open
P89	J1_45	J1_46	120.00	350.0	120.0	0.0378	Open
P90	J1_45	J2_45	120.00	500.0	130.0	0.0212	Open
P91	J1_46	J1_47	120.00	400.0	130.0	0.0437	Open
P92	J1_46	J2_46	120.00	350.0	125.0	0.0194	Open
P93	J1_47	J1_48	120.00	300.0	125.0	0.0487	Open
P94	J1_47	J2_47	120.00	450.0	125.0	0.0127	Open
P95	J1_48	J1_49	120.00	300.0	125.0	0.0326	Open
P96	J1_48	J2_48	120.00	600.0	120.0	0.0358	Open
P97	J1_49	J1_50	120.00	350.0	125.0	0.0338	Open
P98	J1_49	J2_49	120.00	300.0	130.0	0.0487	Open
P99	J1_50	J1_51	120.00	500.0	125.0	0.0233	Open
P100	J1_50	J2_50	120.00	600.0	120.0	0.0237	Open
P101	J1_51	J1_52	120.00	450.0	130.0	0.0411	Open
P102	J1_51	J2_51	120.00	350.0	120.0	0.0376	Open
P103	J1_52	J1_53	120.00	450.0	130.0	0.0151	Open
P104	J1_52	J2_52	120.00	400.0	125.0	0.0220	Open
P105	J1_53	J1_54	120.00	450.0	120.0	0.0405	Open
P106	J1_53	J2_53	120.00	450.0	130.0	0.0276	Open
P107	J1_54	J1_55	120.00	450.0	130.0	0.0059	Open
P108	J1_54	J2_54	120.00	600.0	120.0	0.0313	Open
P109	J1_55	J1_56	120.00	450.0	125.0	0.0020	Open
P110	J1_55	J2_55	120.00	450.0	130.0	0.0357	Open
P111	J1_56	J1_57	120.00	350.0	125.0	0.0338	Open
P112	J1_56	J2_56	120.00	300.0	130.0	0.0039	Open
P113	J1_57	J1_58	120.00	450.0	130.0	0.0205	Open
P114	J1_57	J2_57	120.00	600.0	120.0	0.0412	Open
P115	J1_58	J1_59	120.00	300.0	130.0	0.0464	Open
P116	J1_58	J2_58	120.00	450.0	120.0	0.0302	Open
P117	J1_59	J1_60	120.00	350.0	125.0	0.0081	Open
P118	J1_59	J2_59	120.00	450.0	130.0	0.0031	Open
P119	J1_60	J1_61	120.00	450.0	120.0	0.0040	Open
P120	J1_60	J2_60	120.00	400.0	120.0	0.0121	Open
P121	J1_61	J1_62	120.00	500.0	130.0	0.0179	Open
P122	J1_61	J2_61	120.00	500.0	130.0	0.0417	Open
P123	J1_62	J1_63	120.00	350.0	130.0	0.0285	Open
P124	J1_62	J2_62	120.00	350.0	125.0	0.0137	Open
P125	J1_63	J1_64	120.00	450.0	120.0	0.0063	Open
P126	J1_63	J2_63	120.00	450.0	125.0	0.0139	Open
P127	J1_64	J1_65	120.00	400.0	125.0	0.0414	Open
P128	J1_64	J2_64	120.00	450.0	130.0	0.0390	Open
P129	J1_65	J1_66	120.00	500.0	125.0	0.0421	Open
P130	J1_65	J2_65	120.00	350.0	120.0	0.0127	Open
P131	J1_66	J1_67	120.00	350.0	125.0	0.0272	Open
P132	J1_66	J2_66	120.00	400.0	130.0	0.0164	Open
P133	J1_67	J1_68	120.00	450.0	130.0	0.0430	Open
P134	J1_67	J2_67	120.00	500.0	130.0	0.0413	Open
P135	J1_68	J1_69	120.00	600.0	130.0	0.0348	Open
P136	J1_68	J2_68	120.00	350.0	130.0	0.0273	Open
P137	J1_69	J1_70	120.00	600.0	120.0	0.0435	Open
P138	J1_69	J2_69	120.00	600.0	120.0	0.0267	Open
P139	J1_70	J1_71	120.00	300.0	120.0	0.0485	Open
P140	J1_70	J2_70	120.00	600.0	120.0	0.0350	Open
P141	J1_71	J1_72	120.00	300.0	125.0	0.0244	Open
P142	J1_71	J2_71	120.00	350.0	125.0	0.0183	Open
P143	J1_72	J1_73	120.00	500.0	130.0	0.0389	Open
P144	J1_72	J2_72	120.00	450.0	130.0	0.0099	Open
P145	J1_73	J1_74	120.00	500.0	120.0	0.0167	Open
P146	J1_73	J2_73	120.00	350.0	120.0	0.0271	Open
P147	J1_74	J1_75	120.00	500.0	120.0	0.0371	Open
P148	J1_74	J2_74	120.00	500.0	120.0	0.0198	Open
P149	J1_75	J1_76	120.00	400.0	125.0	0.0161	Open
P150	J1_75	J2_75	120.00	500.0	120.0	0.0169	Open
P151	J1_76	J1_77	120.00	450.0	120.0	0.0149	Open
P152	J1_76	J2_76	120.00	500.0	130.0	0.0376	Open
P153	J1_77	J1_78	120.00	450.0	130.0	0.0003	Open
P154	J1_77	J2_77	120.00	350.0	120.0	0.0347	Open
P155	J1_78	J1_79	120.00	450.0	125.0	0.0281	Open
P156	J1_78	J2_78	120.00	450.0	120.0	0.0215	Open
P157	J1_79	J1_80	120.00	450.0	120.0	0.0074	Open
P158	J1_79	J2_79	120.00	450.0	130.0	0.0451	Open
P159	J1_80	J1_81	120.00	450.0	125.0	0.0269	Open
P160	J1_80	J2_80	120.00	300.0	125.0	0.0182	Open
P161	J1_81	J1_82	120.00	600.0	130.0	0.0223	Open
P162	J1_81	J2_81	120.00	400.0	120.0	0.0239	Open
P163	J1_82	J1_83	120.00	600.0	125.0	0.0183	Open
P164	J1_82	J2_82	120.00	600.0	130.0	0.0224	Open
P165	J1_83	J1_84	120.00	300.0	130.0	0.0251	Open
P166	J1_83	J2_83	120.00	350.0	120.0	0.0078	Open
P167	J1_84	J2_84	120.00	400.0	130.0	0.0296	Open
P168	J2_1	J2_2	120.00	350.0	130.0	0.0267	Open
P169	J2_1	J3_1	120.00	350.0	130.0	0.0173	Open
P170	J2_2	J2_3	120.00	200.0	130.0	0.1064	Open
P171	J2_2	J3_2	120.00	150.0	130.0	0.0041	Open
P172	J2_3	J2_4	120.00	300.0	140.0	0.0760	Open
P173	J2_3	J3_3	120.00	300.0	135.0	0.0701	Open
P174	J2_4	J2_5	120.00	150.0	135.0	0.0942	Open
P175	J2_4	J3_4	120.00	200.0	140.0	0.1102	Open
P176	J2_5	J2_6	120.00	100.0	140.0	0.0705	Open
P177	J2_5	J3_5	120.00	200.0	130.0	0.1439	Open
P178	J2_6	J2_7	120.00	150.0	125.0	0.1481	Open
P179	J2_6	J3_6	120.00	250.0	130.0	0.1013	Open
P180	J2_7	J2_8	120.00	250.0	125.0	0.0485	Open
P181	J2_7	J3_7	120.00	100.0	140.0	0.1440	Open
P182	J2_8	J2_9	120.00	250.0	125.0	0.0855	Open
P183	J2_8	J3_8	120.00	200.0	130.0	0.1174	Open
P184	J2_9	J2_10	120.00	150.0	125.0	0.0878	Open
P185	J2_9	J3_9	120.00	250.0	135.0	0.0461	Open
P186	J2_10	J2_11	120.00	600.0	120.0	0.0015	Open
P187	J2_10	J3_10	120.00	500.0	125.0	0.0131	Open
P188	J2_11	J2_12	120.00	250.0	125.0	0.1413	Open
P189	J2_11	J3_11	120.00	150.0	130.0	0.0187	Open
P190	J2_12	J2_13	120.00	100.0	125.0	0.0503	Open
P191	J2_12	J3_12	120.00	200.0	135.0	0.0234	Open
P192	J2_13	J2_14	120.00	300.0	130.0	0.0831	Open
P193	J2_13	J3_13	120.00	250.0	130.0	0.1025	Open
P194	J2_14	J2_15	120.00	200.0	130.0	0.1407	Open
P195	J2_14	J3_14	120.00	150.0	130.0	0.0201	Open
P196	J2_15	J2_16	120.00	100.0	135.0	0.0543	Open
P197	J2_15	J3_15	120.00	200.0	140.0	0.0755	Open
P198	J2_16	J2_17	120.00	250.0	135.0	0.1420	Open
P199	J2_16	J3_16	120.00	250.0	125.0	0.0578	Open
P200	J2_17	J2_18	120.00	100.0	135.0	0.0240	Open
P201	J2_17	J3_17	120.00	100.0	130.0	0.0198	Open
P202	J2_18	J2_19	120.00	100.0	125.0	0.0936	Open
P203	J2_18	J3_18	120.00	100.0	135.0	0.0230	Open
P204	J2_19	J2_20	120.00	350.0	125.0	0.0474	Open
P205	J2_19	J3_19	120.00	300.0	130.0	0.0039	Open
P206	J2_20	J2_21	120.00	200.0	130.0	0.0764	Open
P207	J2_20	J3_20	120.00	100.0	140.0	0.0447	Open
P208	J2_21	J2_22	120.00	300.0	130.0	0.0293	Open
P209	J2_21	J3_21	120.00	150.0	140.0	0.0760	Open
P210	J2_22	J2_23	120.00	100.0	130.0	0.0674	Open
P211	J2_22	J3_22	120.00	300.0	135.0	0.0880	Open
P212	J2_23	J2_24	120.00	250.0	130.0	0.0852	Open
P213	J2_23	J3_23	120.00	250.0	140.0	0.0233	Open
P214	J2_24	J2_25	120.00	200.0	125.0	0.0234	Open
P215	J2_24	J3_24	120.00	150.0	125.0	0.1326	Open
P216	J2_25	J2_26	120.00	300.0	125.0	0.0848	Open
P217	J2_25	J3_25	120.00	250.0	140.0	0.1395	Open
P218	J2_26	J2_27	120.00	200.0	125.0	0.0500	Open
P219	J2_26	J3_26	120.00	150.0	140.0	0.1092	Open
P220	J2_27	J2_28	120.00	150.0	130.0	0.0386	Open
P221	J2_27	J3_27	120.00	200.0	140.0	0.0664	Open
P222	J2_28	J2_29	120.00	500.0	130.0	0.0217	Open
P223	J2_28	J3_28	120.00	600.0	130.0	0.0218	Open
P224	J2_29	J2_30	120.00	150.0	130.0	0.1235	Open
P225	J2_29	J3_29	120.00	100.0	130.0	0.0244	Open
P226	J2_30	J2_31	120.00	250.0	130.0	0.0640	Open
P227	J2_30	J3_30	120.00	250.0	125.0	0.1062	Open
P228	J2_31	J2_32	120.00	150.0	140.0	0.0385	Open
P229	J2_31	J3_31	120.00	100.0	130.0	0.1117	Open
P230	J2_32	J2_33	120.00	100.0	140.0	0.1154	Open
P231	J2_32	J3_32	120.00	250.0	140.0	0.1244	Open
P232	J2_33	J2_34	120.00	200.0	125.0	0.0776	Open
P233	J2_33	J3_33	120.00	300.0	130.0	0.1114	Open
P234	J2_34	J2_35	120.00	200.0	140.0	0.0487	Open
P235	J2_34	J3_34	120.00	100.0	140.0	0.1322	Open
P236	J2_35	J2_36	120.00	100.0	130.0	0.0212	Open
P237	J2_35	J3_35	120.00	250.0	135.0	0.0081	Open
P238	J2_36	J2_37	120.00	100.0	135.0	0.1471	Open
P239	J2_36	J3_36	120.00	150.0	135.0	0.0329	Open
P240	J2_37	J2_38	120.00	500.0	120.0	0.0204	Open
P241	J2_37	J3_37	120.00	450.0	120.0	0.0345	Open
P242	J2_38	J2_39	120.00	200.0	125.0	0.1193	Open
P243	J2_38	J3_38	120.00	250.0	125.0	0.0918	Open
P244	J2_39	J2_40	120.00	150.0	130.0	0.0267	Open
P245	J2_39	J3_39	120.00	150.0	140.0	0.0125	Open
P246	J2_40	J2_41	120.00	250.0	125.0	0.0113	Open
P247	J2_40	J3_40	120.00	150.0	140.0	0.1026	Open
P248	J2_41	J2_42	120.00	150.0	125.0	0.0686	Open
P249	J2_41	J3_41	120.00	300.0	125.0	0.0724	Open
P250	J2_42	J2_43	120.00	150.0	140.0	0.1150	Open
P251	J2_42	J3_42	120.00	300.0	125.0	0.0850	Open
P252	J2_43	J2_44	120.00	250.0	130.0	0.0901	Open
P253	J2_43	J3_43	120.00	200.0	135.0	0.0696	Open
P254	J2_44	J2_45	120.00	100.0	135.0	0.0551	Open
P255	J2_44	J3_44	120.00	150.0	125.0	0.1094	Open
P256	J2_45	J2_46	120.00	300.0	140.0	0.1004	Open
P257	J2_45	J3_45	120.00	150.0	140.0	0.0650	Open
P258	J2_46	J2_47	120.00	350.0	130.0	0.0321	Open
P259	J2_46	J3_46	120.00	300.0	125.0	0.0116	Open
P260	J2_47	J2_48	120.00	300.0	140.0	0.0612	Open
P261	J2_47	J3_47	120.00	250.0	125.0	0.0523	Open
P262	J2_48	J2_49	120.00	250.0	140.0	0.1153	Open
P263	J2_48	J3_48	120.00	100.0	125.0	0.0969	Open
P264	J2_49	J2_50	120.00	150.0	135.0	0.0898	Open
P265	J2_49	J3_49	120.00	250.0	140.0	0.0163	Open
P266	J2_50	J2_51	120.00	150.0	140.0	0.1177	Open
P267	J2_50	J3_50	120.00	100.0	130.0	0.0410	Open
P268	J2_51	J2_52	120.00	300.0	135.0	0.1384	Open
P269	J2_51	J3_51	120.00	300.0	125.0	0.0795	Open
P270	J2_52	J2_53	120.00	100.0	130.0	0.0744	Open
P271	J2_52	J3_52	120.00	100.0	140.0	0.1299	Open
P272	J2_53	J2_54	120.00	300.0	140.0	0.0803	Open
P273	J2_53	J3_53	120.00	250.0	135.0	0.1169	Open
P274	J2_54	J2_55	120.00	300.0	125.0	0.0979	Open
P275	J2_54	J3_54	120.00	200.0	125.0	0.0747	Open
P276	J2_55	J2_56	120.00	450.0	120.0	0.0047	Open
P277	J2_55	J3_55	120.00	400.0	125.0	0.0110	Open
P278	J2_56	J2_57	120.00	200.0	130.0	0.1331	Open
P279	J2_56	J3_56	120.00	150.0	130.0	0.0450	Open
P280	J2_57	J2_58	120.00	150.0	135.0	0.1467	Open
P281	J2_57	J3_57	120.00	150.0	125.0	0.0756	Open
P282	J2_58	J2_59	120.00	300.0	140.0	0.1390	Open
P283	J2_58	J3_58	120.00	100.0	135.0	0.1248	Open
P284	J2_59	J2_60	120.00	300.0	130.0	0.0303	Open
P285	J2_59	J3_59	120.00	100.0	140.0	0.0179	Open
P286	J2_60	J2_61	120.00	150.0	125.0	0.1061	Open
P287	J2_60	J3_60	120.00	150.0	130.0	0.1453	Open
P288	J2_61	J2_62	120.00	100.0	130.0	0.1408	Open
P289	J2_61	J3_61	120.00	100.0	140.0	0.0110	Open
P290	J2_62	J2_63	120.00	100.0	135.0	0.1214	Open
P291	J2_62	J3_62	120.00	200.0	140.0	0.1015	Open
P292	J2_63	J2_64	120.00	300.0	130.0	0.0564	Open
P293	J2_63	J3_63	120.00	200.0	140.0	0.0340	Open
P294	J2_64	J2_65	120.00	400.0	130.0	0.0149	Open
P295	J2_64	J3_64	120.00	300.0	130.0	0.0479	Open
P296	J2_65	J2_66	120.00	200.0	125.0	0.0953	Open
P297	J2_65	J3_65	120.00	200.0	130.0	0.1153	Open
P298	J2_66	J2_67	120.00	100.0	135.0	0.0820	Open
P299	J2_66	J3_66	120.00	200.0	140.0	0.0956	Open
P300	J2_67	J2_68	120.00	150.0	135.0	0.1362	Open
P301	J2_67	J3_67	120.00	250.0	130.0	0.0522	Open
P302	J2_68	J2_69	120.00	250.0	140.0	0.0804	Open
P303	J2_68	J3_68	120.00	300.0	125.0	0.0903	Open
P304	J2_69	J2_70	120.00	150.0	140.0	0.1218	Open
P305	J2_69	J3_69	120.00	250.0	140.0	0.1426	Open
P306	J2_70	J2_71	120.00	150.0	125.0	0.0752	Open
P307	J2_70	J3_70	120.00	300.0	125.0	0.0583	Open
P308	J2_71	J2_72	120.00	200.0	140.0	0.1183	Open
P309	J2_71	J3_71	120.00	300.0	125.0	0.0271	Open
P310	J2_72	J2_73	120.00	200.0	135.0	0.0266	Open
P311	J2_72	J3_72	120.00	100.0	135.0	0.0708	Open
P312	J2_73	J2_74	120.00	350.0	130.0	0.0041	Open
P313	J2_73	J3_73	120.00	600.0	130.0	0.0055	Open
P314	J2_74	J2_75	120.00	150.0	140.0	0.0715	Open
P315	J2_74	J3_74	120.00	300.0	130.0	0.1264	Open
P316	J2_75	J2_76	120.00	250.0	125.0	0.0999	Open
P317	J2_75	J3_75	120.00	200.0	130.0	0.1200	Open
P318	J2_76	J2_77	120.00	200.0	130.0	0.1004	Open
P319	J2_76	J3_76	120.00	250.0	125.0	0.1202	Open
P320	J2_77	J2_78	120.00	250.0	130.0	0.0324	Open
P321	J2_77	J3_77	120.00	200.0	130.0	0.0854	Open
P322	J2_78	J2_79	120.00	150.0	135.0	0.1224	Open
P323	J2_78	J3_78	120.00	100.0	140.0	0.0342	Open
P324	J2_79	J2_80	120.00	150.0	125.0	0.0431	Open
P325	J2_79	J3_79	120.00	150.0	140.0	0.0378	Open
P326	J2_80	J2_81	120.00	200.0	125.0	0.1217	Open
P327	J2_80	J3_80	120.00	200.0	130.0	0.0254	Open
P328	J2_81	J2_82	120.00	250.0	140.0	0.0886	Open
P329	J2_81	J3_81	120.00	100.0	130.0	0.0002	Open
P330	J2_82	J2_83	120.00	600.0	130.0	0.0444	Open
P331	J2_82	J3_82	120.00	450.0	120.0	0.0435	Open
P332	J2_83	J2_84	120.00	150.0	125.0	0.1042	Open
P333	J2_83	J3_83	120.00	150.0	130.0	0.0119	Open
P334	J2_84	J3_84	120.00	250.0	135.0	0.0457	Open
P335	J3_1	J3_2	120.00	500.0	125.0	0.0439	Open
P336	J3_1	J4_1	120.00	500.0	130.0	0.0340	Open
P337	J3_2	J3_3	120.00	250.0	135.0	0.1496	Open
P338	J3_2	J4_2	120.00	200.0	135.0	0.0768	Open
P339	J3_3	J3_4	120.00	200.0	130.0	0.0481	Open
P340	J3_3	J4_3	120.00	300.0	130.0	0.1443	Open
P341	J3_4	J3_5	120.00	150.0	130.0	0.0632	Open
P342	J3_4	J4_4	120.00	200.0	140.0	0.1288	Open
P343	J3_5	J3_6	120.00	200.0	140.0	0.0770	Open
P344	J3_5	J4_5	120.00	100.0	140.0	0.1109	Open
P345	J3_6	J3_7	120.00	250.0	125.0	0.1040	Open
P346	J3_6	J4_6	120.00	200.0	140.0	0.0792	Open
P347	J3_7	J3_8	120.00	300.0	130.0	0.1050	Open
P348	J3_7	J4_7	120.00	150.0	135.0	0.0863	Open
P349	J3_8	J3_9	120.00	150.0	140.0	0.1335	Open
P350	J3_8	J4_8	120.00	250.0	135.0	0.0312	Open
P351	J3_9	J3_10	120.00	100.0	125.0	0.0359	Open
P352	J3_9	J4_9	120.00	150.0	135.0	0.0726	Open
P353	J3_10	J3_11	120.00	300.0	130.0	0.0275	Open
P354	J3_10	J4_10	120.00	400.0	130.0	0.0273	Open
P355	J3_11	J3_12	120.00	150.0	135.0	0.0181	Open
P356	J3_11	J4_11	120.00	200.0	135.0	0.0391	Open
P357	J3_12	J3_13	120.00	150.0	140.0	0.0079	Open
P358	J3_12	J4_12	120.00	200.0	135.0	0.1027	Open
P359	J3_13	J3_14	120.00	100.0	135.0	0.1262	Open
P360	J3_13	J4_13	120.00	250.0	135.0	0.1366	Open
P361	J3_14	J3_15	120.00	300.0	140.0	0.1033	Open
P362	J3_14	J4_14	120.00	100.0	135.0	0.1101	Open
P363	J3_15	J3_16	120.00	100.0	135.0	0.0350	Open
P364	J3_15	J4_15	120.00	250.0	130.0	0.1341	Open
P365	J3_16	J3_17	120.00	300.0	125.0	0.0976	Open
P366	J3_16	J4_16	120.00	150.0	125.0	0.1398	Open
P367	J3_17	J3_18	120.00	250.0	125.0	0.0158	Open
P368	J3_17	J4_17	120.00	300.0	135.0	0.0638	Open
P369	J3_18	J3_19	120.00	150.0	125.0	0.0585	Open
P370	J3_18	J4_18	120.00	250.0	130.0	0.0283	Open
P371	J3_19	J3_20	120.00	350.0	125.0	0.0481	Open
P372	J3_19	J4_19	120.00	500.0	120.0	0.0173	Open
P373	J3_20	J3_21	120.00	100.0	130.0	0.1002	Open
P374	J3_20	J4_20	120.00	100.0	140.0	0.1314	Open
P375	J3_21	J3_22	120.00	250.0	125.0	0.0360	Open
P376	J3_21	J4_21	120.00	300.0	125.0	0.0107	Open
P377	J3_22	J3_23	120.00	250.0	130.0	0.1102	Open
P378	J3_22	J4_22	120.00	200.0	130.0	0.0162	Open
P379	J3_23	J3_24	120.00	250.0	125.0	0.1483	Open
P380	J3_23	J4_23	120.00	300.0	125.0	0.0300	Open
P381	J3_24	J3_25	120.00	200.0	130.0	0.1042	Open
P382	J3_24	J4_24	120.00	300.0	135.0	0.1278	Open
P383	J3_25	J3_26	120.00	150.0	125.0	0.0787	Open
P384	J3_25	J4_25	120.00	250.0	135.0	0.0266	Open
P385	J3_26	J3_27	120.00	150.0	125.0	0.1079	Open
P386	J3_26	J4_26	120.00	250.0	125.0	0.0247	Open
P387	J3_27	J3_28	120.00	300.0	130.0	0.0038	Open
P388	J3_27	J4_27	120.00	200.0	125.0	0.0547	Open
P389	J3_28	J3_29	120.00	400.0	130.0	0.0457	Open
P390	J3_28	J4_28	120.00	300.0	125.0	0.0395	Open
P391	J3_29	J3_30	120.00	200.0	140.0	0.0901	Open
P392	J3_29	J4_29	120.00	200.0	140.0	0.0443	Open
P393	J3_30	J3_31	120.00	150.0	125.0	0.1147	Open
P394	J3_30	J4_30	120.00	200.0	135.0	0.1210	Open
P395	J3_31	J3_32	120.00	250.0	135.0	0.1276	Open
P396	J3_31	J4_31	120.00	250.0	125.0	0.0040	Open
P397	J3_32	J3_33	120.00	150.0	130.0	0.0796	Open
P398	J3_32	J4_32	120.00	300.0	140.0	0.1047	Open
P399	J3_33	J3_34	120.00	100.0	125.0	0.0547	Open
P400	J3_33	J4_33	120.00	200.0	140.0	0.0028	Open
P401	J3_34	J3_35	120.00	150.0	125.0	0.0868	Open
P402	J3_34	J4_34	120.00	250.0	140.0	0.0226	Open
P403	J3_35	J3_36	120.00	200.0	135.0	0.1357	Open
P404	J3_35	J4_35	120.00	200.0	130.0	0.0662	Open
P405	J3_36	J3_37	120.00	100.0	125.0	0.1120	Open
P406	J3_36	J4_36	120.00	100.0	140.0	0.0457	Open
P407	J3_37	J3_38	120.00	400.0	120.0	0.0273	Open
P408	J3_37	J4_37	120.00	350.0	130.0	0.0390	Open
P409	J3_38	J3_39	120.00	300.0	140.0	0.1055	Open
P410	J3_38	J4_38	120.00	200.0	125.0	0.0926	Open
P411	J3_39	J3_40	120.00	250.0	125.0	0.1430	Open
P412	J3_39	J4_39	120.00	200.0	140.0	0.0063	Open
P413	J3_40	J3_41	120.00	250.0	140.0	0.0776	Open
P414	J3_40	J4_40	120.00	150.0	135.0	0.0641	Open
P415	J3_41	J3_42	120.00	100.0	130.0	0.0881	Open
P416	J3_41	J4_41	120.00	200.0	130.0	0.0172	Open
P417	J3_42	J3_43	120.00	250.0	125.0	0.0046	Open
P418	J3_42	J4_42	120.00	150.0	125.0	0.0917	Open
P419	J3_43	J3_44	120.00	200.0	135.0	0.1433	Open
P420	J3_43	J4_43	120.00	200.0	130.0	0.1111	Open
P421	J3_44	J3_45	120.00	250.0	130.0	0.1479	Open
P422	J3_44	J4_44	120.00	150.0	140.0	0.1408	Open
P423	J3_45	J3_46	120.00	200.0	130.0	0.1477	Open
P424	J3_45	J4_45	120.00	100.0	135.0	0.0800	Open
P425	J3_46	J3_47	120.00	600.0	120.0	0.0351	Open
P426	J3_46	J4_46	120.00	450.0	120.0	0.0352	Open
P427	J3_47	J3_48	120.00	200.0	130.0	0.0780	Open
P428	J3_47	J4_47	120.00	100.0	125.0	0.0094	Open
P429	J3_48	J3_49	120.00	100.0	125.0	0.0382	Open
P430	J3_48	J4_48	120.00	150.0	130.0	0.0516	Open
P431	J3_49	J3_50	120.00	250.0	130.0	0.0530	Open
P432	J3_49	J4_49	120.00	150.0	140.0	0.0739	Open
P433	J3_50	J3_51	120.00	300.0	135.0	0.0705	Open
P434	J3_50	J4_50	120.00	150.0	135.0	0.1214	Open
P435	J3_51	J3_52	120.00	200.0	135.0	0.0255	Open
P436	J3_51	J4_51	120.00	150.0	135.0	0.1321	Open
P437	J3_52	J3_53	120.00	250.0	135.0	0.0096	Open
P438	J3_52	J4_52	120.00	100.0	130.0	0.0748	Open
P439	J3_53	J3_54	120.00	250.0	140.0	0.0997	Open
P440	J3_53	J4_53	120.00	200.0	140.0	0.0473	Open
P441	J3_54	J3_55	120.00	100.0	135.0	0.0147	Open
P442	J3_54	J4_54	120.00	150.0	135.0	0.0388	Open
P443	J3_55	J3_56	120.00	300.0	120.0	0.0300	Open
P444	J3_55	J4_55	120.00	450.0	125.0	0.0275	Open
P445	J3_56	J3_57	120.00	200.0	140.0	0.1037	Open
P446	J3_56	J4_56	120.00	200.0	130.0	0.0914	Open
P447	J3_57	J3_58	120.00	200.0	130.0	0.0736	Open
P448	J3_57	J4_57	120.00	100.0	130.0	0.0858	Open
P449	J3_58	J3_59	120.00	300.0	135.0	0.1306	Open
P450	J3_58	J4_58	120.00	100.0	130.0	0.1127	Open
P451	J3_59	J3_60	120.00	150.0	135.0	0.1181	Open
P452	J3_59	J4_59	120.00	250.0	135.0	0.1312	Open
P453	J3_60	J3_61	120.00	250.0	135.0	0.0086	Open
P454	J3_60	J4_60	120.00	250.0	130.0	0.0313	Open
P455	J3_61	J3_62	120.00	300.0	125.0	0.0023	Open
P456	J3_61	J4_61	120.00	150.0	135.0	0.1087	Open
P457	J3_62	J3_63	120.00	300.0	125.0	0.1199	Open
P458	J3_62	J4_62	120.00	300.0	140.0	0.1091	Open
P459	J3_63	J3_64	120.00	250.0	125.0	0.0811	Open
P460	J3_63	J4_63	120.00	200.0	135.0	0.0869	Open
P461	J3_64	J3_65	120.00	300.0	125.0	0.0443	Open
P462	J3_64	J4_64	120.00	450.0	125.0	0.0375	Open
P463	J3_65	J3_66	120.00	150.0	140.0	0.1140	Open
P464	J3_65	J4_65	120.00	150.0	130.0	0.0250	Open
P465	J3_66	J3_67	120.00	200.0	135.0	0.0248	Open
P466	J3_66	J4_66	120.00	300.0	125.0	0.0200	Open
P467	J3_67	J3_68	120.00	100.0	125.0	0.0893	Open
P468	J3_67	J4_67	120.00	250.0	140.0	0.1252	Open
P469	J3_68	J3_69	120.00	150.0	125.0	0.0353	Open
P470	J3_68	J4_68	120.00	150.0	130.0	0.0590	Open
P471	J3_69	J3_70	120.00	150.0	140.0	0.0072	Open
P472	J3_69	J4_69	120.00	100.0	140.0	0.1228	Open
P473	J3_70	J3_71	120.00	150.0	135.0	0.0400	Open
P474	J3_70	J4_70	120.00	250.0	135.0	0.1232	Open
P475	J3_71	J3_72	120.00	150.0	125.0	0.0421	Open
P476	J3_71	J4_71	120.00	150.0	140.0	0.0999	Open
P477	J3_72	J3_73	120.00	250.0	135.0	0.1139	Open
P478	J3_72	J4_72	120.00	250.0	135.0	0.1168	Open
P479	J3_73	J3_74	120.00	600.0	125.0	0.0459	Open
P480	J3_73	J4_73	120.00	600.0	125.0	0.0203	Open
P481	J3_74	J3_75	120.00	200.0	140.0	0.0088	Open
P482	J3_74	J4_74	120.00	200.0	140.0	0.0580	Open
P483	J3_75	J3_76	120.00	200.0	140.0	0.0518	Open
P484	J3_75	J4_75	120.00	250.0	140.0	0.0493	Open
P485	J3_76	J3_77	120.00	300.0	135.0	0.0083	Open
P486	J3_76	J4_76	120.00	250.0	125.0	0.0838	Open
P487	J3_77	J3_78	120.00	300.0	135.0	0.0632	Open
P488	J3_77	J4_77	120.00	200.0	125.0	0.1244	Open
P489	J3_78	J3_79	120.00	200.0	140.0	0.0236	Open
P490	J3_78	J4_78	120.00	100.0	130.0	0.0678	Open
P491	J3_79	J3_80	120.00	100.0	125.0	0.1101	Open
P492	J3_79	J4_79	120.00	300.0	135.0	0.0437	Open
P493	J3_80	J3_81	120.00	250.0	125.0	0.1238	Open
P494	J3_80	J4_80	120.00	150.0	140.0	0.0462	Open
P495	J3_81	J3_82	120.00	300.0	125.0	0.0882	Open
P496	J3_81	J4_81	120.00	100.0	140.0	0.1445	Open
P497	J3_82	J3_83	120.00	350.0	130.0	0.0459	Open
P498	J3_82	J4_82	120.00	300.0	120.0	0.0393	Open
P499	J3_83	J3_84	120.00	300.0	130.0	0.0301	Open
P500	J3_83	J4_83	120.00	150.0	135.0	0.0806	Open
P501	J3_84	J4_84	120.00	100.0	135.0	0.1444	Open
P502	J4_1	J4_2	120.00	600.0	130.0	0.0430	Open
P503	J4_1	J5_1	120.00	450.0	125.0	0.0323	Open
P504	J4_2	J4_3	120.00	150.0	135.0	0.0780	Open
P505	J4_2	J5_2	120.00	150.0	140.0	0.0679	Open
P506	J4_3	J4_4	120.00	200.0	130.0	0.0454	Open
P507	J4_3	J5_3	120.00	150.0	135.0	0.0861	Open
P508	J4_4	J4_5	120.00	150.0	135.0	0.1061	Open
P509	J4_4	J5_4	120.00	200.0	130.0	0.0672	Open
P510	J4_5	J4_6	120.00	250.0	125.0	0.0621	Open
P511	J4_5	J5_5	120.00	100.0	135.0	0.0013	Open
P512	J4_6	J4_7	120.00	300.0	130.0	0.1480	Open
P513	J4_6	J5_6	120.00	250.0	130.0	0.0365	Open
P514	J4_7	J4_8	120.00	300.0	135.0	0.0254	Open
P515	J4_7	J5_7	120.00	200.0	125.0	0.1027	Open
P516	J4_8	J4_9	120.00	300.0	140.0	0.1041	Open
P517	J4_8	J5_8	120.00	300.0	130.0	0.0407	Open
P518	J4_9	J4_10	120.00	100.0	140.0	0.0103	Open
P519	J4_9	J5_9	120.00	300.0	130.0	0.0607	Open
P520	J4_10	J4_11	120.00	500.0	125.0	0.0138	Open
P521	J4_10	J5_10	120.00	450.0	125.0	0.0113	Open
P522	J4_11	J4_12	120.00	150.0	140.0	0.0854	Open
P523	J4_11	J5_11	120.00	150.0	135.0	0.0867	Open
P524	J4_12	J4_13	120.00	200.0	130.0	0.1323	Open
P525	J4_12	J5_12	120.00	200.0	130.0	0.1306	Open
P526	J4_13	J4_14	120.00	150.0	130.0	0.1139	Open
P527	J4_13	J5_13	120.00	100.0	125.0	0.1139	Open
P528	J4_14	J4_15	120.00	200.0	135.0	0.0516	Open
P529	J4_14	J5_14	120.00	100.0	130.0	0.0388	Open
P530	J4_15	J4_16	120.00	300.0	125.0	0.0264	Open
P531	J4_15	J5_15	120.00	100.0	135.0	0.1178	Open
P532	J4_16	J4_17	120.00	300.0	140.0	0.0345	Open
P533	J4_16	J5_16	120.00	250.0	135.0	0.0423	Open
P534	J4_17	J4_18	120.00	150.0	135.0	0.0106	Open
P535	J4_17	J5_17	120.00	250.0	140.0	0.1226	Open
P536	J4_18	J4_19	120.00	150.0	125.0	0.1237	Open
P537	J4_18	J5_18	120.00	150.0	135.0	0.0575	Open
P538	J4_19	J4_20	120.00	350.0	125.0	0.0129	Open
P539	J4_19	J5_19	120.00	500.0	130.0	0.0107	Open
P540	J4_20	J4_21	120.00	250.0	130.0	0.1127	Open
P541	J4_20	J5_20	120.00	250.0	140.0	0.0141	Open
P542	J4_21	J4_22	120.00	200.0	125.0	0.1244	Open
P543	J4_21	J5_21	120.00	150.0	135.0	0.1456	Open
P544	J4_22	J4_23	120.00	150.0	130.0	0.1116	Open
P545	J4_22	J5_22	120.00	250.0	130.0	0.0215	Open
P546	J4_23	J4_24	120.00	100.0	140.0	0.0895	Open
P547	J4_23	J5_23	120.00	150.0	140.0	0.0241	Open
P548	J4_24	J4_25	120.00	250.0	135.0	0.1201	Open
P549	J4_24	J5_24	120.00	200.0	140.0	0.0780	Open
P550	J4_25	J4_26	120.00	300.0	130.0	0.0623	Open
P551	J4_25	J5_25	120.00	300.0	140.0	0.0043	Open
P552	J4_26	J4_27	120.00	150.0	125.0	0.1482	Open
P553	J4_26	J5_26	120.00	200.0	140.0	0.0937	Open
P554	J4_27	J4_28	120.00	150.0	125.0	0.0184	Open
P555	J4_27	J5_27	120.00	250.0	125.0	0.0723	Open
P556	J4_28	J4_29	120.00	400.0	125.0	0.0253	Open
P557	J4_28	J5_28	120.00	300.0	125.0	0.0217	Open
P558	J4_29	J4_30	120.00	250.0	135.0	0.0794	Open
P559	J4_29	J5_29	120.00	300.0	125.0	0.0054	Open
P560	J4_30	J4_31	120.00	300.0	140.0	0.0499	Open
P561	J4_30	J5_30	120.00	100.0	135.0	0.1140	Open
P562	J4_31	J4_32	120.00	300.0	125.0	0.0927	Open
P563	J4_31	J5_31	120.00	150.0	125.0	0.0144	Open
P564	J4_32	J4_33	120.00	300.0	125.0	0.1437	Open
P565	J4_32	J5_32	120.00	250.0	130.0	0.0532	Open
P566	J4_33	J4_34	120.00	300.0	140.0	0.0500	Open
P567	J4_33	J5_33	120.00	250.0	135.0	0.0342	Open
P568	J4_34	J4_35	120.00	250.0	135.0	0.0970	Open
P569	J4_34	J5_34	120.00	150.0	140.0	0.0476	Open
P570	J4_35	J4_36	120.00	200.0	135.0	0.0499	Open
P571	J4_35	J5_35	120.00	100.0	135.0	0.0044	Open
P572	J4_36	J4_37	120.00	150.0	140.0	0.0005	Open
P573	J4_36	J5_36	120.00	250.0	135.0	0.0056	Open
P574	J4_37	J4_38	120.00	400.0	130.0	0.0415	Open
P575	J4_37	J5_37	120.00	500.0	130.0	0.0011	Open
P576	J4_38	J4_39	120.00	300.0	135.0	0.1082	Open
P577	J4_38	J5_38	120.00	300.0	125.0	0.1019	Open
P578	J4_39	J4_40	120.00	200.0	125.0	0.0622	Open
P579	J4_39	J5_39	120.00	200.0	140.0	0.0148	Open
P580	J4_40	J4_41	120.00	100.0	135.0	0.0627	Open
P581	J4_40	J5_40	120.00	200.0	140.0	0.1270	Open
P582	J4_41	J4_42	120.00	150.0	140.0	0.0602	Open
P583	J4_41	J5_41	120.00	300.0	130.0	0.0991	Open
P584	J4_42	J4_43	120.00	250.0	140.0	0.1465	Open
P585	J4_42	J5_42	120.00	100.0	140.0	0.0769	Open
P586	J4_43	J4_44	120.00	250.0	125.0	0.0404	Open
P587	J4_43	J5_43	120.00	200.0	125.0	0.0276	Open
P588	J4_44	J4_45	120.00	150.0	135.0	0.0113	Open
P589	J4_44	J5_44	120.00	150.0	130.0	0.0782	Open
P590	J4_45	J4_46	120.00	250.0	135.0	0.0245	Open
P591	J4_45	J5_45	120.00	100.0	135.0	0.1472	Open
P592	J4_46	J4_47	120.00	350.0	125.0	0.0226	Open
P593	J4_46	J5_46	120.00	450.0	130.0	0.0218	Open
P594	J4_47	J4_48	120.00	100.0	125.0	0.0330	Open
P595	J4_47	J5_47	120.00	200.0	130.0	0.0630	Open
P596	J4_48	J4_49	120.00	100.0	140.0	0.1077	Open
P597	J4_48	J5_48	120.00	150.0	135.0	0.0718	Open
P598	J4_49	J4_50	120.00	300.0	125.0	0.0081	Open
P599	J4_49	J5_49	120.00	200.0	130.0	0.0619	Open
P600	J4_50	J4_51	120.00	300.0	125.0	0.0367	Open
P601	J4_50	J5_50	120.00	100.0	125.0	0.1475	Open
P602	J4_51	J4_52	120.00	250.0	125.0	0.0224	Open
P603	J4_51	J5_51	120.00	250.0	125.0	0.0112	Open
P604	J4_52	J4_53	120.00	250.0	130.0	0.0991	Open
P605	J4_52	J5_52	120.00	300.0	140.0	0.0058	Open
P606	J4_53	J4_54	120.00	250.0	135.0	0.0964	Open
P607	J4_53	J5_53	120.00	100.0	140.0	0.0671	Open
P608	J4_54	J4_55	120.00	100.0	130.0	0.1011	Open
P609	J4_54	J5_54	120.00	250.0	140.0	0.1495	Open
P610	J4_55	J4_56	120.00	300.0	130.0	0.0400	Open
P611	J4_55	J5_55	120.00	350.0	120.0	0.0153	Open
P612	J4_56	J4_57	120.00	150.0	135.0	0.1487	Open
P613	J4_56	J5_56	120.00	100.0	135.0	0.0047	Open
P614	J4_57	J4_58	120.00	250.0	130.0	0.0298	Open
P615	J4_57	J5_57	120.00	250.0	130.0	0.0644	Open
P616	J4_58	J4_59	120.00	200.0	135.0	0.0301	Open
P617	J4_58	J5_58	120.00	300.0	130.0	0.0518	Open
P618	J4_59	J4_60	120.00	200.0	130.0	0.0793	Open
P619	J4_59	J5_59	120.00	300.0	130.0	0.1041	Open
P620	J4_60	J4_61	120.00	100.0	130.0	0.1276	Open
P621	J4_60	J5_60	120.00	250.0	140.0	0.0349	Open
P622	J4_61	J4_62	120.00	300.0	125.0	0.1248	Open
P623	J4_61	J5_61	120.00	150.0	140.0	0.1207	Open
P624	J4_62	J4_63	120.00	150.0	130.0	0.0680	Open
P625	J4_62	J5_62	120.00	200.0	130.0	0.0766	Open
P626	J4_63	J4_64	120.00	200.0	130.0	0.0460	Open
P627	J4_63	J5_63	120.00	250.0	140.0	0.0131	Open
P628	J4_64	J4_65	120.00	500.0	130.0	0.0321	Open
P629	J4_64	J5_64	120.00	300.0	125.0	0.0296	Open
P630	J4_65	J4_66	120.00	300.0	130.0	0.0301	Open
P631	J4_65	J5_65	120.00	200.0	140.0	0.0950	Open
P632	J4_66	J4_67	120.00	150.0	135.0	0.0954	Open
P633	J4_66	J5_66	120.00	200.0	130.0	0.0240	Open
P634	J4_67	J4_68	120.00	300.0	125.0	0.0415	Open
P635	J4_67	J5_67	120.00	250.0	140.0	0.0970	Open
P636	J4_68	J4_69	120.00	300.0	135.0	0.0973	Open
P637	J4_68	J5_68	120.00	100.0	125.0	0.0684	Open
P638	J4_69	J4_70	120.00	300.0	130.0	0.1313	Open
P639	J4_69	J5_69	120.00	150.0	130.0	0.0930	Open
P640	J4_70	J4_71	120.00	200.0	140.0	0.0773	Open
P641	J4_70	J5_70	120.00	250.0	140.0	0.0375	Open
P642	J4_71	J4_72	120.00	250.0	125.0	0.0589	Open
P643	J4_71	J5_71	120.00	200.0	125.0	0.0329	Open
P644	J4_72	J4_73	120.00	200.0	125.0	0.0983	Open
P645	J4_72	J5_72	120.00	300.0	135.0	0.0807	Open
P646	J4_73	J4_74	120.00	450.0	120.0	0.0383	Open
P647	J4_73	J5_73	120.00	450.0	120.0	0.0358	Open
P648	J4_74	J4_75	120.00	250.0	130.0	0.0135	Open
P649	J4_74	J5_74	120.00	300.0	140.0	0.1357	Open
P650	J4_75	J4_76	120.00	100.0	130.0	0.0070	Open
P651	J4_75	J5_75	120.00	100.0	135.0	0.1171	Open
P652	J4_76	J4_77	120.00	100.0	140.0	0.0123	Open
P653	J4_76	J5_76	120.00	100.0	125.0	0.0879	Open
P654	J4_77	J4_78	120.00	150.0	130.0	0.0274	Open
P655	J4_77	J5_77	120.00	150.0	130.0	0.0609	Open
P656	J4_78	J4_79	120.00	200.0	130.0	0.0378	Open
P657	J4_78	J5_78	120.00	150.0	130.0	0.1377	Open
P658	J4_79	J4_80	120.00	300.0	140.0	0.1360	Open
P659	J4_79	J5_79	120.00	100.0	125.0	0.0595	Open
P660	J4_80	J4_81	120.00	150.0	135.0	0.0624	Open
P661	J4_80	J5_80	120.00	150.0	135.0	0.0380	Open
P662	J4_81	J4_82	120.00	100.0	125.0	0.0737	Open
P663	J4_81	J5_81	120.00	150.0	135.0	0.0661	Open
P664	J4_82	J4_83	120.00	400.0	120.0	0.0268	Open
P665	J4_82	J5_82	120.00	600.0	120.0	0.0119	Open
P666	J4_83	J4_84	120.00	200.0	135.0	0.1228	Open
P667	J4_83	J5_83	120.00	300.0	125.0	0.0169	Open
P668	J4_84	J5_84	120.00	250.0	125.0	0.0874	Open
P669	J5_1	J5_2	120.00	600.0	130.0	0.0104	Open
P670	J5_1	J6_1	120.00	500.0	130.0	0.0091	Open
P671	J5_2	J5_3	120.00	150.0	130.0	0.0370	Open
P672	J5_2	J6_2	120.00	100.0	135.0	0.0738	Open
P673	J5_3	J5_4	120.00	100.0	125.0	0.0760	Open
P674	J5_3	J6_3	120.00	100.0	125.0	0.0925	Open
P675	J5_4	J5_5	120.00	300.0	140.0	0.1178	Open
P676	J5_4	J6_4	120.00	250.0	125.0	0.1435	Open
P677	J5_5	J5_6	120.00	100.0	135.0	0.0955	Open
P678	J5_5	J6_5	120.00	150.0	130.0	0.1169	Open
P679	J5_6	J5_7	120.00	100.0	135.0	0.0168	Open
P680	J5_6	J6_6	120.00	150.0	140.0	0.0485	Open
P681	J5_7	J5_8	120.00	250.0	140.0	0.0816	Open
P682	J5_7	J6_7	120.00	150.0	130.0	0.0103	Open
P683	J5_8	J5_9	120.00	150.0	140.0	0.0324	Open
P684	J5_8	J6_8	120.00	100.0	130.0	0.0090	Open
P685	J5_9	J5_10	120.00	300.0	140.0	0.0995	Open
P686	J5_9	J6_9	120.00	300.0	125.0	0.0489	Open
P687	J5_10	J5_11	120.00	450.0	125.0	0.0224	Open
P688	J5_10	J6_10	120.00	400.0	130.0	0.0311	Open
P689	J5_11	J5_12	120.00	200.0	130.0	0.0214	Open
P690	J5_11	J6_11	120.00	100.0	125.0	0.0097	Open
P691	J5_12	J5_13	120.00	300.0	140.0	0.0756	Open
P692	J5_12	J6_12	120.00	250.0	125.0	0.1444	Open
P693	J5_13	J5_14	120.00	250.0	125.0	0.0029	Open
P694	J5_13	J6_13	120.00	300.0	125.0	0.0728	Open
P695	J5_14	J5_15	120.00	100.0	130.0	0.0822	Open
P696	J5_14	J6_14	120.00	250.0	135.0	0.1111	Open
P697	J5_15	J5_16	120.00	250.0	135.0	0.0026	Open
P698	J5_15	J6_15	120.00	250.0	135.0	0.1155	Open
P699	J5_16	J5_17	120.00	200.0	125.0	0.0760	Open
P700	J5_16	J6_16	120.00	150.0	130.0	0.0092	Open
P701	J5_17	J5_18	120.00	300.0	130.0	0.0409	Open
P702	J5_17	J6_17	120.00	100.0	125.0	0.1117	Open
P703	J5_18	J5_19	120.00	250.0	140.0	0.1320	Open
P704	J5_18	J6_18	120.00	150.0	130.0	0.0942	Open
P705	J5_19	J5_20	120.00	500.0	130.0	0.0481	Open
P706	J5_19	J6_19	120.00	500.0	125.0	0.0085	Open
P707	J5_20	J5_21	120.00	100.0	125.0	0.0884	Open
P708	J5_20	J6_20	120.00	250.0	130.0	0.0239	Open
P709	J5_21	J5_22	120.00	100.0	140.0	0.0989	Open
P710	J5_21	J6_21	120.00	300.0	135.0	0.0019	Open
P711	J5_22	J5_23	120.00	100.0	130.0	0.0518	Open
P712	J5_22	J6_22	120.00	250.0	140.0	0.1141	Open
P713	J5_23	J5_24	120.00	150.0	125.0	0.0953	Open
P714	J5_23	J6_23	120.00	100.0	125.0	0.0394	Open
P715	J5_24	J5_25	120.00	300.0	130.0	0.0480	Open
P716	J5_24	J6_24	120.00	100.0	140.0	0.0781	Open
P717	J5_25	J5_26	120.00	250.0	135.0	0.1037	Open
P718	J5_25	J6_25	120.00	300.0	125.0	0.1143	Open
P719	J5_26	J5_27	120.00	300.0	125.0	0.0161	Open
P720	J5_26	J6_26	120.00	150.0	135.0	0.1250	Open
P721	J5_27	J5_28	120.00	250.0	125.0	0.0792	Open
P722	J5_27	J6_27	120.00	200.0	135.0	0.0017	Open
P723	J5_28	J5_29	120.00	600.0	130.0	0.0282	Open
P724	J5_28	J6_28	120.00	300.0	130.0	0.0233	Open
P725	J5_29	J5_30	120.00	300.0	140.0	0.1227	Open
P726	J5_29	J6_29	120.00	300.0	140.0	0.1143	Open
P727	J5_30	J5_31	120.00	250.0	135.0	0.0054	Open
P728	J5_30	J6_30	120.00	150.0	135.0	0.1134	Open
P729	J5_31	J5_32	120.00	200.0	140.0	0.1318	Open
P730	J5_31	J6_31	120.00	100.0	140.0	0.1024	Open
P731	J5_32	J5_33	120.00	250.0	125.0	0.0822	Open
P732	J5_32	J6_32	120.00	200.0	130.0	0.1203	Open
P733	J5_33	J5_34	120.00	300.0	130.0	0.0901	Open
P734	J5_33	J6_33	120.00	150.0	130.0	0.0653	Open
P735	J5_34	J5_35	120.00	100.0	135.0	0.1360	Open
P736	J5_34	J6_34	120.00	100.0	135.0	0.0789	Open
P737	J5_35	J5_36	120.00	100.0	130.0	0.0475	Open
P738	J5_35	J6_35	120.00	150.0	130.0	0.0182	Open
P739	J5_36	J5_37	120.00	200.0	125.0	0.0854	Open
P740	J5_36	J6_36	120.00	250.0	130.0	0.1477	Open
P741	J5_37	J5_38	120.00	450.0	120.0	0.0109	Open
P742	J5_37	J6_37	120.00	600.0	130.0	0.0359	Open
P743	J5_38	J5_39	120.00	200.0	140.0	0.1199	Open
P744	J5_38	J6_38	120.00	100.0	140.0	0.0134	Open
P745	J5_39	J5_40	120.00	250.0	125.0	0.1116	Open
P746	J5_39	J6_39	120.00	100.0	130.0	0.0060	Open
P747	J5_40	J5_41	120.00	250.0	140.0	0.0549	Open
P748	J5_40	J6_40	120.00	300.0	125.0	0.1471	Open
P749	J5_41	J5_42	120.00	100.0	140.0	0.1018	Open
P750	J5_41	J6_41	120.00	300.0	130.0	0.0181	Open
P751	J5_42	J5_43	120.00	100.0	125.0	0.1211	Open
P752	J5_42	J6_42	120.00	300.0	125.0	0.0781	Open
P753	J5_43	J5_44	120.00	100.0	130.0	0.0456	Open
P754	J5_43	J6_43	120.00	100.0	125.0	0.1334	Open
P755	J5_44	J5_45	120.00	250.0	125.0	0.0504	Open
P756	J5_44	J6_44	120.00	150.0	140.0	0.0871	Open
P757	J5_45	J5_46	120.00	200.0	125.0	0.0513	Open
P758	J5_45	J6_45	120.00	300.0	130.0	0.1412	Open
P759	J5_46	J5_47	120.00	350.0	125.0	0.0403	Open
P760	J5_46	J6_46	120.00	450.0	125.0	0.0281	Open
P761	J5_47	J5_48	120.00	250.0	135.0	0.0428	Open
P762	J5_47	J6_47	120.00	300.0	140.0	0.1328	Open
P763	J5_48	J5_49	120.00	300.0	130.0	0.0961	Open
P764	J5_48	J6_48	120.00	100.0	140.0	0.0732	Open
P765	J5_49	J5_50	120.00	250.0	140.0	0.1264	Open
P766	J5_49	J6_49	120.00	250.0	130.0	0.0970	Open
P767	J5_50	J5_51	120.00	100.0	125.0	0.0785	Open
P768	J5_50	J6_50	120.00	150.0	130.0	0.0800	Open
P769	J5_51	J5_52	120.00	250.0	140.0	0.1223	Open
P770	J5_51	J6_51	120.00	250.0	125.0	0.0321	Open
P771	J5_52	J5_53	120.00	150.0	125.0	0.0279	Open
P772	J5_52	J6_52	120.00	300.0	135.0	0.1378	Open
P773	J5_53	J5_54	120.00	100.0	125.0	0.0776	Open
P774	J5_53	J6_53	120.00	200.0	140.0	0.0974	Open
P775	J5_54	J5_55	120.00	200.0	135.0	0.0358	Open
P776	J5_54	J6_54	120.00	200.0	140.0	0.0199	Open
P777	J5_55	J5_56	120.00	300.0	130.0	0.0326	Open
P778	J5_55	J6_55	120.00	400.0	130.0	0.0323	Open
P779	J5_56	J5_57	120.00	150.0	135.0	0.1498	Open
P780	J5_56	J6_56	120.00	150.0	135.0	0.0023	Open
P781	J5_57	J5_58	120.00	100.0	135.0	0.1479	Open
P782	J5_57	J6_57	120.00	200.0	140.0	0.0344	Open
P783	J5_58	J5_59	120.00	300.0	140.0	0.1113	Open
P784	J5_58	J6_58	120.00	300.0	130.0	0.1330	Open
P785	J5_59	J5_60	120.00	300.0	125.0	0.1177	Open
P786	J5_59	J6_59	120.00	150.0	135.0	0.1150	Open
P787	J5_60	J5_61	120.00	250.0	125.0	0.1425	Open
P788	J5_60	J6_60	120.00	150.0	135.0	0.1415	Open
P789	J5_61	J5_62	120.00	100.0	135.0	0.0463	Open
P790	J5_61	J6_61	120.00	200.0	130.0	0.1423	Open
P791	J5_62	J5_63	120.00	300.0	135.0	0.1157	Open
P792	J5_62	J6_62	120.00	300.0	140.0	0.0149	Open
P793	J5_63	J5_64	120.00	150.0	135.0	0.0113	Open
P794	J5_63	J6_63	120.00	250.0	140.0	0.0928	Open
P795	J5_64	J5_65	120.00	500.0	130.0	0.0244	Open
P796	J5_64	J6_64	120.00	600.0	125.0	0.0348	Open
P797	J5_65	J5_66	120.00	200.0	125.0	0.0812	Open
P798	J5_65	J6_65	120.00	200.0	140.0	0.1216	Open
P799	J5_66	J5_67	120.00	250.0	140.0	0.1114	Open
P800	J5_66	J6_66	120.00	150.0	135.0	0.0109	Open
P801	J5_67	J5_68	120.00	250.0	135.0	0.0132	Open
P802	J5_67	J6_67	120.00	250.0	130.0	0.0524	Open
P803	J5_68	J5_69	120.00	300.0	125.0	0.0030	Open
P804	J5_68	J6_68	120.00	250.0	125.0	0.0773	Open
P805	J5_69	J5_70	120.00	300.0	130.0	0.0114	Open
P806	J5_69	J6_69	120.00	100.0	140.0	0.0092	Open
P807	J5_70	J5_71	120.00	250.0	130.0	0.0080	Open
P808	J5_70	J6_70	120.00	300.0	130.0	0.0493	Open
P809	J5_71	J5_72	120.00	300.0	125.0	0.1033	Open
P810	J5_71	J6_71	120.00	100.0	125.0	0.1219	Open
P811	J5_72	J5_73	120.00	250.0	125.0	0.0094	Open
P812	J5_72	J6_72	120.00	200.0	140.0	0.0283	Open
P813	J5_73	J5_74	120.00	500.0	120.0	0.0346	Open
P814	J5_73	J6_73	120.00	450.0	125.0	0.0248	Open
P815	J5_74	J5_75	120.00	150.0	125.0	0.1099	Open
P816	J5_74	J6_74	120.00	300.0	140.0	0.1183	Open
P817	J5_75	J5_76	120.00	200.0	125.0	0.0839	Open
P818	J5_75	J6_75	120.00	200.0	140.0	0.0074	Open
P819	J5_76	J5_77	120.00	200.0	130.0	0.1493	Open
P820	J5_76	J6_76	120.00	200.0	135.0	0.0804	Open
P821	J5_77	J5_78	120.00	250.0	125.0	0.1000	Open
P822	J5_77	J6_77	120.00	300.0	125.0	0.0104	Open
P823	J5_78	J5_79	120.00	300.0	125.0	0.1102	Open
P824	J5_78	J6_78	120.00	100.0	130.0	0.0213	Open
P825	J5_79	J5_80	120.00	100.0	130.0	0.1155	Open
P826	J5_79	J6_79	120.00	150.0	135.0	0.0943	Open
P827	J5_80	J5_81	120.00	150.0	135.0	0.1361	Open
P828	J5_80	J6_80	120.00	100.0	135.0	0.0038	Open
P829	J5_81	J5_82	120.00	100.0	125.0	0.0338	Open
P830	J5_81	J6_81	120.00	150.0	135.0	0.0681	Open
P831	J5_82	J5_83	120.00	500.0	130.0	0.0058	Open
P832	J5_82	J6_82	120.00	600.0	130.0	0.0037	Open
P833	J5_83	J5_84	120.00	200.0	130.0	0.0153	Open
P834	J5_83	J6_83	120.00	300.0	135.0	0.1246	Open
P835	J5_84	J6_84	120.00	250.0	125.0	0.0319	Open
P836	J6_1	J6_2	120.00	450.0	125.0	0.0178	Open
P837	J6_1	J7_1	120.00	400.0	130.0	0.0339	Open
P838	J6_2	J6_3	120.00	100.0	135.0	0.0390	Open
P839	J6_2	J7_2	120.00	200.0	125.0	0.0655	Open
P840	J6_3	J6_4	120.00	300.0	140.0	0.0598	Open
P841	J6_3	J7_3	120.00	200.0	135.0	0.0782	Open
P842	J6_4	J6_5	120.00	150.0	130.0	0.1270	Open
P843	J6_4	J7_4	120.00	250.0	140.0	0.1339	Open
P844	J6_5	J6_6	120.00	150.0	140.0	0.0333	Open
P845	J6_5	J7_5	120.00	250.0	125.0	0.0082	Open
P846	J6_6	J6_7	120.00	300.0	125.0	0.1296	Open
P847	J6_6	J7_6	120.00	150.0	125.0	0.0612	Open
P848	J6_7	J6_8	120.00	250.0	140.0	0.0297	Open
P849	J6_7	J7_7	120.00	150.0	135.0	0.0252	Open
P850	J6_8	J6_9	120.00	300.0	130.0	0.0704	Open
P851	J6_8	J7_8	120.00	100.0	125.0	0.0059	Open
P852	J6_9	J6_10	120.00	300.0	125.0	0.0912	Open
P853	J6_9	J7_9	120.00	150.0	140.0	0.0450	Open
P854	J6_10	J6_11	120.00	450.0	130.0	0.0423	Open
P855	J6_10	J7_10	120.00	600.0	130.0	0.0284	Open
P856	J6_11	J6_12	120.00	150.0	140.0	0.1460	Open
P857	J6_11	J7_11	120.00	100.0	135.0	0.0055	Open
P858	J6_12	J6_13	120.00	100.0	140.0	0.0507	Open
P859	J6_12	J7_12	120.00	150.0	130.0	0.1071	Open
P860	J6_13	J6_14	120.00	100.0	130.0	0.0335	Open
P861	J6_13	J7_13	120.00	150.0	125.0	0.0781	Open
P862	J6_14	J6_15	120.00	150.0	130.0	0.0641	Open
P863	J6_14	J7_14	120.00	200.0	125.0	0.1402	Open
P864	J6_15	J6_16	120.00	250.0	125.0	0.0964	Open
P865	J6_15	J7_15	120.00	150.0	140.0	0.0100	Open
P866	J6_16	J6_17	120.00	200.0	125.0	0.0154	Open
P867	J6_16	J7_16	120.00	100.0	130.0	0.0181	Open
P868	J6_17	J6_18	120.00	300.0	125.0	0.0897	Open
P869	J6_17	J7_17	120.00	150.0	140.0	0.0633	Open
P870	J6_18	J6_19	120.00	300.0	140.0	0.0971	Open
P871	J6_18	J7_18	120.00	250.0	125.0	0.1163	Open
P872	J6_19	J6_20	120.00	500.0	130.0	0.0106	Open
P873	J6_19	J7_19	120.00	300.0	120.0	0.0007	Open
P874	J6_20	J6_21	120.00	200.0	130.0	0.1221	Open
P875	J6_20	J7_20	120.00	150.0	140.0	0.1195	Open
P876	J6_21	J6_22	120.00	300.0	135.0	0.1387	Open
P877	J6_21	J7_21	120.00	150.0	125.0	0.0576	Open
P878	J6_22	J6_23	120.00	150.0	125.0	0.0424	Open
P879	J6_22	J7_22	120.00	250.0	125.0	0.1355	Open
P880	J6_23	J6_24	120.00	150.0	140.0	0.0553	Open
P881	J6_23	J7_23	120.00	150.0	125.0	0.0150	Open
P882	J6_24	J6_25	120.00	250.0	130.0	0.1311	Open
P883	J6_24	J7_24	120.00	150.0	125.0	0.0477	Open
P884	J6_25	J6_26	120.00	300.0	125.0	0.0450	Open
P885	J6_25	J7_25	120.00	300.0	125.0	0.1394	Open
P886	J6_26	J6_27	120.00	100.0	140.0	0.0844	Open
P887	J6_26	J7_26	120.00	300.0	125.0	0.0362	Open
P888	J6_27	J6_28	120.00	250.0	130.0	0.0314	Open
P889	J6_27	J7_27	120.00	150.0	140.0	0.1054	Open
P890	J6_28	J6_29	120.00	400.0	125.0	0.0091	Open
P891	J6_28	J7_28	120.00	400.0	125.0	0.0311	Open
P892	J6_29	J6_30	120.00	100.0	135.0	0.1088	Open
P893	J6_29	J7_29	120.00	100.0	130.0	0.1200	Open
P894	J6_30	J6_31	120.00	200.0	125.0	0.0369	Open
P895	J6_30	J7_30	120.00	250.0	140.0	0.1217	Open
P896	J6_31	J6_32	120.00	250.0	125.0	0.0337	Open
P897	J6_31	J7_31	120.00	300.0	135.0	0.1446	Open
P898	J6_32	J6_33	120.00	100.0	135.0	0.0658	Open
P899	J6_32	J7_32	120.00	300.0	130.0	0.1159	Open
P900	J6_33	J6_34	120.00	150.0	125.0	0.0517	Open
P901	J6_33	J7_33	120.00	200.0	135.0	0.0580	Open
P902	J6_34	J6_35	120.00	300.0	130.0	0.1095	Open
P903	J6_34	J7_34	120.00	100.0	130.0	0.0967	Open
P904	J6_35	J6_36	120.00	300.0	135.0	0.0659	Open
P905	J6_35	J7_35	120.00	100.0	125.0	0.0946	Open
P906	J6_36	J6_37	120.00	200.0	140.0	0.1322	Open
P907	J6_36	J7_36	120.00	100.0	140.0	0.1093	Open
P908	J6_37	J6_38	120.00	300.0	130.0	0.0407	Open
P909	J6_37	J7_37	120.00	350.0	130.0	0.0061	Open
P910	J6_38	J6_39	120.00	200.0	125.0	0.1089	Open
P911	J6_38	J7_38	120.00	300.0	125.0	0.0880	Open
P912	J6_39	J6_40	120.00	100.0	140.0	0.1117	Open
P913	J6_39	J7_39	120.00	100.0	130.0	0.1258	Open
P914	J6_40	J6_41	120.00	250.0	140.0	0.0777	Open
P915	J6_40	J7_40	120.00	150.0	125.0	0.1023	Open
P916	J6_41	J6_42	120.00	150.0	135.0	0.1127	Open
P917	J6_41	J7_41	120.00	300.0	125.0	0.1473	Open
P918	J6_42	J6_43	120.00	300.0	135.0	0.0801	Open
P919	J6_42	J7_42	120.00	300.0	140.0	0.0054	Open
P920	J6_43	J6_44	120.00	200.0	140.0	0.1394	Open
P921	J6_43	J7_43	120.00	200.0	130.0	0.1326	Open
P922	J6_44	J6_45	120.00	300.0	135.0	0.0155	Open
P923	J6_44	J7_44	120.00	150.0	140.0	0.0664	Open
P924	J6_45	J6_46	120.00	250.0	125.0	0.0600	Open
P925	J6_45	J7_45	120.00	100.0	125.0	0.1394	Open
P926	J6_46	J6_47	120.00	400.0	125.0	0.0350	Open
P927	J6_46	J7_46	120.00	400.0	125.0	0.0386	Open
P928	J6_47	J6_48	120.00	250.0	135.0	0.1229	Open
P929	J6_47	J7_47	120.00	250.0	140.0	0.1004	Open
P930	J6_48	J6_49	120.00	150.0	140.0	0.0586	Open
P931	J6_48	J7_48	120.00	200.0	125.0	0.0318	Open
P932	J6_49	J6_50	120.00	100.0	140.0	0.1211	Open
P933	J6_49	J7_49	120.00	250.0	130.0	0.0182	Open
P934	J6_50	J6_51	120.00	200.0	140.0	0.1107	Open
P935	J6_50	J7_50	120.00	200.0	140.0	0.1229	Open
P936	J6_51	J6_52	120.00	250.0	125.0	0.0904	Open
P937	J6_51	J7_51	120.00	150.0	140.0	0.1163	Open
P938	J6_52	J6_53	120.00	150.0	130.0	0.0784	Open
P939	J6_52	J7_52	120.00	100.0	130.0	0.0691	Open
P940	J6_53	J6_54	120.00	150.0	130.0	0.0090	Open
P941	J6_53	J7_53	120.00	100.0	140.0	0.0360	Open
P942	J6_54	J6_55	120.00	100.0	135.0	0.0525	Open
P943	J6_54	J7_54	120.00	300.0	125.0	0.0032	Open
P944	J6_55	J6_56	120.00	450.0	125.0	0.0100	Open
P945	J6_55	J7_55	120.00	600.0	130.0	0.0197	Open
P946	J6_56	J6_57	120.00	300.0	125.0	0.0961	Open
P947	J6_56	J7_56	120.00	300.0	130.0	0.1081	Open
P948	J6_57	J6_58	120.00	250.0	125.0	0.0536	Open
P949	J6_57	J7_57	120.00	200.0	125.0	0.1288	Open
P950	J6_58	J6_59	120.00	300.0	125.0	0.0021	Open
P951	J6_58	J7_58	120.00	300.0	130.0	0.1027	Open
P952	J6_59	J6_60	120.00	200.0	135.0	0.1057	Open
P953	J6_59	J7_59	120.00	150.0	125.0	0.0940	Open
P954	J6_60	J6_61	120.00	300.0	130.0	0.0533	Open
P955	J6_60	J7_60	120.00	250.0	135.0	0.1352	Open
P956	J6_61	J6_62	120.00	300.0	130.0	0.0977	Open
P957	J6_61	J7_61	120.00	150.0	130.0	0.0870	Open
P958	J6_62	J6_63	120.00	300.0	135.0	0.0604	Open
P959	J6_62	J7_62	120.00	250.0	125.0	0.1245	Open
P960	J6_63	J6_64	120.00	200.0	135.0	0.1483	Open
P961	J6_63	J7_63	120.00	150.0	130.0	0.0837	Open
P962	J6_64	J6_65	120.00	350.0	125.0	0.0402	Open
P963	J6_64	J7_64	120.00	450.0	130.0	0.0411	Open
P964	J6_65	J6_66	120.00	250.0	135.0	0.0294	Open
P965	J6_65	J7_65	120.00	250.0	130.0	0.0046	Open
P966	J6_66	J6_67	120.00	300.0	125.0	0.1263	Open
P967	J6_66	J7_66	120.00	100.0	125.0	0.1252	Open
P968	J6_67	J6_68	120.00	200.0	125.0	0.0185	Open
P969	J6_67	J7_67	120.00	250.0	125.0	0.0658	Open
P970	J6_68	J6_69	120.00	250.0	135.0	0.0915	Open
P971	J6_68	J7_68	120.00	150.0	140.0	0.1063	Open
P972	J6_69	J6_70	120.00	150.0	140.0	0.1483	Open
P973	J6_69	J7_69	120.00	250.0	135.0	0.0832	Open
P974	J6_70	J6_71	120.00	100.0	125.0	0.0762	Open
P975	J6_70	J7_70	120.00	200.0	140.0	0.0602	Open
P976	J6_71	J6_72	120.00	250.0	125.0	0.0808	Open
P977	J6_71	J7_71	120.00	200.0	135.0	0.0089	Open
P978	J6_72	J6_73	120.00	250.0	140.0	0.0779	Open
P979	J6_72	J7_72	120.00	250.0	130.0	0.1490	Open
P980	J6_73	J6_74	120.00	500.0	130.0	0.0358	Open
P981	J6_73	J7_73	120.00	400.0	130.0	0.0360	Open
P982	J6_74	J6_75	120.00	100.0	135.0	0.0004	Open
P983	J6_74	J7_74	120.00	200.0	135.0	0.0864	Open
P984	J6_75	J6_76	120.00	250.0	135.0	0.0897	Open
P985	J6_75	J7_75	120.00	200.0	130.0	0.0226	Open
P986	J6_76	J6_77	120.00	250.0	125.0	0.1353	Open
P987	J6_76	J7_76	120.00	300.0	135.0	0.1383	Open
P988	J6_77	J6_78	120.00	100.0	135.0	0.0989	Open
P989	J6_77	J7_77	120.00	200.0	135.0	0.0829	Open
P990	J6_78	J6_79	120.00	300.0	135.0	0.0705	Open
P991	J6_78	J7_78	120.00	250.0	130.0	0.1131	Open
P992	J6_79	J6_80	120.00	150.0	125.0	0.1335	Open
P993	J6_79	J7_79	120.00	150.0	125.0	0.1274	Open
P994	J6_80	J6_81	120.00	300.0	140.0	0.0822	Open
P995	J6_80	J7_80	120.00	150.0	135.0	0.0311	Open
P996	J6_81	J6_82	120.00	250.0	130.0	0.0065	Open
P997	J6_81	J7_81	120.00	100.0	140.0	0.1432	Open
P998	J6_82	J6_83	120.00	400.0	125.0	0.0302	Open
P999	J6_82	J7_82	120.00	500.0	120.0	0.0411	Open
P1000	J6_83	J6_84	120.00	300.0	130.0	0.0575	Open
P1001	J6_83	J7_83	120.00	100.0	140.0	0.0352	Open
P1002	J6_84	J7_84	120.00	300.0	125.0	0.0363	Open
P1003	J7_1	J7_2	120.00	500.0	125.0	0.0349	Open
P1004	J7_1	J8_1	120.00	600.0	130.0	0.0130	Open
P1005	J7_2	J7_3	120.00	250.0	125.0	0.0879	Open
P1006	J7_2	J8_2	120.00	150.0	130.0	0.0587	Open
P1007	J7_3	J7_4	120.00	250.0	140.0	0.0452	Open
P1008	J7_3	J8_3	120.00	100.0	130.0	0.1401	Open
P1009	J7_4	J7_5	120.00	200.0	130.0	0.0757	Open
P1010	J7_4	J8_4	120.00	200.0	125.0	0.1361	Open
P1011	J7_5	J7_6	120.00	150.0	130.0	0.0551	Open
P1012	J7_5	J8_5	120.00	300.0	140.0	0.0698	Open
P1013	J7_6	J7_7	120.00	100.0	130.0	0.0127	Open
P1014	J7_6	J8_6	120.00	250.0	130.0	0.0659	Open
P1015	J7_7	J7_8	120.00	300.0	130.0	0.0570	Open
P1016	J7_7	J8_7	120.00	200.0	125.0	0.1044	Open
P1017	J7_8	J7_9	120.00	250.0	135.0	0.0692	Open
P1018	J7_8	J8_8	120.00	150.0	135.0	0.1152	Open
P1019	J7_9	J7_10	120.00	250.0	140.0	0.1187	Open
P1020	J7_9	J8_9	120.00	300.0	130.0	0.0824	Open
P1021	J7_10	J7_11	120.00	300.0	125.0	0.0312	Open
P1022	J7_10	J8_10	120.00	350.0	130.0	0.0150	Open
P1023	J7_11	J7_12	120.00	150.0	135.0	0.0657	Open
P1024	J7_11	J8_11	120.00	200.0	135.0	0.1418	Open
P1025	J7_12	J7_13	120.00	300.0	140.0	0.0949	Open
P1026	J7_12	J8_12	120.00	250.0	140.0	0.1297	Open
P1027	J7_13	J7_14	120.00	300.0	135.0	0.1047	Open
P1028	J7_13	J8_13	120.00	200.0	130.0	0.0158	Open
P1029	J7_14	J7_15	120.00	150.0	125.0	0.1124	Open
P1030	J7_14	J8_14	120.00	300.0	130.0	0.1286	Open
P1031	J7_15	J7_16	120.00	200.0	135.0	0.0779	Open
P1032	J7_15	J8_15	120.00	250.0	135.0	0.0656	Open
P1033	J7_16	J7_17	120.00	200.0	135.0	0.1046	Open
P1034	J7_16	J8_16	120.00	150.0	125.0	0.0203	Open
P1035	J7_17	J7_18	120.00	200.0	135.0	0.1401	Open
P1036	J7_17	J8_17	120.00	250.0	125.0	0.0731	Open
P1037	J7_18	J7_19	120.00	250.0	140.0	0.1439	Open
P1038	J7_18	J8_18	120.00	300.0	125.0	0.1361	Open
P1039	J7_19	J7_20	120.00	300.0	130.0	0.0053	Open
P1040	J7_19	J8_19	120.00	500.0	120.0	0.0327	Open
P1041	J7_20	J7_21	120.00	100.0	130.0	0.0832	Open
P1042	J7_20	J8_20	120.00	200.0	125.0	0.0141	Open
P1043	J7_21	J7_22	120.00	250.0	130.0	0.0649	Open
P1044	J7_21	J8_21	120.00	100.0	130.0	0.1327	Open
P1045	J7_22	J7_23	120.00	100.0	135.0	0.0702	Open
P1046	J7_22	J8_22	120.00	250.0	135.0	0.0706	Open
P1047	J7_23	J7_24	120.00	100.0	140.0	0.1330	Open
P1048	J7_23	J8_23	120.00	150.0	130.0	0.0782	Open
P1049	J7_24	J7_25	120.00	300.0	130.0	0.0550	Open
P1050	J7_24	J8_24	120.00	300.0	125.0	0.1125	Open
P1051	J7_25	J7_26	120.00	200.0	135.0	0.1046	Open
P1052	J7_25	J8_25	120.00	250.0	130.0	0.0334	Open
P1053	J7_26	J7_27	120.00	100.0	130.0	0.1380	Open
P1054	J7_26	J8_26	120.00	300.0	125.0	0.0123	Open
P1055	J7_27	J7_28	120.00	150.0	125.0	0.1052	Open
P1056	J7_27	J8_27	120.00	250.0	125.0	0.0833	Open
P1057	J7_28	J7_29	120.00	600.0	130.0	0.0015	Open
P1058	J7_28	J8_28	120.00	300.0	130.0	0.0109	Open
P1059	J7_29	J7_30	120.00	200.0	125.0	0.1437	Open
P1060	J7_29	J8_29	120.00	200.0	125.0	0.0536	Open
P1061	J7_30	J7_31	120.00	250.0	130.0	0.0006	Open
P1062	J7_30	J8_30	120.00	100.0	140.0	0.1312	Open
P1063	J7_31	J7_32	120.00	150.0	135.0	0.0131	Open
P1064	J7_31	J8_31	120.00	250.0	135.0	0.1481	Open
P1065	J7_32	J7_33	120.00	300.0	140.0	0.0149	Open
P1066	J7_32	J8_32	120.00	300.0	135.0	0.1326	Open
P1067	J7_33	J7_34	120.00	150.0	130.0	0.0885	Open
P1068	J7_33	J8_33	120.00	100.0	125.0	0.0249	Open
P1069	J7_34	J7_35	120.00	200.0	125.0	0.0040	Open
P1070	J7_34	J8_34	120.00	200.0	125.0	0.1174	Open
P1071	J7_35	J7_36	120.00	150.0	125.0	0.0829	Open
P1072	J7_35	J8_35	120.00	250.0	140.0	0.0121	Open
P1073	J7_36	J7_37	120.00	250.0	130.0	0.1206	Open
P1074	J7_36	J8_36	120.00	250.0	140.0	0.0774	Open
P1075	J7_37	J7_38	120.00	300.0	125.0	0.0107	Open
P1076	J7_37	J8_37	120.00	300.0	130.0	0.0392	Open
P1077	J7_38	J7_39	120.00	100.0	140.0	0.1364	Open
P1078	J7_38	J8_38	120.00	300.0	140.0	0.0990	Open
P1079	J7_39	J7_40	120.00	150.0	135.0	0.0395	Open
P1080	J7_39	J8_39	120.00	150.0	125.0	0.0557	Open
P1081	J7_40	J7_41	120.00	100.0	140.0	0.0709	Open
P1082	J7_40	J8_40	120.00	100.0	140.0	0.0271	Open
P1083	J7_41	J7_42	120.00	200.0	140.0	0.0617	Open
P1084	J7_41	J8_41	120.00	250.0	130.0	0.0901	Open
P1085	J7_42	J7_43	120.00	200.0	130.0	0.1470	Open
P1086	J7_42	J8_42	120.00	300.0	130.0	0.1031	Open
P1087	J7_43	J7_44	120.00	300.0	135.0	0.0730	Open
P1088	J7_43	J8_43	120.00	250.0	135.0	0.0833	Open
P1089	J7_44	J7_45	120.00	200.0	130.0	0.1134	Open
P1090	J7_44	J8_44	120.00	100.0	135.0	0.0218	Open
P1091	J7_45	J7_46	120.00	250.0	125.0	0.0609	Open
P1092	J7_45	J8_45	120.00	100.0	125.0	0.1262	Open
P1093	J7_46	J7_47	120.00	300.0	130.0	0.0039	Open
P1094	J7_46	J8_46	120.00	500.0	120.0	0.0087	Open
P1095	J7_47	J7_48	120.00	100.0	130.0	0.0504	Open
P1096	J7_47	J8_47	120.00	100.0	130.0	0.0485	Open
P1097	J7_48	J7_49	120.00	200.0	130.0	0.0902	Open
P1098	J7_48	J8_48	120.00	100.0	135.0	0.0991	Open
P1099	J7_49	J7_50	120.00	300.0	135.0	0.0701	Open
P1100	J7_49	J8_49	120.00	300.0	135.0	0.0629	Open
P1101	J7_50	J7_51	120.00	150.0	125.0	0.1060	Open
P1102	J7_50	J8_50	120.00	300.0	125.0	0.1098	Open
P1103	J7_51	J7_52	120.00	250.0	130.0	0.0307	Open
P1104	J7_51	J8_51	120.00	300.0	135.0	0.0697	Open
P1105	J7_52	J7_53	120.00	150.0	140.0	0.0979	Open
P1106	J7_52	J8_52	120.00	200.0	130.0	0.1379	Open
P1107	J7_53	J7_54	120.00	250.0	125.0	0.1180	Open
P1108	J7_53	J8_53	120.00	200.0	130.0	0.1384	Open
P1109	J7_54	J7_55	120.00	200.0	135.0	0.0539	Open
P1110	J7_54	J8_54	120.00	150.0	140.0	0.0398	Open
P1111	J7_55	J7_56	120.00	400.0	130.0	0.0323	Open
P1112	J7_55	J8_55	120.00	450.0	130.0	0.0445	Open
P1113	J7_56	J7_57	120.00	150.0	135.0	0.0097	Open
P1114	J7_56	J8_56	120.00	300.0	135.0	0.0972	Open
P1115	J7_57	J7_58	120.00	300.0	130.0	0.0818	Open
P1116	J7_57	J8_57	120.00	100.0	125.0	0.0206	Open
P1117	J7_58	J7_59	120.00	100.0	125.0	0.1216	Open
P1118	J7_58	J8_58	120.00	300.0	125.0	0.0512	Open
P1119	J7_59	J7_60	120.00	100.0	140.0	0.0461	Open
P1120	J7_59	J8_59	120.00	100.0	140.0	0.0675	Open
P1121	J7_60	J7_61	120.00	300.0	140.0	0.1262	Open
P1122	J7_60	J8_60	120.00	200.0	130.0	0.0680	Open
P1123	J7_61	J7_62	120.00	150.0	135.0	0.1339	Open
P1124	J7_61	J8_61	120.00	250.0	135.0	0.0112	Open
P1125	J7_62	J7_63	120.00	150.0	135.0	0.1223	Open
P1126	J7_62	J8_62	120.00	150.0	130.0	0.1188	Open
P1127	J7_63	J7_64	120.00	200.0	135.0	0.0224	Open
P1128	J7_63	J8_63	120.00	150.0	130.0	0.0654	Open
P1129	J7_64	J7_65	120.00	450.0	120.0	0.0115	Open
P1130	J7_64	J8_64	120.00	450.0	120.0	0.0261	Open
P1131	J7_65	J7_66	120.00	100.0	140.0	0.0801	Open
P1132	J7_65	J8_65	120.00	100.0	135.0	0.1117	Open
P1133	J7_66	J7_67	120.00	250.0	140.0	0.0752	Open
P1134	J7_66	J8_66	120.00	200.0	130.0	0.0867	Open
P1135	J7_67	J7_68	120.00	250.0	140.0	0.0838	Open
P1136	J7_67	J8_67	120.00	150.0	140.0	0.0655	Open
P1137	J7_68	J7_69	120.00	300.0	135.0	0.0604	Open
P1138	J7_68	J8_68	120.00	300.0	135.0	0.0785	Open
P1139	J7_69	J7_70	120.00	100.0	140.0	0.0489	Open
P1140	J7_69	J8_69	120.00	150.0	140.0	0.1237	Open
P1141	J7_70	J7_71	120.00	250.0	135.0	0.0810	Open
P1142	J7_70	J8_70	120.00	300.0	130.0	0.0085	Open
P1143	J7_71	J7_72	120.00	200.0	125.0	0.1393	Open
P1144	J7_71	J8_71	120.00	300.0	140.0	0.0443	Open
P1145	J7_72	J7_73	120.00	300.0	135.0	0.0098	Open
P1146	J7_72	J8_72	120.00	300.0	135.0	0.1452	Open
P1147	J7_73	J7_74	120.00	450.0	120.0	0.0267	Open
P1148	J7_73	J8_73	120.00	400.0	125.0	0.0064	Open
P1149	J7_74	J7_75	120.00	100.0	140.0	0.0881	Open
P1150	J7_74	J8_74	120.00	250.0	140.0	0.1133	Open
P1151	J7_75	J7_76	120.00	250.0	125.0	0.0289	Open
P1152	J7_75	J8_75	120.00	300.0	130.0	0.0854	Open
P1153	J7_76	J7_77	120.00	150.0	135.0	0.1462	Open
P1154	J7_76	J8_76	120.00	300.0	135.0	0.0975	Open
P1155	J7_77	J7_78	120.00	300.0	135.0	0.0944	Open
P1156	J7_77	J8_77	120.00	100.0	140.0	0.0960	Open
P1157	J7_78	J7_79	120.00	200.0	140.0	0.0995	Open
P1158	J7_78	J8_78	120.00	150.0	130.0	0.0663	Open
P1159	J7_79	J7_80	120.00	200.0	125.0	0.1430	Open
P1160	J7_79	J8_79	120.00	200.0	135.0	0.0344	Open
P1161	J7_80	J7_81	120.00	300.0	130.0	0.1475	Open
P1162	J7_80	J8_80	120.00	300.0	125.0	0.0244	Open
P1163	J7_81	J7_82	120.00	300.0	130.0	0.1162	Open
P1164	J7_81	J8_81	120.00	250.0	130.0	0.0358	Open
P1165	J7_82	J7_83	120.00	450.0	120.0	0.0034	Open
P1166	J7_82	J8_82	120.00	400.0	125.0	0.0391	Open
P1167	J7_83	J7_84	120.00	250.0	135.0	0.0860	Open
P1168	J7_83	J8_83	120.00	150.0	135.0	0.0869	Open
P1169	J7_84	J8_84	120.00	300.0	130.0	0.0646	Open
P1170	J8_1	J8_2	120.00	300.0	130.0	0.0131	Open
P1171	J8_1	J9_1	120.00	500.0	120.0	0.0283	Open
P1172	J8_2	J8_3	120.00	150.0	135.0	0.1289	Open
P1173	J8_2	J9_2	120.00	250.0	135.0	0.0925	Open
P1174	J8_3	J8_4	120.00	150.0	140.0	0.0722	Open
P1175	J8_3	J9_3	120.00	100.0	125.0	0.0935	Open
P1176	J8_4	J8_5	120.00	100.0	140.0	0.1430	Open
P1177	J8_4	J9_4	120.00	100.0	125.0	0.0099	Open
P1178	J8_5	J8_6	120.00	100.0	130.0	0.0251	Open
P1179	J8_5	J9_5	120.00	300.0	130.0	0.0461	Open
P1180	J8_6	J8_7	120.00	300.0	135.0	0.1398	Open
P1181	J8_6	J9_6	120.00	250.0	140.0	0.0259	Open
P1182	J8_7	J8_8	120.00	250.0	130.0	0.0251	Open
P1183	J8_7	J9_7	120.00	250.0	135.0	0.1414	Open
P1184	J8_8	J8_9	120.00	250.0	130.0	0.0174	Open
P1185	J8_8	J9_8	120.00	200.0	130.0	0.0434	Open
P1186	J8_9	J8_10	120.00	250.0	140.0	0.0298	Open
P1187	J8_9	J9_9	120.00	100.0	135.0	0.1058	Open
P1188	J8_10	J8_11	120.00	600.0	130.0	0.0395	Open
P1189	J8_10	J9_10	120.00	300.0	125.0	0.0368	Open
P1190	J8_11	J8_12	120.00	250.0	130.0	0.1181	Open
P1191	J8_11	J9_11	120.00	150.0	135.0	0.0430	Open
P1192	J8_12	J8_13	120.00	100.0	140.0	0.1048	Open
P1193	J8_12	J9_12	120.00	200.0	125.0	0.1023	Open
P1194	J8_13	J8_14	120.00	300.0	130.0	0.1003	Open
P1195	J8_13	J9_13	120.00	150.0	130.0	0.1247	Open
P1196	J8_14	J8_15	120.00	100.0	130.0	0.0677	Open
P1197	J8_14	J9_14	120.00	300.0	125.0	0.0085	Open
P1198	J8_15	J8_16	120.00	300.0	125.0	0.0713	Open
P1199	J8_15	J9_15	120.00	150.0	130.0	0.0769	Open
P1200	J8_16	J8_17	120.00	100.0	130.0	0.1400	Open
P1201	J8_16	J9_16	120.00	150.0	140.0	0.1189	Open
P1202	J8_17	J8_18	120.00	200.0	140.0	0.0390	Open
P1203	J8_17	J9_17	120.00	200.0	135.0	0.0692	Open
P1204	J8_18	J8_19	120.00	300.0	135.0	0.1209	Open
P1205	J8_18	J9_18	120.00	150.0	130.0	0.0726	Open
P1206	J8_19	J8_20	120.00	400.0	125.0	0.0131	Open
P1207	J8_19	J9_19	120.00	450.0	120.0	0.0002	Open
P1208	J8_20	J8_21	120.00	300.0	135.0	0.1260	Open
P1209	J8_20	J9_20	120.00	250.0	125.0	0.1219	Open
P1210	J8_21	J8_22	120.00	150.0	140.0	0.0440	Open
P1211	J8_21	J9_21	120.00	150.0	125.0	0.1016	Open
P1212	J8_22	J8_23	120.00	150.0	125.0	0.1203	Open
P1213	J8_22	J9_22	120.00	250.0	125.0	0.0088	Open
P1214	J8_23	J8_24	120.00	200.0	125.0	0.1391	Open
P1215	J8_23	J9_23	120.00	150.0	130.0	0.0796	Open
P1216	J8_24	J8_25	120.00	100.0	125.0	0.0392	Open
P1217	J8_24	J9_24	120.00	200.0	125.0	0.0537	Open
P1218	J8_25	J8_26	120.00	250.0	140.0	0.1141	Open
P1219	J8_25	J9_25	120.00	100.0	135.0	0.0030	Open
P1220	J8_26	J8_27	120.00	200.0	130.0	0.0084	Open
P1221	J8_26	J9_26	120.00	100.0	135.0	0.0971	Open
P1222	J8_27	J8_28	120.00	300.0	130.0	0.0139	Open
P1223	J8_27	J9_27	120.00	150.0	135.0	0.0639	Open
P1224	J8_28	J8_29	120.00	600.0	120.0	0.0284	Open
P1225	J8_28	J9_28	120.00	500.0	130.0	0.0466	Open
P1226	J8_29	J8_30	120.00	300.0	140.0	0.1298	Open
P1227	J8_29	J9_29	120.00	200.0	140.0	0.0972	Open
P1228	J8_30	J8_31	120.00	150.0	130.0	0.1261	Open
P1229	J8_30	J9_30	120.00	150.0	135.0	0.0573	Open
P1230	J8_31	J8_32	120.00	300.0	125.0	0.0643	Open
P1231	J8_31	J9_31	120.00	300.0	135.0	0.0225	Open
P1232	J8_32	J8_33	120.00	200.0	135.0	0.0384	Open
P1233	J8_32	J9_32	120.00	150.0	135.0	0.1304	Open
P1234	J8_33	J8_34	120.00	150.0	135.0	0.0547	Open
P1235	J8_33	J9_33	120.00	200.0	125.0	0.0626	Open
P1236	J8_34	J8_35	120.00	100.0	130.0	0.0628	Open
P1237	J8_34	J9_34	120.00	200.0	135.0	0.0622	Open
P1238	J8_35	J8_36	120.00	250.0	130.0	0.0952	Open
P1239	J8_35	J9_35	120.00	300.0	140.0	0.0771	Open
P1240	J8_36	J8_37	120.00	100.0	125.0	0.0646	Open
P1241	J8_36	J9_36	120.00	100.0	130.0	0.0554	Open
P1242	J8_37	J8_38	120.00	350.0	125.0	0.0297	Open
P1243	J8_37	J9_37	120.00	300.0	125.0	0.0464	Open
P1244	J8_38	J8_39	120.00	300.0	135.0	0.0572	Open
P1245	J8_38	J9_38	120.00	150.0	125.0	0.0093	Open
P1246	J8_39	J8_40	120.00	200.0	130.0	0.0742	Open
P1247	J8_39	J9_39	120.00	200.0	130.0	0.0495	Open
P1248	J8_40	J8_41	120.00	100.0	135.0	0.1385	Open
P1249	J8_40	J9_40	120.00	250.0	130.0	0.0328	Open
P1250	J8_41	J8_42	120.00	150.0	125.0	0.1311	Open
P1251	J8_41	J9_41	120.00	200.0	135.0	0.0473	Open
P1252	J8_42	J8_43	120.00	300.0	130.0	0.0864	Open
P1253	J8_42	J9_42	120.00	200.0	140.0	0.0241	Open
P1254	J8_43	J8_44	120.00	200.0	140.0	0.0622	Open
P1255	J8_43	J9_43	120.00	300.0	125.0	0.0970	Open
P1256	J8_44	J8_45	120.00	200.0	130.0	0.1363	Open
P1257	J8_44	J9_44	120.00	200.0	125.0	0.0332	Open
P1258	J8_45	J8_46	120.00	200.0	125.0	0.0024	Open
P1259	J8_45	J9_45	120.00	100.0	125.0	0.0756	Open
P1260	J8_46	J8_47	120.00	350.0	130.0	0.0316	Open
P1261	J8_46	J9_46	120.00	300.0	120.0	0.0007	Open
P1262	J8_47	J8_48	120.00	100.0	125.0	0.0198	Open
P1263	J8_47	J9_47	120.00	200.0	140.0	0.0874	Open
P1264	J8_48	J8_49	120.00	100.0	130.0	0.0783	Open
P1265	J8_48	J9_48	120.00	100.0	125.0	0.1022	Open
P1266	J8_49	J8_50	120.00	200.0	135.0	0.0849	Open
P1267	J8_49	J9_49	120.00	200.0	125.0	0.0582	Open
P1268	J8_50	J8_51	120.00	300.0	135.0	0.0628	Open
P1269	J8_50	J9_50	120.00	150.0	125.0	0.0685	Open
P1270	J8_51	J8_52	120.00	250.0	135.0	0.0941	Open
P1271	J8_51	J9_51	120.00	300.0	130.0	0.0882	Open
P1272	J8_52	J8_53	120.00	300.0	130.0	0.0542	Open
P1273	J8_52	J9_52	120.00	200.0	130.0	0.1352	Open
P1274	J8_53	J8_54	120.00	200.0	140.0	0.0076	Open
P1275	J8_53	J9_53	120.00	200.0	140.0	0.0261	Open
P1276	J8_54	J8_55	120.00	150.0	130.0	0.1201	Open
P1277	J8_54	J9_54	120.00	300.0	140.0	0.1407	Open
P1278	J8_55	J8_56	120.00	400.0	130.0	0.0052	Open
P1279	J8_55	J9_55	120.00	350.0	120.0	0.0324	Open
P1280	J8_56	J8_57	120.00	150.0	140.0	0.1123	Open
P1281	J8_56	J9_56	120.00	100.0	135.0	0.0453	Open
P1282	J8_57	J8_58	120.00	100.0	140.0	0.1414	Open
P1283	J8_57	J9_57	120.00	300.0	140.0	0.0868	Open
P1284	J8_58	J8_59	120.00	300.0	135.0	0.1396	Open
P1285	J8_58	J9_58	120.00	150.0	125.0	0.0945	Open
P1286	J8_59	J8_60	120.00	200.0	135.0	0.0708	Open
P1287	J8_59	J9_59	120.00	250.0	135.0	0.1211	Open
P1288	J8_60	J8_61	120.00	300.0	140.0	0.0015	Open
P1289	J8_60	J9_60	120.00	250.0	125.0	0.1335	Open
P1290	J8_61	J8_62	120.00	100.0	140.0	0.1449	Open
P1291	J8_61	J9_61	120.00	300.0	135.0	0.0865	Open
P1292	J8_62	J8_63	120.00	200.0	125.0	0.0514	Open
P1293	J8_62	J9_62	120.00	150.0	140.0	0.1129	Open
P1294	J8_63	J8_64	120.00	150.0	125.0	0.0684	Open
P1295	J8_63	J9_63	120.00	200.0	130.0	0.0802	Open
P1296	J8_64	J8_65	120.00	350.0	130.0	0.0480	Open
P1297	J8_64	J9_64	120.00	300.0	125.0	0.0228	Open
P1298	J8_65	J8_66	120.00	250.0	135.0	0.0540	Open
P1299	J8_65	J9_65	120.00	100.0	125.0	0.0586	Open
P1300	J8_66	J8_67	120.00	250.0	130.0	0.0848	Open
P1301	J8_66	J9_66	120.00	150.0	125.0	0.0614	Open
P1302	J8_67	J8_68	120.00	200.0	125.0	0.0924	Open
P1303	J8_67	J9_67	120.00	100.0	135.0	0.0280	Open
P1304	J8_68	J8_69	120.00	100.0	140.0	0.0485	Open
P1305	J8_68	J9_68	120.00	200.0	130.0	0.0169	Open
P1306	J8_69	J8_70	120.00	150.0	125.0	0.0289	Open
P1307	J8_69	J9_69	120.00	250.0	130.0	0.0026	Open
P1308	J8_70	J8_71	120.00	300.0	135.0	0.0552	Open
P1309	J8_70	J9_70	120.00	100.0	130.0	0.0794	Open
P1310	J8_71	J8_72	120.00	100.0	130.0	0.1329	Open
P1311	J8_71	J9_71	120.00	200.0	140.0	0.0108	Open
P1312	J8_72	J8_73	120.00	100.0	130.0	0.1090	Open
P1313	J8_72	J9_72	120.00	300.0	130.0	0.1377	Open
P1314	J8_73	J8_74	120.00	350.0	120.0	0.0202	Open
P1315	J8_73	J9_73	120.00	600.0	120.0	0.0193	Open
P1316	J8_74	J8_75	120.00	100.0	130.0	0.1445	Open
P1317	J8_74	J9_74	120.00	100.0	125.0	0.1012	Open
P1318	J8_75	J8_76	120.00	100.0	135.0	0.0436	Open
P1319	J8_75	J9_75	120.00	300.0	130.0	0.0510	Open
P1320	J8_76	J8_77	120.00	150.0	135.0	0.0728	Open
P1321	J8_76	J9_76	120.00	100.0	125.0	0.1116	Open
P1322	J8_77	J8_78	120.00	250.0	135.0	0.0705	Open
P1323	J8_77	J9_77	120.00	100.0	130.0	0.1419	Open
P1324	J8_78	J8_79	120.00	300.0	130.0	0.0336	Open
P1325	J8_78	J9_78	120.00	200.0	130.0	0.1322	Open
P1326	J8_79	J8_80	120.00	150.0	125.0	0.0083	Open
P1327	J8_79	J9_79	120.00	200.0	140.0	0.0516	Open
P1328	J8_80	J8_81	120.00	300.0	140.0	0.0316	Open
P1329	J8_80	J9_80	120.00	100.0	140.0	0.1204	Open
P1330	J8_81	J8_82	120.00	250.0	130.0	0.0824	Open
P1331	J8_81	J9_81	120.00	300.0	140.0	0.0865	Open
P1332	J8_82	J8_83	120.00	450.0	130.0	0.0131	Open
P1333	J8_82	J9_82	120.00	600.0	130.0	0.0156	Open
P1334	J8_83	J8_84	120.00	200.0	130.0	0.0694	Open
P1335	J8_83	J9_83	120.00	200.0	130.0	0.1251	Open
P1336	J8_84	J9_84	120.00	300.0	135.0	0.0543	Open
P1337	J9_1	J9_2	120.00	600.0	130.0	0.0059	Open
P1338	J9_1	J10_1	120.00	500.0	120.0	0.0379	Open
P1339	J9_2	J9_3	120.00	250.0	130.0	0.1336	Open
P1340	J9_2	J10_2	120.00	150.0	140.0	0.1303	Open
P1341	J9_3	J9_4	120.00	250.0	125.0	0.0005	Open
P1342	J9_3	J10_3	120.00	200.0	125.0	0.0599	Open
P1343	J9_4	J9_5	120.00	200.0	140.0	0.0423	Open
P1344	J9_4	J10_4	120.00	300.0	135.0	0.1205	Open
P1345	J9_5	J9_6	120.00	300.0	135.0	0.1070	Open
P1346	J9_5	J10_5	120.00	300.0	130.0	0.1047	Open
P1347	J9_6	J9_7	120.00	200.0	130.0	0.0517	Open
P1348	J9_6	J10_6	120.00	100.0	140.0	0.0992	Open
P1349	J9_7	J9_8	120.00	150.0	125.0	0.0309	Open
P1350	J9_7	J10_7	120.00	200.0	130.0	0.1055	Open
P1351	J9_8	J9_9	120.00	250.0	130.0	0.0774	Open
P1352	J9_8	J10_8	120.00	150.0	140.0	0.0849	Open
P1353	J9_9	J9_10	120.00	100.0	140.0	0.0636	Open
P1354	J9_9	J10_9	120.00	300.0	130.0	0.0388	Open
P1355	J9_10	J9_11	120.00	600.0	125.0	0.0341	Open
P1356	J9_10	J10_10	120.00	350.0	120.0	0.0140	Open
P1357	J9_11	J9_12	120.00	250.0	130.0	0.0006	Open
P1358	J9_11	J10_11	120.00	200.0	140.0	0.1469	Open
P1359	J9_12	J9_13	120.00	200.0	140.0	0.1117	Open
P1360	J9_12	J10_12	120.00	100.0	135.0	0.0238	Open
P1361	J9_13	J9_14	120.00	150.0	125.0	0.1156	Open
P1362	J9_13	J10_13	120.00	150.0	130.0	0.0326	Open
P1363	J9_14	J9_15	120.00	100.0	125.0	0.1366	Open
P1364	J9_14	J10_14	120.00	250.0	140.0	0.0169	Open
P1365	J9_15	J9_16	120.00	100.0	130.0	0.0691	Open
P1366	J9_15	J10_15	120.00	300.0	135.0	0.0982	Open
P1367	J9_16	J9_17	120.00	300.0	135.0	0.0763	Open
P1368	J9_16	J10_16	120.00	250.0	135.0	0.1166	Open
P1369	J9_17	J9_18	120.00	150.0	130.0	0.1233	Open
P1370	J9_17	J10_17	120.00	100.0	135.0	0.0010	Open
P1371	J9_18	J9_19	120.00	100.0	140.0	0.1467	Open
P1372	J9_18	J10_18	120.00	300.0	130.0	0.1384	Open
P1373	J9_19	J9_20	120.00	500.0	120.0	0.0327	Open
P1374	J9_19	J10_19	120.00	500.0	130.0	0.0443	Open
P1375	J9_20	J9_21	120.00	200.0	140.0	0.1348	Open
P1376	J9_20	J10_20	120.00	150.0	125.0	0.1414	Open
P1377	J9_21	J9_22	120.00	100.0	130.0	0.0266	Open
P1378	J9_21	J10_21	120.00	250.0	130.0	0.0305	Open
P1379	J9_22	J9_23	120.00	200.0	140.0	0.0224	Open
P1380	J9_22	J10_22	120.00	150.0	135.0	0.0343	Open
P1381	J9_23	J9_24	120.00	100.0	125.0	0.0747	Open
P1382	J9_23	J10_23	120.00	150.0	130.0	0.0474	Open
P1383	J9_24	J9_25	120.00	200.0	125.0	0.0381	Open
P1384	J9_24	J10_24	120.00	150.0	140.0	0.0798	Open
P1385	J9_25	J9_26	120.00	100.0	130.0	0.0070	Open
P1386	J9_25	J10_25	120.00	100.0	140.0	0.0072	Open
P1387	J9_26	J9_27	120.00	200.0	135.0	0.0477	Open
P1388	J9_26	J10_26	120.00	200.0	125.0	0.0557	Open
P1389	J9_27	J9_28	120.00	300.0	135.0	0.0967	Open
P1390	J9_27	J10_27	120.00	150.0	140.0	0.0195	Open
P1391	J9_28	J9_29	120.00	300.0	125.0	0.0413	Open
P1392	J9_28	J10_28	120.00	500.0	125.0	0.0195	Open
P1393	J9_29	J9_30	120.00	300.0	130.0	0.0656	Open
P1394	J9_29	J10_29	120.00	150.0	130.0	0.0739	Open
P1395	J9_30	J9_31	120.00	300.0	140.0	0.1273	Open
P1396	J9_30	J10_30	120.00	300.0	140.0	0.0173	Open
P1397	J9_31	J9_32	120.00	250.0	125.0	0.0332	Open
P1398	J9_31	J10_31	120.00	200.0	130.0	0.1419	Open
P1399	J9_32	J9_33	120.00	250.0	125.0	0.0601	Open
P1400	J9_32	J10_32	120.00	100.0	140.0	0.0093	Open
P1401	J9_33	J9_34	120.00	150.0	125.0	0.0438	Open
P1402	J9_33	J10_33	120.00	300.0	135.0	0.0440	Open
P1403	J9_34	J9_35	120.00	200.0	130.0	0.0992	Open
P1404	J9_34	J10_34	120.00	250.0	130.0	0.0138	Open
P1405	J9_35	J9_36	120.00	150.0	125.0	0.0693	Open
P1406	J9_35	J10_35	120.00	300.0	125.0	0.1294	Open
P1407	J9_36	J9_37	120.00	150.0	130.0	0.1084	Open
P1408	J9_36	J10_36	120.00	150.0	125.0	0.0425	Open
P1409	J9_37	J9_38	120.00	350.0	125.0	0.0340	Open
P1410	J9_37	J10_37	120.00	450.0	120.0	0.0199	Open
P1411	J9_38	J9_39	120.00	150.0	135.0	0.0621	Open
P1412	J9_38	J10_38	120.00	300.0	135.0	0.1438	Open
P1413	J9_39	J9_40	120.00	150.0	140.0	0.1375	Open
P1414	J9_39	J10_39	120.00	200.0	125.0	0.0950	Open
P1415	J9_40	J9_41	120.00	150.0	140.0	0.1447	Open
P1416	J9_40	J10_40	120.00	200.0	125.0	0.0817	Open
P1417	J9_41	J9_42	120.00	150.0	135.0	0.0242	Open
P1418	J9_41	J10_41	120.00	200.0	130.0	0.0270	Open
P1419	J9_42	J9_43	120.00	250.0	135.0	0.0611	Open
P1420	J9_42	J10_42	120.00	250.0	130.0	0.1191	Open
P1421	J9_43	J9_44	120.00	100.0	130.0	0.1402	Open
P1422	J9_43	J10_43	120.00	100.0	125.0	0.0789	Open
P1423	J9_44	J9_45	120.00	100.0	135.0	0.0488	Open
P1424	J9_44	J10_44	120.00	250.0	125.0	0.1155	Open
P1425	J9_45	J9_46	120.00	200.0	125.0	0.1077	Open
P1426	J9_45	J10_45	120.00	300.0	135.0	0.1479	Open
P1427	J9_46	J9_47	120.00	500.0	130.0	0.0326	Open
P1428	J9_46	J10_46	120.00	450.0	125.0	0.0401	Open
P1429	J9_47	J9_48	120.00	250.0	125.0	0.1208	Open
P1430	J9_47	J10_47	120.00	300.0	125.0	0.0244	Open
P1431	J9_48	J9_49	120.00	300.0	130.0	0.0283	Open
P1432	J9_48	J10_48	120.00	100.0	125.0	0.0248	Open
P1433	J9_49	J9_50	120.00	250.0	135.0	0.1195	Open
P1434	J9_49	J10_49	120.00	150.0	135.0	0.0551	Open
P1435	J9_50	J9_51	120.00	100.0	135.0	0.0944	Open
P1436	J9_50	J10_50	120.00	250.0	140.0	0.0545	Open
P1437	J9_51	J9_52	120.00	300.0	140.0	0.0598	Open
P1438	J9_51	J10_51	120.00	300.0	135.0	0.0111	Open
P1439	J9_52	J9_53	120.00	200.0	140.0	0.0658	Open
P1440	J9_52	J10_52	120.00	100.0	130.0	0.1140	Open
P1441	J9_53	J9_54	120.00	300.0	140.0	0.0787	Open
P1442	J9_53	J10_53	120.00	150.0	125.0	0.0419	Open
P1443	J9_54	J9_55	120.00	150.0	135.0	0.0953	Open
P1444	J9_54	J10_54	120.00	150.0	125.0	0.0371	Open
P1445	J9_55	J9_56	120.00	350.0	125.0	0.0438	Open
P1446	J9_55	J10_55	120.00	300.0	125.0	0.0036	Open
P1447	J9_56	J9_57	120.00	250.0	140.0	0.0976	Open
P1448	J9_56	J10_56	120.00	100.0	125.0	0.1334	Open
P1449	J9_57	J9_58	120.00	200.0	140.0	0.1130	Open
P1450	J9_57	J10_57	120.00	100.0	130.0	0.0263	Open
P1451	J9_58	J9_59	120.00	250.0	135.0	0.0873	Open
P1452	J9_58	J10_58	120.00	100.0	125.0	0.0350	Open
P1453	J9_59	J9_60	120.00	150.0	125.0	0.0072	Open
P1454	J9_59	J10_59	120.00	100.0	130.0	0.0320	Open
P1455	J9_60	J9_61	120.00	100.0	130.0	0.1072	Open
P1456	J9_60	J10_60	120.00	100.0	135.0	0.0145	Open
P1457	J9_61	J9_62	120.00	150.0	135.0	0.0100	Open
P1458	J9_61	J10_61	120.00	150.0	135.0	0.0945	Open
P1459	J9_62	J9_63	120.00	150.0	140.0	0.0300	Open
P1460	J9_62	J10_62	120.00	300.0	125.0	0.0285	Open
P1461	J9_63	J9_64	120.00	200.0	130.0	0.0772	Open
P1462	J9_63	J10_63	120.00	200.0	125.0	0.0578	Open
P1463	J9_64	J9_65	120.00	450.0	130.0	0.0033	Open
P1464	J9_64	J10_64	120.00	500.0	125.0	0.0082	Open
P1465	J9_65	J9_66	120.00	300.0	130.0	0.1218	Open
P1466	J9_65	J10_65	120.00	100.0	140.0	0.1477	Open
P1467	J9_66	J9_67	120.00	100.0	130.0	0.0915	Open
P1468	J9_66	J10_66	120.00	250.0	135.0	0.0268	Open
P1469	J9_67	J9_68	120.00	200.0	130.0	0.0524	Open
P1470	J9_67	J10_67	120.00	200.0	130.0	0.0283	Open
P1471	J9_68	J9_69	120.00	100.0	130.0	0.0230	Open
P1472	J9_68	J10_68	120.00	250.0	125.0	0.0094	Open
P1473	J9_69	J9_70	120.00	300.0	140.0	0.1484	Open
P1474	J9_69	J10_69	120.00	100.0	125.0	0.0319	Open
P1475	J9_70	J9_71	120.00	150.0	130.0	0.0026	Open
P1476	J9_70	J10_70	120.00	150.0	130.0	0.0661	Open
P1477	J9_71	J9_72	120.00	300.0	135.0	0.1284	Open
P1478	J9_71	J10_71	120.00	150.0	130.0	0.1277	Open
P1479	J9_72	J9_73	120.00	300.0	130.0	0.1441	Open
P1480	J9_72	J10_72	120.00	150.0	125.0	0.0654	Open
P1481	J9_73	J9_74	120.00	300.0	125.0	0.0413	Open
P1482	J9_73	J10_73	120.00	400.0	125.0	0.0489	Open
P1483	J9_74	J9_75	120.00	200.0	130.0	0.1258	Open
P1484	J9_74	J10_74	120.00	250.0	125.0	0.0760	Open
P1485	J9_75	J9_76	120.00	150.0	140.0	0.1046	Open
P1486	J9_75	J10_75	120.00	300.0	135.0	0.1139	Open
P1487	J9_76	J9_77	120.00	200.0	125.0	0.0861	Open
P1488	J9_76	J10_76	120.00	150.0	125.0	0.0001	Open
P1489	J9_77	J9_78	120.00	100.0	135.0	0.1454	Open
P1490	J9_77	J10_77	120.00	300.0	140.0	0.0071	Open
P1491	J9_78	J9_79	120.00	200.0	125.0	0.0729	Open
P1492	J9_78	J10_78	120.00	100.0	130.0	0.1325	Open
P1493	J9_79	J9_80	120.00	200.0	125.0	0.0997	Open
P1494	J9_79	J10_79	120.00	300.0	135.0	0.0634	Open
P1495	J9_80	J9_81	120.00	200.0	135.0	0.0121	Open
P1496	J9_80	J10_80	120.00	300.0	140.0	0.0236	Open
P1497	J9_81	J9_82	120.00	300.0	130.0	0.1144	Open
P1498	J9_81	J10_81	120.00	100.0	135.0	0.0543	Open
P1499	J9_82	J9_83	120.00	400.0	125.0	0.0340	Open
P1500	J9_82	J10_82	120.00	600.0	125.0	0.0197	Open
P1501	J9_83	J9_84	120.00	100.0	135.0	0.0948	Open
P1502	J9_83	J10_83	120.00	150.0	130.0	0.0975	Open
P1503	J9_84	J10_84	120.00	250.0	125.0	0.0615	Open
P1504	J10_1	J10_2	120.00	300.0	120.0	0.0295	Open
P1505	J10_1	J11_1	120.00	500.0	130.0	0.0467	Open
P1506	J10_2	J10_3	120.00	300.0	120.0	0.0492	Open
P1507	J10_2	J11_2	120.00	300.0	120.0	0.0160	Open
P1508	J10_3	J10_4	120.00	500.0	130.0	0.0345	Open
P1509	J10_3	J11_3	120.00	400.0	120.0	0.0105	Open
P1510	J10_4	J10_5	120.00	500.0	125.0	0.0457	Open
P1511	J10_4	J11_4	120.00	450.0	125.0	0.0208	Open
P1512	J10_5	J10_6	120.00	450.0	120.0	0.0489	Open
P1513	J10_5	J11_5	120.00	300.0	125.0	0.0246	Open
P1514	J10_6	J10_7	120.00	400.0	130.0	0.0367	Open
P1515	J10_6	J11_6	120.00	600.0	120.0	0.0005	Open
P1516	J10_7	J10_8	120.00	350.0	130.0	0.0461	Open
P1517	J10_7	J11_7	120.00	350.0	130.0	0.0383	Open
P1518	J10_8	J10_9	120.00	500.0	120.0	0.0326	Open
P1519	J10_8	J11_8	120.00	600.0	125.0	0.0239	Open
P1520	J10_9	J10_10	120.00	600.0	130.0	0.0081	Open
P1521	J10_9	J11_9	120.00	300.0	120.0	0.0476	Open
P1522	J10_10	J10_11	120.00	450.0	120.0	0.0336	Open
P1523	J10_10	J11_10	120.00	300.0	120.0	0.0465	Open
P1524	J10_11	J10_12	120.00	450.0	120.0	0.0250	Open
P1525	J10_11	J11_11	120.00	600.0	125.0	0.0334	Open
P1526	J10_12	J10_13	120.00	600.0	120.0	0.0457	Open
P1527	J10_12	J11_12	120.00	300.0	125.0	0.0389	Open
P1528	J10_13	J10_14	120.00	600.0	125.0	0.0374	Open
P1529	J10_13	J11_13	120.00	450.0	120.0	0.0032	Open
P1530	J10_14	J10_15	120.00	450.0	120.0	0.0109	Open
P1531	J10_14	J11_14	120.00	500.0	125.0	0.0143	Open
P1532	J10_15	J10_16	120.00	450.0	125.0	0.0281	Open
P1533	J10_15	J11_15	120.00	450.0	130.0	0.0336	Open
P1534	J10_16	J10_17	120.00	450.0	120.0	0.0206	Open
P1535	J10_16	J11_16	120.00	500.0	125.0	0.0307	Open
P1536	J10_17	J10_18	120.00	500.0	125.0	0.0263	Open
P1537	J10_17	J11_17	120.00	400.0	130.0	0.0192	Open
P1538	J10_18	J10_19	120.00	400.0	125.0	0.0450	Open
P1539	J10_18	J11_18	120.00	500.0	125.0	0.0230	Open
P1540	J10_19	J10_20	120.00	500.0	125.0	0.0258	Open
P1541	J10_19	J11_19	120.00	500.0	130.0	0.0123	Open
P1542	J10_20	J10_21	120.00	450.0	130.0	0.0080	Open
P1543	J10_20	J11_20	120.00	500.0	130.0	0.0112	Open
P1544	J10_21	J10_22	120.00	450.0	120.0	0.0017	Open
P1545	J10_21	J11_21	120.00	400.0	120.0	0.0318	Open
P1546	J10_22	J10_23	120.00	350.0	130.0	0.0480	Open
P1547	J10_22	J11_22	120.00	300.0	130.0	0.0280	Open
P1548	J10_23	J10_24	120.00	600.0	120.0	0.0284	Open
P1549	J10_23	J11_23	120.00	600.0	125.0	0.0444	Open
P1550	J10_24	J10_25	120.00	350.0	120.0	0.0254	Open
P1551	J10_24	J11_24	120.00	450.0	120.0	0.0024	Open
P1552	J10_25	J10_26	120.00	350.0	125.0	0.0473	Open
P1553	J10_25	J11_25	120.00	450.0	125.0	0.0234	Open
P1554	J10_26	J10_27	120.00	450.0	125.0	0.0367	Open
P1555	J10_26	J11_26	120.00	600.0	120.0	0.0003	Open
P1556	J10_27	J10_28	120.00	350.0	125.0	0.0194	Open
P1557	J10_27	J11_27	120.00	500.0	130.0	0.0269	Open
P1558	J10_28	J10_29	120.00	300.0	130.0	0.0494	Open
P1559	J10_28	J11_28	120.00	300.0	130.0	0.0065	Open
P1560	J10_29	J10_30	120.00	600.0	130.0	0.0348	Open
P1561	J10_29	J11_29	120.00	600.0	120.0	0.0429	Open
P1562	J10_30	J10_31	120.00	600.0	130.0	0.0277	Open
P1563	J10_30	J11_30	120.00	400.0	130.0	0.0063	Open
P1564	J10_31	J10_32	120.00	500.0	125.0	0.0084	Open
P1565	J10_31	J11_31	120.00	500.0	130.0	0.0052	Open
P1566	J10_32	J10_33	120.00	400.0	125.0	0.0367	Open
P1567	J10_32	J11_32	120.00	300.0	120.0	0.0432	Open
P1568	J10_33	J10_34	120.00	400.0	120.0	0.0132	Open
P1569	J10_33	J11_33	120.00	450.0	125.0	0.0491	Open
P1570	J10_34	J10_35	120.00	500.0	125.0	0.0111	Open
P1571	J10_34	J11_34	120.00	400.0	130.0	0.0163	Open
P1572	J10_35	J10_36	120.00	350.0	125.0	0.0370	Open
P1573	J10_35	J11_35	120.00	350.0	125.0	0.0351	Open
P1574	J10_36	J10_37	120.00	400.0	120.0	0.0324	Open
P1575	J10_36	J11_36	120.00	450.0	125.0	0.0319	Open
P1576	J10_37	J10_38	120.00	300.0	130.0	0.0497	Open
P1577	J10_37	J11_37	120.00	600.0	125.0	0.0497	Open
P1578	J10_38	J10_39	120.00	500.0	125.0	0.0152	Open
P1579	J10_38	J11_38	120.00	500.0	120.0	0.0466	Open
P1580	J10_39	J10_40	120.00	450.0	120.0	0.0053	Open
P1581	J10_39	J11_39	120.00	350.0	130.0	0.0228	Open
P1582	J10_40	J10_41	120.00	400.0	130.0	0.0390	Open
P1583	J10_40	J11_40	120.00	500.0	125.0	0.0405	Open
P1584	J10_41	J10_42	120.00	300.0	120.0	0.0070	Open
P1585	J10_41	J11_41	120.00	350.0	120.0	0.0288	Open
P1586	J10_42	J10_43	120.00	300.0	130.0	0.0260	Open
P1587	J10_42	J11_42	120.00	300.0	120.0	0.0073	Open
P1588	J10_43	J10_44	120.00	300.0	125.0	0.0222	Open
P1589	J10_43	J11_43	120.00	350.0	125.0	0.0466	Open
P1590	J10_44	J10_45	120.00	400.0	130.0	0.0037	Open
P1591	J10_44	J11_44	120.00	300.0	120.0	0.0148	Open
P1592	J10_45	J10_46	120.00	450.0	125.0	0.0311	Open
P1593	J10_45	J11_45	120.00	400.0	120.0	0.0406	Open
P1594	J10_46	J10_47	120.00	350.0	120.0	0.0142	Open
P1595	J10_46	J11_46	120.00	450.0	130.0	0.0122	Open
P1596	J10_47	J10_48	120.00	450.0	130.0	0.0002	Open
P1597	J10_47	J11_47	120.00	350.0	125.0	0.0434	Open
P1598	J10_48	J10_49	120.00	600.0	125.0	0.0026	Open
P1599	J10_48	J11_48	120.00	400.0	120.0	0.0151	Open
P1600	J10_49	J10_50	120.00	350.0	120.0	0.0051	Open
P1601	J10_49	J11_49	120.00	400.0	125.0	0.0086	Open
P1602	J10_50	J10_51	120.00	400.0	130.0	0.0047	Open
P1603	J10_50	J11_50	120.00	500.0	130.0	0.0324	Open
P1604	J10_51	J10_52	120.00	500.0	120.0	0.0066	Open
P1605	J10_51	J11_51	120.00	500.0	130.0	0.0196	Open
P1606	J10_52	J10_53	120.00	450.0	125.0	0.0370	Open
P1607	J10_52	J11_52	120.00	350.0	120.0	0.0470	Open
P1608	J10_53	J10_54	120.00	300.0	125.0	0.0343	Open
P1609	J10_53	J11_53	120.00	350.0	130.0	0.0145	Open
P1610	J10_54	J10_55	120.00	600.0	120.0	0.0386	Open
P1611	J10_54	J11_54	120.00	500.0	120.0	0.0350	Open
P1612	J10_55	J10_56	120.00	350.0	130.0	0.0352	Open
P1613	J10_55	J11_55	120.00	500.0	130.0	0.0015	Open
P1614	J10_56	J10_57	120.00	300.0	130.0	0.0253	Open
P1615	J10_56	J11_56	120.00	400.0	130.0	0.0100	Open
P1616	J10_57	J10_58	120.00	450.0	125.0	0.0095	Open
P1617	J10_57	J11_57	120.00	350.0	125.0	0.0414	Open
P1618	J10_58	J10_59	120.00	600.0	125.0	0.0293	Open
P1619	J10_58	J11_58	120.00	350.0	120.0	0.0380	Open
P1620	J10_59	J10_60	120.00	500.0	125.0	0.0056	Open
P1621	J10_59	J11_59	120.00	350.0	120.0	0.0203	Open
P1622	J10_60	J10_61	120.00	450.0	125.0	0.0349	Open
P1623	J10_60	J11_60	120.00	350.0	120.0	0.0162	Open
P1624	J10_61	J10_62	120.00	300.0	125.0	0.0057	Open
P1625	J10_61	J11_61	120.00	350.0	120.0	0.0165	Open
P1626	J10_62	J10_63	120.00	450.0	125.0	0.0497	Open
P1627	J10_62	J11_62	120.00	400.0	120.0	0.0075	Open
P1628	J10_63	J10_64	120.00	500.0	120.0	0.0101	Open
P1629	J10_63	J11_63	120.00	350.0	130.0	0.0066	Open
P1630	J10_64	J10_65	120.00	400.0	130.0	0.0445	Open
P1631	J10_64	J11_64	120.00	350.0	120.0	0.0397	Open
P1632	J10_65	J10_66	120.00	300.0	130.0	0.0333	Open
P1633	J10_65	J11_65	120.00	400.0	125.0	0.0323	Open
P1634	J10_66	J10_67	120.00	400.0	130.0	0.0081	Open
P1635	J10_66	J11_66	120.00	500.0	130.0	0.0058	Open
P1636	J10_67	J10_68	120.00	350.0	125.0	0.0481	Open
P1637	J10_67	J11_67	120.00	400.0	130.0	0.0284	Open
P1638	J10_68	J10_69	120.00	500.0	125.0	0.0303	Open
P1639	J10_68	J11_68	120.00	600.0	120.0	0.0195	Open
P1640	J10_69	J10_70	120.00	400.0	130.0	0.0280	Open
P1641	J10_69	J11_69	120.00	400.0	125.0	0.0097	Open
P1642	J10_70	J10_71	120.00	350.0	125.0	0.0377	Open
P1643	J10_70	J11_70	120.00	400.0	125.0	0.0277	Open
P1644	J10_71	J10_72	120.00	450.0	130.0	0.0452	Open
P1645	J10_71	J11_71	120.00	500.0	125.0	0.0491	Open
P1646	J10_72	J10_73	120.00	350.0	120.0	0.0280	Open
P1647	J10_72	J11_72	120.00	300.0	125.0	0.0233	Open
P1648	J10_73	J10_74	120.00	500.0	120.0	0.0189	Open
P1649	J10_73	J11_73	120.00	400.0	130.0	0.0064	Open
P1650	J10_74	J10_75	120.00	300.0	125.0	0.0421	Open
P1651	J10_74	J11_74	120.00	300.0	130.0	0.0347	Open
P1652	J10_75	J10_76	120.00	350.0	125.0	0.0494	Open
P1653	J10_75	J11_75	120.00	300.0	120.0	0.0352	Open
P1654	J10_76	J10_77	120.00	500.0	120.0	0.0017	Open
P1655	J10_76	J11_76	120.00	500.0	120.0	0.0484	Open
P1656	J10_77	J10_78	120.00	300.0	130.0	0.0191	Open
P1657	J10_77	J11_77	120.00	600.0	130.0	0.0031	Open
P1658	J10_78	J10_79	120.00	450.0	125.0	0.0078	Open
P1659	J10_78	J11_78	120.00	400.0	125.0	0.0487	Open
P1660	J10_79	J10_80	120.00	600.0	120.0	0.0493	Open
P1661	J10_79	J11_79	120.00	400.0	125.0	0.0229	Open
P1662	J10_80	J10_81	120.00	350.0	130.0	0.0370	Open
P1663	J10_80	J11_80	120.00	350.0	130.0	0.0202	Open
P1664	J10_81	J10_82	120.00	500.0	130.0	0.0120	Open
P1665	J10_81	J11_81	120.00	400.0	130.0	0.0182	Open
P1666	J10_82	J10_83	120.00	300.0	125.0	0.0020	Open
P1667	J10_82	J11_82	120.00	400.0	120.0	0.0238	Open
P1668	J10_83	J10_84	120.00	450.0	130.0	0.0321	Open
P1669	J10_83	J11_83	120.00	350.0	130.0	0.0354	Open
P1670	J10_84	J11_84	120.00	400.0	125.0	0.0308	Open
P1671	J11_1	J11_2	120.00	450.0	120.0	0.0167	Open
P1672	J11_1	J12_1	120.00	600.0	130.0	0.0329	Open
P1673	J11_2	J11_3	120.00	250.0	130.0	0.1267	Open
P1674	J11_2	J12_2	120.00	200.0	130.0	0.0119	Open
P1675	J11_3	J11_4	120.00	100.0	130.0	0.1156	Open
P1676	J11_3	J12_3	120.00	300.0	130.0	0.1264	Open
P1677	J11_4	J11_5	120.00	200.0	135.0	0.0030	Open
P1678	J11_4	J12_4	120.00	300.0	130.0	0.0954	Open
P1679	J11_5	J11_6	120.00	200.0	140.0	0.0579	Open
P1680	J11_5	J12_5	120.00	250.0	140.0	0.0065	Open
P1681	J11_6	J11_7	120.00	300.0	125.0	0.0255	Open
P1682	J11_6	J12_6	120.00	100.0	140.0	0.0177	Open
P1683	J11_7	J11_8	120.00	150.0	130.0	0.0846	Open
P1684	J11_7	J12_7	120.00	150.0	130.0	0.1364	Open
P1685	J11_8	J11_9	120.00	250.0	140.0	0.0749	Open
P1686	J11_8	J12_8	120.00	150.0	125.0	0.1475	Open
P1687	J11_9	J11_10	120.00	250.0	135.0	0.1147	Open
P1688	J11_9	J12_9	120.00	100.0	125.0	0.1357	Open
P1689	J11_10	J11_11	120.00	350.0	120.0	0.0276	Open
P1690	J11_10	J12_10	120.00	300.0	125.0	0.0189	Open
P1691	J11_11	J11_12	120.00	100.0	135.0	0.1258	Open
P1692	J11_11	J12_11	120.00	150.0	125.0	0.0527	Open
P1693	J11_12	J11_13	120.00	100.0	130.0	0.1234	Open
P1694	J11_12	J12_12	120.00	150.0	130.0	0.1118	Open
P1695	J11_13	J11_14	120.00	300.0	130.0	0.0868	Open
P1696	J11_13	J12_13	120.00	250.0	135.0	0.0426	Open
P1697	J11_14	J11_15	120.00	200.0	130.0	0.0803	Open
P1698	J11_14	J12_14	120.00	100.0	125.0	0.0566	Open
P1699	J11_15	J11_16	120.00	250.0	135.0	0.1075	Open
P1700	J11_15	J12_15	120.00	300.0	140.0	0.0655	Open
P1701	J11_16	J11_17	120.00	150.0	140.0	0.1236	Open
P1702	J11_16	J12_16	120.00	150.0	140.0	0.1199	Open
P1703	J11_17	J11_18	120.00	100.0	130.0	0.0302	Open
P1704	J11_17	J12_17	120.00	250.0	135.0	0.1053	Open
P1705	J11_18	J11_19	120.00	100.0	135.0	0.0681	Open
P1706	J11_18	J12_18	120.00	150.0	125.0	0.0998	Open
P1707	J11_19	J11_20	120.00	400.0	125.0	0.0280	Open
P1708	J11_19	J12_19	120.00	400.0	120.0	0.0124	Open
P1709	J11_20	J11_21	120.00	250.0	130.0	0.0056	Open
P1710	J11_20	J12_20	120.00	200.0	140.0	0.0763	Open
P1711	J11_21	J11_22	120.00	300.0	130.0	0.0437	Open
P1712	J11_21	J12_21	120.00	150.0	135.0	0.0686	Open
P1713	J11_22	J11_23	120.00	200.0	125.0	0.1126	Open
P1714	J11_22	J12_22	120.00	250.0	135.0	0.1229	Open
P1715	J11_23	J11_24	120.00	150.0	140.0	0.1321	Open
P1716	J11_23	J12_23	120.00	100.0	135.0	0.1071	Open
P1717	J11_24	J11_25	120.00	200.0	140.0	0.0466	Open
P1718	J11_24	J12_24	120.00	100.0	125.0	0.1499	Open
P1719	J11_25	J11_26	120.00	150.0	135.0	0.0816	Open
P1720	J11_25	J12_25	120.00	300.0	125.0	0.1207	Open
P1721	J11_26	J11_27	120.00	150.0	140.0	0.0289	Open
P1722	J11_26	J12_26	120.00	200.0	130.0	0.0904	Open
P1723	J11_27	J11_28	120.00	250.0	130.0	0.1064	Open
P1724	J11_27	J12_27	120.00	300.0	130.0	0.0509	Open
P1725	J11_28	J11_29	120.00	600.0	125.0	0.0028	Open
P1726	J11_28	J12_28	120.00	600.0	130.0	0.0102	Open
P1727	J11_29	J11_30	120.00	200.0	135.0	0.1385	Open
P1728	J11_29	J12_29	120.00	200.0	125.0	0.0110	Open
P1729	J11_30	J11_31	120.00	250.0	130.0	0.1096	Open
P1730	J11_30	J12_30	120.00	150.0	135.0	0.1273	Open
P1731	J11_31	J11_32	120.00	200.0	135.0	0.0957	Open
P1732	J11_31	J12_31	120.00	300.0	140.0	0.1320	Open
P1733	J11_32	J11_33	120.00	250.0	135.0	0.0096	Open
P1734	J11_32	J12_32	120.00	100.0	130.0	0.1336	Open
P1735	J11_33	J11_34	120.00	300.0	140.0	0.1387	Open
P1736	J11_33	J12_33	120.00	250.0	140.0	0.1386	Open
P1737	J11_34	J11_35	120.00	250.0	135.0	0.1414	Open
P1738	J11_34	J12_34	120.00	100.0	140.0	0.0938	Open
P1739	J11_35	J11_36	120.00	100.0	135.0	0.0292	Open
P1740	J11_35	J12_35	120.00	200.0	140.0	0.0189	Open
P1741	J11_36	J11_37	120.00	200.0	125.0	0.0325	Open
P1742	J11_36	J12_36	120.00	250.0	135.0	0.1101	Open
P1743	J11_37	J11_38	120.00	300.0	130.0	0.0373	Open
P1744	J11_37	J12_37	120.00	500.0	120.0	0.0139	Open
P1745	J11_38	J11_39	120.00	200.0	125.0	0.1315	Open
P1746	J11_38	J12_38	120.00	300.0	130.0	0.0549	Open
P1747	J11_39	J11_40	120.00	250.0	140.0	0.1033	Open
P1748	J11_39	J12_39	120.00	150.0	130.0	0.0305	Open
P1749	J11_40	J11_41	120.00	300.0	130.0	0.1171	Open
P1750	J11_40	J12_40	120.00	200.0	135.0	0.0710	Open
P1751	J11_41	J11_42	120.00	300.0	125.0	0.1061	Open
P1752	J11_41	J12_41	120.00	200.0	135.0	0.1217	Open
P1753	J11_42	J11_43	120.00	250.0	140.0	0.1398	Open
P1754	J11_42	J12_42	120.00	150.0	125.0	0.0348	Open
P1755	J11_43	J11_44	120.00	150.0	140.0	0.0837	Open
P1756	J11_43	J12_43	120.00	100.0	140.0	0.0090	Open
P1757	J11_44	J11_45	120.00	100.0	135.0	0.1497	Open
P1758	J11_44	J12_44	120.00	150.0	140.0	0.0711	Open
P1759	J11_45	J11_46	120.00	100.0	125.0	0.0318	Open
P1760	J11_45	J12_45	120.00	100.0	130.0	0.0992	Open
P1761	J11_46	J11_47	120.00	500.0	130.0	0.0476	Open
P1762	J11_46	J12_46	120.00	500.0	125.0	0.0080	Open
P1763	J11_47	J11_48	120.00	100.0	135.0	0.1202	Open
P1764	J11_47	J12_47	120.00	200.0	130.0	0.0356	Open
P1765	J11_48	J11_49	120.00	200.0	125.0	0.1452	Open
P1766	J11_48	J12_48	120.00	150.0	140.0	0.0310	Open
P1767	J11_49	J11_50	120.00	100.0	125.0	0.1311	Open
P1768	J11_49	J12_49	120.00	250.0	125.0	0.0767	Open
P1769	J11_50	J11_51	120.00	100.0	135.0	0.1362	Open
P1770	J11_50	J12_50	120.00	250.0	125.0	0.0818	Open
P1771	J11_51	J11_52	120.00	100.0	140.0	0.0335	Open
P1772	J11_51	J12_51	120.00	250.0	135.0	0.1097	Open
P1773	J11_52	J11_53	120.00	150.0	125.0	0.0011	Open
P1774	J11_52	J12_52	120.00	100.0	140.0	0.0462	Open
P1775	J11_53	J11_54	120.00	250.0	125.0	0.0797	Open
P1776	J11_53	J12_53	120.00	200.0	135.0	0.1282	Open
P1777	J11_54	J11_55	120.00	150.0	135.0	0.0532	Open
P1778	J11_54	J12_54	120.00	150.0	130.0	0.1348	Open
P1779	J11_55	J11_56	120.00	600.0	130.0	0.0376	Open
P1780	J11_55	J12_55	120.00	400.0	125.0	0.0098	Open
P1781	J11_56	J11_57	120.00	150.0	135.0	0.0692	Open
P1782	J11_56	J12_56	120.00	150.0	140.0	0.0314	Open
P1783	J11_57	J11_58	120.00	100.0	140.0	0.0106	Open
P1784	J11_57	J12_57	120.00	150.0	130.0	0.1007	Open
P1785	J11_58	J11_59	120.00	250.0	125.0	0.0613	Open
P1786	J11_58	J12_58	120.00	300.0	140.0	0.1465	Open
P1787	J11_59	J11_60	120.00	250.0	135.0	0.0170	Open
P1788	J11_59	J12_59	120.00	100.0	140.0	0.1137	Open
P1789	J11_60	J11_61	120.00	100.0	135.0	0.0209	Open
P1790	J11_60	J12_60	120.00	150.0	140.0	0.0233	Open
P1791	J11_61	J11_62	120.00	300.0	140.0	0.0399	Open
P1792	J11_61	J12_61	120.00	100.0	140.0	0.1038	Open
P1793	J11_62	J11_63	120.00	200.0	130.0	0.0984	Open
P1794	J11_62	J12_62	120.00	150.0	135.0	0.0691	Open
P1795	J11_63	J11_64	120.00	300.0	135.0	0.0174	Open
P1796	J11_63	J12_63	120.00	250.0	125.0	0.0831	Open
P1797	J11_64	J11_65	120.00	500.0	120.0	0.0072	Open
P1798	J11_64	J12_64	120.00	450.0	125.0	0.0144	Open
P1799	J11_65	J11_66	120.00	300.0	135.0	0.0874	Open
P1800	J11_65	J12_65	120.00	200.0	140.0	0.1343	Open
P1801	J11_66	J11_67	120.00	150.0	130.0	0.1023	Open
P1802	J11_66	J12_66	120.00	300.0	125.0	0.0005	Open
P1803	J11_67	J11_68	120.00	100.0	140.0	0.0239	Open
P1804	J11_67	J12_67	120.00	200.0	135.0	0.1470	Open
P1805	J11_68	J11_69	120.00	250.0	125.0	0.0602	Open
P1806	J11_68	J12_68	120.00	200.0	140.0	0.1184	Open
P1807	J11_69	J11_70	120.00	250.0	140.0	0.0209	Open
P1808	J11_69	J12_69	120.00	100.0	130.0	0.0875	Open
P1809	J11_70	J11_71	120.00	200.0	140.0	0.1230	Open
P1810	J11_70	J12_70	120.00	150.0	135.0	0.0534	Open
P1811	J11_71	J11_72	120.00	200.0	130.0	0.0116	Open
P1812	J11_71	J12_71	120.00	250.0	135.0	0.1247	Open
P1813	J11_72	J11_73	120.00	150.0	130.0	0.1331	Open
P1814	J11_72	J12_72	120.00	200.0	135.0	0.0933	Open
P1815	J11_73	J11_74	120.00	600.0	120.0	0.0153	Open
P1816	J11_73	J12_73	120.00	600.0	130.0	0.0121	Open
P1817	J11_74	J11_75	120.00	100.0	135.0	0.0552	Open
P1818	J11_74	J12_74	120.00	200.0	140.0	0.0195	Open
P1819	J11_75	J11_76	120.00	100.0	140.0	0.1346	Open
P1820	J11_75	J12_75	120.00	150.0	125.0	0.0176	Open
P1821	J11_76	J11_77	120.00	200.0	140.0	0.1345	Open
P1822	J11_76	J12_76	120.00	300.0	125.0	0.0031	Open
P1823	J11_77	J11_78	120.00	100.0	130.0	0.0252	Open
P1824	J11_77	J12_77	120.00	250.0	135.0	0.1095	Open
P1825	J11_78	J11_79	120.00	200.0	135.0	0.1000	Open
P1826	J11_78	J12_78	120.00	300.0	140.0	0.1320	Open
P1827	J11_79	J11_80	120.00	250.0	130.0	0.1230	Open
P1828	J11_79	J12_79	120.00	300.0	135.0	0.0263	Open
P1829	J11_80	J11_81	120.00	250.0	125.0	0.1009	Open
P1830	J11_80	J12_80	120.00	300.0	135.0	0.0398	Open
P1831	J11_81	J11_82	120.00	300.0	125.0	0.1366	Open
P1832	J11_81	J12_81	120.00	250.0	135.0	0.1292	Open
P1833	J11_82	J11_83	120.00	600.0	130.0	0.0343	Open
P1834	J11_82	J12_82	120.00	350.0	120.0	0.0414	Open
P1835	J11_83	J11_84	120.00	100.0	125.0	0.0531	Open
P1836	J11_83	J12_83	120.00	200.0	125.0	0.0328	Open
P1837	J11_84	J12_84	120.00	250.0	140.0	0.0175	Open
P1838	J12_1	J12_2	120.00	500.0	130.0	0.0136	Open
P1839	J12_1	J13_1	120.00	400.0	125.0	0.0292	Open
P1840	J12_2	J12_3	120.00	150.0	140.0	0.1112	Open
P1841	J12_2	J13_2	120.00	150.0	125.0	0.0616	Open
P1842	J12_3	J12_4	120.00	100.0	140.0	0.0330	Open
P1843	J12_3	J13_3	120.00	200.0	130.0	0.0199	Open
P1844	J12_4	J12_5	120.00	100.0	125.0	0.1144	Open
P1845	J12_4	J13_4	120.00	200.0	130.0	0.0893	Open
P1846	J12_5	J12_6	120.00	100.0	130.0	0.1102	Open
P1847	J12_5	J13_5	120.00	300.0	125.0	0.1208	Open
P1848	J12_6	J12_7	120.00	150.0	130.0	0.1317	Open
P1849	J12_6	J13_6	120.00	200.0	140.0	0.1459	Open
P1850	J12_7	J12_8	120.00	300.0	125.0	0.0091	Open
P1851	J12_7	J13_7	120.00	200.0	135.0	0.1297	Open
P1852	J12_8	J12_9	120.00	100.0	140.0	0.1383	Open
P1853	J12_8	J13_8	120.00	150.0	125.0	0.1473	Open
P1854	J12_9	J12_10	120.00	150.0	130.0	0.1482	Open
P1855	J12_9	J13_9	120.00	250.0	125.0	0.1256	Open
P1856	J12_10	J12_11	120.00	350.0	130.0	0.0317	Open
P1857	J12_10	J13_10	120.00	500.0	125.0	0.0119	Open
P1858	J12_11	J12_12	120.00	300.0	130.0	0.1186	Open
P1859	J12_11	J13_11	120.00	250.0	140.0	0.1096	Open
P1860	J12_12	J12_13	120.00	100.0	135.0	0.0772	Open
P1861	J12_12	J13_12	120.00	300.0	130.0	0.0252	Open
P1862	J12_13	J12_14	120.00	100.0	125.0	0.1052	Open
P1863	J12_13	J13_13	120.00	250.0	125.0	0.0124	Open
P1864	J12_14	J12_15	120.00	200.0	125.0	0.1083	Open
P1865	J12_14	J13_14	120.00	200.0	130.0	0.0778	Open
P1866	J12_15	J12_16	120.00	200.0	135.0	0.0929	Open
P1867	J12_15	J13_15	120.00	250.0	140.0	0.0181	Open
P1868	J12_16	J12_17	120.00	250.0	140.0	0.0672	Open
P1869	J12_16	J13_16	120.00	200.0	125.0	0.1280	Open
P1870	J12_17	J12_18	120.00	200.0	125.0	0.0657	Open
P1871	J12_17	J13_17	120.00	100.0	135.0	0.1339	Open
P1872	J12_18	J12_19	120.00	100.0	135.0	0.0461	Open
P1873	J12_18	J13_18	120.00	150.0	130.0	0.0782	Open
P1874	J12_19	J12_20	120.00	400.0	125.0	0.0489	Open
P1875	J12_19	J13_19	120.00	450.0	125.0	0.0373	Open
P1876	J12_20	J12_21	120.00	150.0	135.0	0.1307	Open
P1877	J12_20	J13_20	120.00	300.0	140.0	0.0507	Open
P1878	J12_21	J12_22	120.00	300.0	140.0	0.0385	Open
P1879	J12_21	J13_21	120.00	200.0	125.0	0.1328	Open
P1880	J12_22	J12_23	120.00	150.0	130.0	0.0772	Open
P1881	J12_22	J13_22	120.00	250.0	130.0	0.0784	Open
P1882	J12_23	J12_24	120.00	300.0	130.0	0.0185	Open
P1883	J12_23	J13_23	120.00	300.0	135.0	0.1487	Open
P1884	J12_24	J12_25	120.00	150.0	130.0	0.1154	Open
P1885	J12_24	J13_24	120.00	250.0	140.0	0.0737	Open
P1886	J12_25	J12_26	120.00	300.0	125.0	0.0884	Open
P1887	J12_25	J13_25	120.00	200.0	125.0	0.0223	Open
P1888	J12_26	J12_27	120.00	150.0	135.0	0.1257	Open
P1889	J12_26	J13_26	120.00	200.0	130.0	0.0011	Open
P1890	J12_27	J12_28	120.00	300.0	130.0	0.0710	Open
P1891	J12_27	J13_27	120.00	200.0	135.0	0.1363	Open
P1892	J12_28	J12_29	120.00	500.0	125.0	0.0459	Open
P1893	J12_28	J13_28	120.00	450.0	125.0	0.0233	Open
P1894	J12_29	J12_30	120.00	250.0	135.0	0.0093	Open
P1895	J12_29	J13_29	120.00	100.0	125.0	0.0146	Open
P1896	J12_30	J12_31	120.00	300.0	135.0	0.0208	Open
P1897	J12_30	J13_30	120.00	150.0	125.0	0.0948	Open
P1898	J12_31	J12_32	120.00	150.0	130.0	0.1397	Open
P1899	J12_31	J13_31	120.00	250.0	130.0	0.0158	Open
P1900	J12_32	J12_33	120.00	100.0	140.0	0.0504	Open
P1901	J12_32	J13_32	120.00	300.0	135.0	0.0841	Open
P1902	J12_33	J12_34	120.00	150.0	135.0	0.0616	Open
P1903	J12_33	J13_33	120.00	300.0	125.0	0.1043	Open
P1904	J12_34	J12_35	120.00	200.0	125.0	0.1160	Open
P1905	J12_34	J13_34	120.00	150.0	130.0	0.0712	Open
P1906	J12_35	J12_36	120.00	250.0	130.0	0.0791	Open
P1907	J12_35	J13_35	120.00	200.0	130.0	0.0356	Open
P1908	J12_36	J12_37	120.00	200.0	135.0	0.0154	Open
P1909	J12_36	J13_36	120.00	200.0	125.0	0.0655	Open
P1910	J12_37	J12_38	120.00	600.0	125.0	0.0242	Open
P1911	J12_37	J13_37	120.00	450.0	130.0	0.0412	Open
P1912	J12_38	J12_39	120.00	100.0	125.0	0.0866	Open
P1913	J12_38	J13_38	120.00	250.0	130.0	0.0265	Open
P1914	J12_39	J12_40	120.00	300.0	135.0	0.0014	Open
P1915	J12_39	J13_39	120.00	300.0	140.0	0.0895	Open
P1916	J12_40	J12_41	120.00	150.0	140.0	0.1359	Open
P1917	J12_40	J13_40	120.00	100.0	130.0	0.0636	Open
P1918	J12_41	J12_42	120.00	100.0	130.0	0.0409	Open
P1919	J12_41	J13_41	120.00	300.0	135.0	0.0233	Open
P1920	J12_42	J12_43	120.00	200.0	125.0	0.0292	Open
P1921	J12_42	J13_42	120.00	100.0	140.0	0.0903	Open
P1922	J12_43	J12_44	120.00	150.0	135.0	0.0256	Open
P1923	J12_43	J13_43	120.00	300.0	135.0	0.0272	Open
P1924	J12_44	J12_45	120.00	150.0	125.0	0.0966	Open
P1925	J12_44	J13_44	120.00	200.0	135.0	0.1022	Open
P1926	J12_45	J12_46	120.00	100.0	130.0	0.0881	Open
P1927	J12_45	J13_45	120.00	250.0	125.0	0.0631	Open
P1928	J12_46	J12_47	120.00	300.0	125.0	0.0038	Open
P1929	J12_46	J13_46	120.00	600.0	120.0	0.0206	Open
P1930	J12_47	J12_48	120.00	100.0	130.0	0.0457	Open
P1931	J12_47	J13_47	120.00	200.0	140.0	0.0570	Open
P1932	J12_48	J12_49	120.00	250.0	130.0	0.1189	Open
P1933	J12_48	J13_48	120.00	200.0	135.0	0.0501	Open
P1934	J12_49	J12_50	120.00	300.0	135.0	0.0810	Open
P1935	J12_49	J13_49	120.00	100.0	125.0	0.0212	Open
P1936	J12_50	J12_51	120.00	100.0	140.0	0.0209	Open
P1937	J12_50	J13_50	120.00	100.0	140.0	0.0385	Open
P1938	J12_51	J12_52	120.00	200.0	135.0	0.1172	Open
P1939	J12_51	J13_51	120.00	100.0	140.0	0.1247	Open
P1940	J12_52	J12_53	120.00	300.0	125.0	0.1172	Open
P1941	J12_52	J13_52	120.00	100.0	130.0	0.1391	Open
P1942	J12_53	J12_54	120.00	100.0	140.0	0.1335	Open
P1943	J12_53	J13_53	120.00	250.0	135.0	0.0819	Open
P1944	J12_54	J12_55	120.00	250.0	140.0	0.1054	Open
P1945	J12_54	J13_54	120.00	200.0	125.0	0.0118	Open
P1946	J12_55	J12_56	120.00	300.0	120.0	0.0201	Open
P1947	J12_55	J13_55	120.00	350.0	130.0	0.0132	Open
P1948	J12_56	J12_57	120.00	100.0	125.0	0.1412	Open
P1949	J12_56	J13_56	120.00	250.0	125.0	0.0469	Open
P1950	J12_57	J12_58	120.00	150.0	135.0	0.0947	Open
P1951	J12_57	J13_57	120.00	100.0	130.0	0.0183	Open
P1952	J12_58	J12_59	120.00	100.0	140.0	0.0541	Open
P1953	J12_58	J13_58	120.00	250.0	135.0	0.1259	Open
P1954	J12_59	J12_60	120.00	150.0	125.0	0.1224	Open
P1955	J12_59	J13_59	120.00	150.0	125.0	0.1137	Open
P1956	J12_60	J12_61	120.00	100.0	135.0	0.1042	Open
P1957	J12_60	J13_60	120.00	250.0	130.0	0.0940	Open
P1958	J12_61	J12_62	120.00	300.0	130.0	0.0868	Open
P1959	J12_61	J13_61	120.00	100.0	135.0	0.0523	Open
P1960	J12_62	J12_63	120.00	150.0	125.0	0.0455	Open
P1961	J12_62	J13_62	120.00	250.0	130.0	0.0045	Open
P1962	J12_63	J12_64	120.00	200.0	130.0	0.0942	Open
P1963	J12_63	J13_63	120.00	250.0	135.0	0.0452	Open
P1964	J12_64	J12_65	120.00	600.0	120.0	0.0086	Open
P1965	J12_64	J13_64	120.00	350.0	130.0	0.0468	Open
P1966	J12_65	J12_66	120.00	100.0	130.0	0.0320	Open
P1967	J12_65	J13_65	120.00	300.0	140.0	0.0050	Open
P1968	J12_66	J12_67	120.00	150.0	135.0	0.0974	Open
P1969	J12_66	J13_66	120.00	150.0	135.0	0.0939	Open
P1970	J12_67	J12_68	120.00	200.0	125.0	0.1127	Open
P1971	J12_67	J13_67	120.00	300.0	140.0	0.0766	Open
P1972	J12_68	J12_69	120.00	100.0	135.0	0.1356	Open
P1973	J12_68	J13_68	120.00	300.0	125.0	0.0575	Open
P1974	J12_69	J12_70	120.00	100.0	125.0	0.1443	Open
P1975	J12_69	J13_69	120.00	100.0	140.0	0.0341	Open
P1976	J12_70	J12_71	120.00	150.0	140.0	0.1429	Open
P1977	J12_70	J13_70	120.00	200.0	135.0	0.0836	Open
P1978	J12_71	J12_72	120.00	300.0	130.0	0.0191	Open
P1979	J12_71	J13_71	120.00	100.0	140.0	0.0196	Open
P1980	J12_72	J12_73	120.00	250.0	140.0	0.0723	Open
P1981	J12_72	J13_72	120.00	150.0	125.0	0.0875	Open
P1982	J12_73	J12_74	120.00	450.0	125.0	0.0435	Open
P1983	J12_73	J13_73	120.00	400.0	130.0	0.0476	Open
P1984	J12_74	J12_75	120.00	100.0	135.0	0.0074	Open
P1985	J12_74	J13_74	120.00	200.0	135.0	0.0263	Open
P1986	J12_75	J12_76	120.00	250.0	135.0	0.0434	Open
P1987	J12_75	J13_75	120.00	300.0	130.0	0.0365	Open
P1988	J12_76	J12_77	120.00	100.0	140.0	0.1249	Open
P1989	J12_76	J13_76	120.00	100.0	135.0	0.1007	Open
P1990	J12_77	J12_78	120.00	100.0	140.0	0.0076	Open
P1991	J12_77	J13_77	120.00	300.0	125.0	0.0468	Open
P1992	J12_78	J12_79	120.00	300.0	135.0	0.1330	Open
P1993	J12_78	J13_78	120.00	250.0	130.0	0.0648	Open
P1994	J12_79	J12_80	120.00	100.0	135.0	0.0640	Open
P1995	J12_79	J13_79	120.00	150.0	130.0	0.1044	Open
P1996	J12_80	J12_81	120.00	150.0	140.0	0.0939	Open
P1997	J12_80	J13_80	120.00	200.0	135.0	0.0811	Open
P1998	J12_81	J12_82	120.00	150.0	125.0	0.1014	Open
P1999	J12_81	J13_81	120.00	100.0	125.0	0.1210	Open
P2000	J12_82	J12_83	120.00	400.0	125.0	0.0212	Open
P2001	J12_82	J13_82	120.00	450.0	120.0	0.0402	Open
P2002	J12_83	J12_84	120.00	250.0	125.0	0.0209	Open
P2003	J12_83	J13_83	120.00	200.0	130.0	0.1028	Open
P2004	J12_84	J13_84	120.00	200.0	130.0	0.0112	Open
P2005	J13_1	J13_2	120.00	400.0	125.0	0.0280	Open
P2006	J13_1	J14_1	120.00	600.0	130.0	0.0229	Open
P2007	J13_2	J13_3	120.00	150.0	130.0	0.1433	Open
P2008	J13_2	J14_2	120.00	200.0	135.0	0.0716	Open
P2009	J13_3	J13_4	120.00	200.0	125.0	0.0251	Open
P2010	J13_3	J14_3	120.00	300.0	130.0	0.0189	Open
P2011	J13_4	J13_5	120.00	250.0	125.0	0.0748	Open
P2012	J13_4	J14_4	120.00	100.0	140.0	0.0905	Open
P2013	J13_5	J13_6	120.00	200.0	135.0	0.0127	Open
P2014	J13_5	J14_5	120.00	200.0	135.0	0.0693	Open
P2015	J13_6	J13_7	120.00	100.0	130.0	0.0521	Open
P2016	J13_6	J14_6	120.00	300.0	130.0	0.1178	Open
P2017	J13_7	J13_8	120.00	300.0	125.0	0.0890	Open
P2018	J13_7	J14_7	120.00	250.0	130.0	0.1116	Open
P2019	J13_8	J13_9	120.00	250.0	135.0	0.1312	Open
P2020	J13_8	J14_8	120.00	200.0	135.0	0.0455	Open
P2021	J13_9	J13_10	120.00	250.0	135.0	0.1290	Open
P2022	J13_9	J14_9	120.00	150.0	135.0	0.1346	Open
P2023	J13_10	J13_11	120.00	450.0	120.0	0.0205	Open
P2024	J13_10	J14_10	120.00	500.0	120.0	0.0354	Open
P2025	J13_11	J13_12	120.00	300.0	140.0	0.0681	Open
P2026	J13_11	J14_11	120.00	250.0	125.0	0.0935	Open
P2027	J13_12	J13_13	120.00	150.0	135.0	0.0774	Open
P2028	J13_12	J14_12	120.00	300.0	130.0	0.0117	Open
P2029	J13_13	J13_14	120.00	100.0	125.0	0.0702	Open
P2030	J13_13	J14_13	120.00	250.0	130.0	0.0284	Open
P2031	J13_14	J13_15	120.00	300.0	125.0	0.1491	Open
P2032	J13_14	J14_14	120.00	150.0	135.0	0.1270	Open
P2033	J13_15	J13_16	120.00	200.0	135.0	0.0112	Open
P2034	J13_15	J14_15	120.00	200.0	140.0	0.0349	Open
P2035	J13_16	J13_17	120.00	300.0	135.0	0.1202	Open
P2036	J13_16	J14_16	120.00	200.0	125.0	0.0863	Open
P2037	J13_17	J13_18	120.00	100.0	140.0	0.0122	Open
P2038	J13_17	J14_17	120.00	100.0	135.0	0.0828	Open
P2039	J13_18	J13_19	120.00	200.0	125.0	0.0829	Open
P2040	J13_18	J14_18	120.00	150.0	125.0	0.0239	Open
P2041	J13_19	J13_20	120.00	450.0	130.0	0.0238	Open
P2042	J13_19	J14_19	120.00	600.0	125.0	0.0058	Open
P2043	J13_20	J13_21	120.00	300.0	125.0	0.1485	Open
P2044	J13_20	J14_20	120.00	250.0	125.0	0.0619	Open
P2045	J13_21	J13_22	120.00	300.0	125.0	0.1277	Open
P2046	J13_21	J14_21	120.00	250.0	130.0	0.0803	Open
P2047	J13_22	J13_23	120.00	250.0	135.0	0.1485	Open
P2048	J13_22	J14_22	120.00	200.0	140.0	0.0360	Open
P2049	J13_23	J13_24	120.00	300.0	125.0	0.1314	Open
P2050	J13_23	J14_23	120.00	100.0	140.0	0.0800	Open
P2051	J13_24	J13_25	120.00	200.0	130.0	0.0882	Open
P2052	J13_24	J14_24	120.00	250.0	125.0	0.1343	Open
P2053	J13_25	J13_26	120.00	150.0	130.0	0.0287	Open
P2054	J13_25	J14_25	120.00	250.0	135.0	0.1380	Open
P2055	J13_26	J13_27	120.00	250.0	140.0	0.0013	Open
P2056	J13_26	J14_26	120.00	250.0	130.0	0.0624	Open
P2057	J13_27	J13_28	120.00	150.0	125.0	0.0916	Open
P2058	J13_27	J14_27	120.00	250.0	140.0	0.0853	Open
P2059	J13_28	J13_29	120.00	500.0	120.0	0.0344	Open
P2060	J13_28	J14_28	120.00	500.0	120.0	0.0119	Open
P2061	J13_29	J13_30	120.00	150.0	125.0	0.1384	Open
P2062	J13_29	J14_29	120.00	100.0	130.0	0.0082	Open
P2063	J13_30	J13_31	120.00	100.0	135.0	0.0205	Open
P2064	J13_30	J14_30	120.00	150.0	135.0	0.0917	Open
P2065	J13_31	J13_32	120.00	300.0	130.0	0.1182	Open
P2066	J13_31	J14_31	120.00	200.0	135.0	0.0862	Open
P2067	J13_32	J13_33	120.00	100.0	125.0	0.0985	Open
P2068	J13_32	J14_32	120.00	250.0	135.0	0.1300	Open
P2069	J13_33	J13_34	120.00	250.0	125.0	0.0208	Open
P2070	J13_33	J14_33	120.00	250.0	125.0	0.0240	Open
P2071	J13_34	J13_35	120.00	200.0	125.0	0.0558	Open
P2072	J13_34	J14_34	120.00	200.0	140.0	0.0759	Open
P2073	J13_35	J13_36	120.00	300.0	130.0	0.0350	Open
P2074	J13_35	J14_35	120.00	250.0	135.0	0.0296	Open
P2075	J13_36	J13_37	120.00	250.0	130.0	0.0722	Open
P2076	J13_36	J14_36	120.00	150.0	125.0	0.1245	Open
P2077	J13_37	J13_38	120.00	300.0	120.0	0.0495	Open
P2078	J13_37	J14_37	120.00	350.0	130.0	0.0114	Open
P2079	J13_38	J13_39	120.00	300.0	135.0	0.1039	Open
P2080	J13_38	J14_38	120.00	100.0	130.0	0.1333	Open
P2081	J13_39	J13_40	120.00	200.0	130.0	0.1160	Open
P2082	J13_39	J14_39	120.00	150.0	125.0	0.1072	Open
P2083	J13_40	J13_41	120.00	150.0	140.0	0.1002	Open
P2084	J13_40	J14_40	120.00	200.0	135.0	0.1252	Open
P2085	J13_41	J13_42	120.00	100.0	125.0	0.1360	Open
P2086	J13_41	J14_41	120.00	100.0	125.0	0.0386	Open
P2087	J13_42	J13_43	120.00	150.0	125.0	0.1140	Open
P2088	J13_42	J14_42	120.00	250.0	130.0	0.0163	Open
P2089	J13_43	J13_44	120.00	250.0	140.0	0.1389	Open
P2090	J13_43	J14_43	120.00	300.0	135.0	0.0177	Open
P2091	J13_44	J13_45	120.00	150.0	135.0	0.0965	Open
P2092	J13_44	J14_44	120.00	300.0	140.0	0.1293	Open
P2093	J13_45	J13_46	120.00	250.0	140.0	0.0591	Open
P2094	J13_45	J14_45	120.00	100.0	130.0	0.0995	Open
P2095	J13_46	J13_47	120.00	300.0	125.0	0.0283	Open
P2096	J13_46	J14_46	120.00	350.0	120.0	0.0339	Open
P2097	J13_47	J13_48	120.00	300.0	130.0	0.0719	Open
P2098	J13_47	J14_47	120.00	100.0	135.0	0.0297	Open
P2099	J13_48	J13_49	120.00	150.0	140.0	0.0136	Open
P2100	J13_48	J14_48	120.00	150.0	130.0	0.0108	Open
P2101	J13_49	J13_50	120.00	100.0	140.0	0.0352	Open
P2102	J13_49	J14_49	120.00	150.0	140.0	0.0705	Open
P2103	J13_50	J13_51	120.00	300.0	125.0	0.0613	Open
P2104	J13_50	J14_50	120.00	200.0	125.0	0.0501	Open
P2105	J13_51	J13_52	120.00	150.0	135.0	0.1285	Open
P2106	J13_51	J14_51	120.00	100.0	125.0	0.0021	Open
P2107	J13_52	J13_53	120.00	300.0	125.0	0.1223	Open
P2108	J13_52	J14_52	120.00	150.0	125.0	0.0952	Open
P2109	J13_53	J13_54	120.00	200.0	125.0	0.0963	Open
P2110	J13_53	J14_53	120.00	150.0	130.0	0.0660	Open
P2111	J13_54	J13_55	120.00	100.0	140.0	0.1114	Open
P2112	J13_54	J14_54	120.00	150.0	125.0	0.0467	Open
P2113	J13_55	J13_56	120.00	500.0	125.0	0.0054	Open
P2114	J13_55	J14_55	120.00	300.0	125.0	0.0072	Open
P2115	J13_56	J13_57	120.00	200.0	130.0	0.1428	Open
P2116	J13_56	J14_56	120.00	200.0	130.0	0.1145	Open
P2117	J13_57	J13_58	120.00	300.0	140.0	0.0933	Open
P2118	J13_57	J14_57	120.00	100.0	125.0	0.0032	Open
P2119	J13_58	J13_59	120.00	100.0	140.0	0.0769	Open
P2120	J13_58	J14_58	120.00	100.0	140.0	0.0287	Open
P2121	J13_59	J13_60	120.00	100.0	135.0	0.1376	Open
P2122	J13_59	J14_59	120.00	300.0	125.0	0.0311	Open
P2123	J13_60	J13_61	120.00	200.0	130.0	0.0266	Open
P2124	J13_60	J14_60	120.00	150.0	130.0	0.1134	Open
P2125	J13_61	J13_62	120.00	300.0	125.0	0.1480	Open
P2126	J13_61	J14_61	120.00	150.0	140.0	0.1259	Open
P2127	J13_62	J13_63	120.00	150.0	125.0	0.0938	Open
P2128	J13_62	J14_62	120.00	300.0	135.0	0.1321	Open
P2129	J13_63	J13_64	120.00	150.0	125.0	0.1224	Open
P2130	J13_63	J14_63	120.00	250.0	135.0	0.0257	Open
P2131	J13_64	J13_65	120.00	350.0	125.0	0.0032	Open
P2132	J13_64	J14_64	120.00	500.0	125.0	0.0410	Open
P2133	J13_65	J13_66	120.00	300.0	135.0	0.0112	Open
P2134	J13_65	J14_65	120.00	200.0	135.0	0.0779	Open
P2135	J13_66	J13_67	120.00	200.0	125.0	0.0895	Open
P2136	J13_66	J14_66	120.00	100.0	130.0	0.1479	Open
P2137	J13_67	J13_68	120.00	200.0	140.0	0.1487	Open
P2138	J13_67	J14_67	120.00	100.0	130.0	0.0409	Open
P2139	J13_68	J13_69	120.00	300.0	140.0	0.0180	Open
P2140	J13_68	J14_68	120.00	150.0	125.0	0.0908	Open
P2141	J13_69	J13_70	120.00	200.0	130.0	0.1232	Open
P2142	J13_69	J14_69	120.00	150.0	135.0	0.0110	Open
P2143	J13_70	J13_71	120.00	200.0	130.0	0.0769	Open
P2144	J13_70	J14_70	120.00	300.0	125.0	0.0471	Open
P2145	J13_71	J13_72	120.00	250.0	135.0	0.0956	Open
P2146	J13_71	J14_71	120.00	100.0	135.0	0.0886	Open
P2147	J13_72	J13_73	120.00	100.0	125.0	0.0678	Open
P2148	J13_72	J14_72	120.00	250.0	130.0	0.1494	Open
P2149	J13_73	J13_74	120.00	300.0	120.0	0.0295	Open
P2150	J13_73	J14_73	120.00	450.0	125.0	0.0367	Open
P2151	J13_74	J13_75	120.00	150.0	130.0	0.0900	Open
P2152	J13_74	J14_74	120.00	200.0	135.0	0.1370	Open
P2153	J13_75	J13_76	120.00	250.0	130.0	0.1017	Open
P2154	J13_75	J14_75	120.00	100.0	125.0	0.1392	Open
P2155	J13_76	J13_77	120.00	150.0	130.0	0.0493	Open
P2156	J13_76	J14_76	120.00	200.0	140.0	0.0804	Open
P2157	J13_77	J13_78	120.00	200.0	140.0	0.0397	Open
P2158	J13_77	J14_77	120.00	150.0	140.0	0.0240	Open
P2159	J13_78	J13_79	120.00	100.0	125.0	0.1124	Open
P2160	J13_78	J14_78	120.00	300.0	130.0	0.0138	Open
P2161	J13_79	J13_80	120.00	150.0	135.0	0.1116	Open
P2162	J13_79	J14_79	120.00	100.0	140.0	0.1227	Open
P2163	J13_80	J13_81	120.00	300.0	125.0	0.0237	Open
P2164	J13_80	J14_80	120.00	100.0	140.0	0.0645	Open
P2165	J13_81	J13_82	120.00	250.0	140.0	0.0104	Open
P2166	J13_81	J14_81	120.00	100.0	130.0	0.0471	Open
P2167	J13_82	J13_83	120.00	300.0	120.0	0.0300	Open
P2168	J13_82	J14_82	120.00	350.0	130.0	0.0305	Open
P2169	J13_83	J13_84	120.00	200.0	135.0	0.0413	Open
P2170	J13_83	J14_83	120.00	100.0	140.0	0.0253	Open
P2171	J13_84	J14_84	120.00	200.0	125.0	0.0216	Open
P2172	J14_1	J14_2	120.00	400.0	120.0	0.0166	Open
P2173	J14_1	J15_1	120.00	500.0	130.0	0.0498	Open
P2174	J14_2	J14_3	120.00	100.0	140.0	0.0239	Open
P2175	J14_2	J15_2	120.00	300.0	135.0	0.0239	Open
P2176	J14_3	J14_4	120.00	200.0	130.0	0.1403	Open
P2177	J14_3	J15_3	120.00	200.0	130.0	0.1135	Open
P2178	J14_4	J14_5	120.00	250.0	130.0	0.0112	Open
P2179	J14_4	J15_4	120.00	150.0	125.0	0.1461	Open
P2180	J14_5	J14_6	120.00	250.0	140.0	0.0427	Open
P2181	J14_5	J15_5	120.00	150.0	140.0	0.0407	Open
P2182	J14_6	J14_7	120.00	200.0	130.0	0.0326	Open
P2183	J14_6	J15_6	120.00	250.0	125.0	0.0121	Open
P2184	J14_7	J14_8	120.00	200.0	140.0	0.0236	Open
P2185	J14_7	J15_7	120.00	250.0	125.0	0.1111	Open
P2186	J14_8	J14_9	120.00	100.0	140.0	0.0472	Open
P2187	J14_8	J15_8	120.00	250.0	125.0	0.0480	Open
P2188	J14_9	J14_10	120.00	300.0	140.0	0.0802	Open
P2189	J14_9	J15_9	120.00	150.0	140.0	0.0653	Open
P2190	J14_10	J14_11	120.00	500.0	125.0	0.0050	Open
P2191	J14_10	J15_10	120.00	300.0	125.0	0.0198	Open
P2192	J14_11	J14_12	120.00	100.0	130.0	0.1244	Open
P2193	J14_11	J15_11	120.00	300.0	130.0	0.1145	Open
P2194	J14_12	J14_13	120.00	100.0	135.0	0.0017	Open
P2195	J14_12	J15_12	120.00	250.0	130.0	0.1146	Open
P2196	J14_13	J14_14	120.00	200.0	135.0	0.0095	Open
P2197	J14_13	J15_13	120.00	250.0	125.0	0.0456	Open
P2198	J14_14	J14_15	120.00	300.0	130.0	0.0086	Open
P2199	J14_14	J15_14	120.00	300.0	140.0	0.0107	Open
P2200	J14_15	J14_16	120.00	250.0	130.0	0.0310	Open
P2201	J14_15	J15_15	120.00	300.0	140.0	0.0133	Open
P2202	J14_16	J14_17	120.00	100.0	125.0	0.0514	Open
P2203	J14_16	J15_16	120.00	100.0	125.0	0.0034	Open
P2204	J14_17	J14_18	120.00	300.0	130.0	0.0366	Open
P2205	J14_17	J15_17	120.00	300.0	135.0	0.1317	Open
P2206	J14_18	J14_19	120.00	250.0	135.0	0.0950	Open
P2207	J14_18	J15_18	120.00	300.0	130.0	0.0697	Open
P2208	J14_19	J14_20	120.00	600.0	130.0	0.0309	Open
P2209	J14_19	J15_19	120.00	350.0	120.0	0.0020	Open
P2210	J14_20	J14_21	120.00	150.0	130.0	0.0637	Open
P2211	J14_20	J15_20	120.00	200.0	125.0	0.0049	Open
P2212	J14_21	J14_22	120.00	200.0	125.0	0.1207	Open
P2213	J14_21	J15_21	120.00	200.0	125.0	0.0392	Open
P2214	J14_22	J14_23	120.00	150.0	135.0	0.0463	Open
P2215	J14_22	J15_22	120.00	200.0	135.0	0.0886	Open
P2216	J14_23	J14_24	120.00	200.0	130.0	0.1012	Open
P2217	J14_23	J15_23	120.00	300.0	125.0	0.0827	Open
P2218	J14_24	J14_25	120.00	200.0	135.0	0.0719	Open
P2219	J14_24	J15_24	120.00	300.0	140.0	0.0991	Open
P2220	J14_25	J14_26	120.00	100.0	140.0	0.0533	Open
P2221	J14_25	J15_25	120.00	250.0	125.0	0.0558	Open
P2222	J14_26	J14_27	120.00	250.0	125.0	0.0923	Open
P2223	J14_26	J15_26	120.00	100.0	140.0	0.0464	Open
P2224	J14_27	J14_28	120.00	150.0	135.0	0.0162	Open
P2225	J14_27	J15_27	120.00	200.0	125.0	0.0588	Open
P2226	J14_28	J14_29	120.00	350.0	125.0	0.0183	Open
P2227	J14_28	J15_28	120.00	500.0	125.0	0.0004	Open
P2228	J14_29	J14_30	120.00	300.0	140.0	0.0647	Open
P2229	J14_29	J15_29	120.00	300.0	130.0	0.1438	Open
P2230	J14_30	J14_31	120.00	300.0	130.0	0.0342	Open
P2231	J14_30	J15_30	120.00	200.0	135.0	0.1168	Open
P2232	J14_31	J14_32	120.00	100.0	135.0	0.0223	Open
P2233	J14_31	J15_31	120.00	150.0	140.0	0.0701	Open
P2234	J14_32	J14_33	120.00	150.0	135.0	0.1227	Open
P2235	J14_32	J15_32	120.00	300.0	125.0	0.0557	Open
P2236	J14_33	J14_34	120.00	150.0	125.0	0.0136	Open
P2237	J14_33	J15_33	120.00	200.0	135.0	0.1232	Open
P2238	J14_34	J14_35	120.00	300.0	135.0	0.1257	Open
P2239	J14_34	J15_34	120.00	200.0	140.0	0.0237	Open
P2240	J14_35	J14_36	120.00	100.0	135.0	0.0682	Open
P2241	J14_35	J15_35	120.00	200.0	130.0	0.1431	Open
P2242	J14_36	J14_37	120.00	300.0	140.0	0.0022	Open
P2243	J14_36	J15_36	120.00	150.0	140.0	0.1364	Open
P2244	J14_37	J14_38	120.00	500.0	125.0	0.0217	Open
P2245	J14_37	J15_37	120.00	450.0	130.0	0.0473	Open
P2246	J14_38	J14_39	120.00	250.0	130.0	0.0595	Open
P2247	J14_38	J15_38	120.00	150.0	135.0	0.0534	Open
P2248	J14_39	J14_40	120.00	150.0	140.0	0.0003	Open
P2249	J14_39	J15_39	120.00	200.0	140.0	0.1004	Open
P2250	J14_40	J14_41	120.00	200.0	125.0	0.0103	Open
P2251	J14_40	J15_40	120.00	100.0	135.0	0.1214	Open
P2252	J14_41	J14_42	120.00	150.0	135.0	0.1394	Open
P2253	J14_41	J15_41	120.00	100.0	135.0	0.1331	Open
P2254	J14_42	J14_43	120.00	300.0	135.0	0.0552	Open
P2255	J14_42	J15_42	120.00	150.0	125.0	0.0647	Open
P2256	J14_43	J14_44	120.00	200.0	135.0	0.0105	Open
P2257	J14_43	J15_43	120.00	250.0	125.0	0.0072	Open
P2258	J14_44	J14_45	120.00	200.0	130.0	0.0643	Open
P2259	J14_44	J15_44	120.00	250.0	130.0	0.0172	Open
P2260	J14_45	J14_46	120.00	200.0	140.0	0.1257	Open
P2261	J14_45	J15_45	120.00	250.0	125.0	0.0563	Open
P2262	J14_46	J14_47	120.00	350.0	125.0	0.0241	Open
P2263	J14_46	J15_46	120.00	350.0	120.0	0.0389	Open
P2264	J14_47	J14_48	120.00	300.0	125.0	0.0565	Open
P2265	J14_47	J15_47	120.00	200.0	135.0	0.0514	Open
P2266	J14_48	J14_49	120.00	150.0	140.0	0.0198	Open
P2267	J14_48	J15_48	120.00	100.0	140.0	0.0429	Open
P2268	J14_49	J14_50	120.00	250.0	125.0	0.1432	Open
P2269	J14_49	J15_49	120.00	300.0	140.0	0.0204	Open
P2270	J14_50	J14_51	120.00	100.0	125.0	0.0015	Open
P2271	J14_50	J15_50	120.00	100.0	135.0	0.0328	Open
P2272	J14_51	J14_52	120.00	150.0	125.0	0.1390	Open
P2273	J14_51	J15_51	120.00	200.0	140.0	0.0731	Open
P2274	J14_52	J14_53	120.00	300.0	125.0	0.0970	Open
P2275	J14_52	J15_52	120.00	100.0	135.0	0.0648	Open
P2276	J14_53	J14_54	120.00	250.0	140.0	0.0382	Open
P2277	J14_53	J15_53	120.00	300.0	140.0	0.1364	Open
P2278	J14_54	J14_55	120.00	300.0	130.0	0.1208	Open
P2279	J14_54	J15_54	120.00	100.0	130.0	0.0098	Open
P2280	J14_55	J14_56	120.00	400.0	125.0	0.0044	Open
P2281	J14_55	J15_55	120.00	350.0	125.0	0.0480	Open
P2282	J14_56	J14_57	120.00	200.0	140.0	0.0326	Open
P2283	J14_56	J15_56	120.00	200.0	140.0	0.0155	Open
P2284	J14_57	J14_58	120.00	150.0	135.0	0.0468	Open
P2285	J14_57	J15_57	120.00	250.0	125.0	0.0856	Open
P2286	J14_58	J14_59	120.00	300.0	125.0	0.1315	Open
P2287	J14_58	J15_58	120.00	100.0	135.0	0.1223	Open
P2288	J14_59	J14_60	120.00	150.0	130.0	0.0335	Open
P2289	J14_59	J15_59	120.00	300.0	140.0	0.1203	Open
P2290	J14_60	J14_61	120.00	300.0	125.0	0.1016	Open
P2291	J14_60	J15_60	120.00	150.0	130.0	0.0587	Open
P2292	J14_61	J14_62	120.00	300.0	135.0	0.1133	Open
P2293	J14_61	J15_61	120.00	250.0	140.0	0.0725	Open
P2294	J14_62	J14_63	120.00	200.0	130.0	0.1309	Open
P2295	J14_62	J15_62	120.00	150.0	125.0	0.0301	Open
P2296	J14_63	J14_64	120.00	300.0	135.0	0.1448	Open
P2297	J14_63	J15_63	120.00	200.0	140.0	0.0973	Open
P2298	J14_64	J14_65	120.00	450.0	130.0	0.0035	Open
P2299	J14_64	J15_64	120.00	300.0	125.0	0.0399	Open
P2300	J14_65	J14_66	120.00	300.0	140.0	0.1484	Open
P2301	J14_65	J15_65	120.00	250.0	140.0	0.0430	Open
P2302	J14_66	J14_67	120.00	300.0	135.0	0.1185	Open
P2303	J14_66	J15_66	120.00	300.0	130.0	0.1145	Open
P2304	J14_67	J14_68	120.00	150.0	130.0	0.0269	Open
P2305	J14_67	J15_67	120.00	200.0	140.0	0.0077	Open
P2306	J14_68	J14_69	120.00	200.0	135.0	0.1328	Open
P2307	J14_68	J15_68	120.00	150.0	135.0	0.1467	Open
P2308	J14_69	J14_70	120.00	100.0	140.0	0.0494	Open
P2309	J14_69	J15_69	120.00	100.0	130.0	0.0960	Open
P2310	J14_70	J14_71	120.00	250.0	130.0	0.0543	Open
P2311	J14_70	J15_70	120.00	100.0	140.0	0.0117	Open
P2312	J14_71	J14_72	120.00	300.0	140.0	0.0765	Open
P2313	J14_71	J15_71	120.00	300.0	125.0	0.0668	Open
P2314	J14_72	J14_73	120.00	200.0	140.0	0.0759	Open
P2315	J14_72	J15_72	120.00	250.0	125.0	0.0616	Open
P2316	J14_73	J14_74	120.00	600.0	120.0	0.0141	Open
P2317	J14_73	J15_73	120.00	600.0	130.0	0.0126	Open
P2318	J14_74	J14_75	120.00	150.0	130.0	0.1004	Open
P2319	J14_74	J15_74	120.00	300.0	140.0	0.0609	Open
P2320	J14_75	J14_76	120.00	100.0	125.0	0.1064	Open
P2321	J14_75	J15_75	120.00	150.0	125.0	0.1108	Open
P2322	J14_76	J14_77	120.00	150.0	135.0	0.0144	Open
P2323	J14_76	J15_76	120.00	150.0	125.0	0.1068	Open
P2324	J14_77	J14_78	120.00	300.0	140.0	0.0337	Open
P2325	J14_77	J15_77	120.00	200.0	140.0	0.1444	Open
P2326	J14_78	J14_79	120.00	250.0	140.0	0.0075	Open
P2327	J14_78	J15_78	120.00	300.0	140.0	0.1090	Open
P2328	J14_79	J14_80	120.00	300.0	125.0	0.0926	Open
P2329	J14_79	J15_79	120.00	200.0	125.0	0.1377	Open
P2330	J14_80	J14_81	120.00	150.0	125.0	0.0347	Open
P2331	J14_80	J15_80	120.00	250.0	135.0	0.0719	Open
P2332	J14_81	J14_82	120.00	150.0	140.0	0.0968	Open
P2333	J14_81	J15_81	120.00	150.0	130.0	0.1018	Open
P2334	J14_82	J14_83	120.00	300.0	120.0	0.0108	Open
P2335	J14_82	J15_82	120.00	600.0	130.0	0.0307	Open
P2336	J14_83	J14_84	120.00	200.0	140.0	0.0746	Open
P2337	J14_83	J15_83	120.00	200.0	140.0	0.1229	Open
P2338	J14_84	J15_84	120.00	250.0	130.0	0.1316	Open
P2339	J15_1	J15_2	120.00	400.0	125.0	0.0055	Open
P2340	J15_1	J16_1	120.00	350.0	125.0	0.0461	Open
P2341	J15_2	J15_3	120.00	200.0	125.0	0.0271	Open
P2342	J15_2	J16_2	120.00	150.0	135.0	0.0632	Open
P2343	J15_3	J15_4	120.00	300.0	125.0	0.1454	Open
P2344	J15_3	J16_3	120.00	300.0	140.0	0.1418	Open
P2345	J15_4	J15_5	120.00	200.0	140.0	0.0147	Open
P2346	J15_4	J16_4	120.00	150.0	140.0	0.0499	Open
P2347	J15_5	J15_6	120.00	100.0	130.0	0.1121	Open
P2348	J15_5	J16_5	120.00	300.0	140.0	0.1198	Open
P2349	J15_6	J15_7	120.00	250.0	140.0	0.0433	Open
P2350	J15_6	J16_6	120.00	200.0	130.0	0.1136	Open
P2351	J15_7	J15_8	120.00	300.0	125.0	0.1158	Open
P2352	J15_7	J16_7	120.00	300.0	125.0	0.0274	Open
P2353	J15_8	J15_9	120.00	200.0	130.0	0.0523	Open
P2354	J15_8	J16_8	120.00	300.0	130.0	0.1204	Open
P2355	J15_9	J15_10	120.00	250.0	130.0	0.0900	Open
P2356	J15_9	J16_9	120.00	300.0	135.0	0.0700	Open
P2357	J15_10	J15_11	120.00	450.0	125.0	0.0488	Open
P2358	J15_10	J16_10	120.00	500.0	125.0	0.0335	Open
P2359	J15_11	J15_12	120.00	300.0	140.0	0.0719	Open
P2360	J15_11	J16_11	120.00	100.0	135.0	0.1178	Open
P2361	J15_12	J15_13	120.00	300.0	125.0	0.1350	Open
P2362	J15_12	J16_12	120.00	250.0	130.0	0.0285	Open
P2363	J15_13	J15_14	120.00	200.0	135.0	0.1392	Open
P2364	J15_13	J16_13	120.00	100.0	140.0	0.0288	Open
P2365	J15_14	J15_15	120.00	300.0	140.0	0.1092	Open
P2366	J15_14	J16_14	120.00	150.0	130.0	0.0145	Open
P2367	J15_15	J15_16	120.00	200.0	140.0	0.1245	Open
P2368	J15_15	J16_15	120.00	100.0	135.0	0.1281	Open
P2369	J15_16	J15_17	120.00	200.0	135.0	0.0648	Open
P2370	J15_16	J16_16	120.00	300.0	140.0	0.0070	Open
P2371	J15_17	J15_18	120.00	250.0	140.0	0.0754	Open
P2372	J15_17	J16_17	120.00	100.0	130.0	0.0524	Open
P2373	J15_18	J15_19	120.00	200.0	135.0	0.0243	Open
P2374	J15_18	J16_18	120.00	200.0	130.0	0.1383	Open
P2375	J15_19	J15_20	120.00	450.0	120.0	0.0199	Open
P2376	J15_19	J16_19	120.00	500.0	125.0	0.0419	Open
P2377	J15_20	J15_21	120.00	200.0	130.0	0.0979	Open
P2378	J15_20	J16_20	120.00	250.0	125.0	0.0338	Open
P2379	J15_21	J15_22	120.00	200.0	125.0	0.0935	Open
P2380	J15_21	J16_21	120.00	300.0	140.0	0.1290	Open
P2381	J15_22	J15_23	120.00	300.0	125.0	0.0781	Open
P2382	J15_22	J16_22	120.00	300.0	130.0	0.0165	Open
P2383	J15_23	J15_24	120.00	300.0	140.0	0.1332	Open
P2384	J15_23	J16_23	120.00	100.0	140.0	0.1380	Open
P2385	J15_24	J15_25	120.00	100.0	135.0	0.0281	Open
P2386	J15_24	J16_24	120.00	150.0	135.0	0.1455	Open
P2387	J15_25	J15_26	120.00	300.0	130.0	0.0754	Open
P2388	J15_25	J16_25	120.00	250.0	135.0	0.1119	Open
P2389	J15_26	J15_27	120.00	200.0	125.0	0.0044	Open
P2390	J15_26	J16_26	120.00	250.0	140.0	0.0296	Open
P2391	J15_27	J15_28	120.00	150.0	130.0	0.1225	Open
P2392	J15_27	J16_27	120.00	150.0	140.0	0.1361	Open
P2393	J15_28	J15_29	120.00	300.0	130.0	0.0307	Open
P2394	J15_28	J16_28	120.00	300.0	120.0	0.0169	Open
P2395	J15_29	J15_30	120.00	200.0	135.0	0.0913	Open
P2396	J15_29	J16_29	120.00	250.0	135.0	0.1425	Open
P2397	J15_30	J15_31	120.00	100.0	125.0	0.0911	Open
P2398	J15_30	J16_30	120.00	300.0	125.0	0.1252	Open
P2399	J15_31	J15_32	120.00	100.0	140.0	0.0070	Open
P2400	J15_31	J16_31	120.00	200.0	130.0	0.0277	Open
P2401	J15_32	J15_33	120.00	100.0	135.0	0.0336	Open
P2402	J15_32	J16_32	120.00	300.0	130.0	0.1432	Open
P2403	J15_33	J15_34	120.00	250.0	130.0	0.1180	Open
P2404	J15_33	J16_33	120.00	250.0	130.0	0.0958	Open
P2405	J15_34	J15_35	120.00	100.0	140.0	0.0332	Open
P2406	J15_34	J16_34	120.00	200.0	130.0	0.1302	Open
P2407	J15_35	J15_36	120.00	200.0	130.0	0.0723	Open
P2408	J15_35	J16_35	120.00	300.0	135.0	0.0414	Open
P2409	J15_36	J15_37	120.00	150.0	135.0	0.0418	Open
P2410	J15_36	J16_36	120.00	250.0	140.0	0.1311	Open
P2411	J15_37	J15_38	120.00	600.0	130.0	0.0414	Open
P2412	J15_37	J16_37	120.00	400.0	130.0	0.0459	Open
P2413	J15_38	J15_39	120.00	150.0	130.0	0.0079	Open
P2414	J15_38	J16_38	120.00	200.0	140.0	0.0660	Open
P2415	J15_39	J15_40	120.00	250.0	140.0	0.1409	Open
P2416	J15_39	J16_39	120.00	100.0	130.0	0.1322	Open
P2417	J15_40	J15_41	120.00	250.0	125.0	0.0099	Open
P2418	J15_40	J16_40	120.00	150.0	125.0	0.1341	Open
P2419	J15_41	J15_42	120.00	250.0	135.0	0.0656	Open
P2420	J15_41	J16_41	120.00	250.0	125.0	0.0047	Open
P2421	J15_42	J15_43	120.00	200.0	125.0	0.0227	Open
P2422	J15_42	J16_42	120.00	150.0	140.0	0.1104	Open
P2423	J15_43	J15_44	120.00	150.0	125.0	0.0929	Open
P2424	J15_43	J16_43	120.00	200.0	130.0	0.0301	Open
P2425	J15_44	J15_45	120.00	250.0	130.0	0.1077	Open
P2426	J15_44	J16_44	120.00	300.0	130.0	0.1239	Open
P2427	J15_45	J15_46	120.00	300.0	135.0	0.0322	Open
P2428	J15_45	J16_45	120.00	250.0	130.0	0.0544	Open
P2429	J15_46	J15_47	120.00	300.0	120.0	0.0484	Open
P2430	J15_46	J16_46	120.00	500.0	120.0	0.0277	Open
P2431	J15_47	J15_48	120.00	300.0	135.0	0.0259	Open
P2432	J15_47	J16_47	120.00	300.0	135.0	0.1008	Open
P2433	J15_48	J15_49	120.00	100.0	140.0	0.0720	Open
P2434	J15_48	J16_48	120.00	250.0	140.0	0.1104	Open
P2435	J15_49	J15_50	120.00	150.0	130.0	0.1155	Open
P2436	J15_49	J16_49	120.00	100.0	135.0	0.0043	Open
P2437	J15_50	J15_51	120.00	250.0	130.0	0.1151	Open
P2438	J15_50	J16_50	120.00	300.0	130.0	0.0500	Open
P2439	J15_51	J15_52	120.00	200.0	130.0	0.0303	Open
P2440	J15_51	J16_51	120.00	300.0	140.0	0.0331	Open
P2441	J15_52	J15_53	120.00	150.0	130.0	0.0698	Open
P2442	J15_52	J16_52	120.00	150.0	135.0	0.0415	Open
P2443	J15_53	J15_54	120.00	150.0	140.0	0.0247	Open
P2444	J15_53	J16_53	120.00	300.0	135.0	0.1225	Open
P2445	J15_54	J15_55	120.00	300.0	140.0	0.1159	Open
P2446	J15_54	J16_54	120.00	200.0	140.0	0.0388	Open
P2447	J15_55	J15_56	120.00	300.0	120.0	0.0021	Open
P2448	J15_55	J16_55	120.00	450.0	125.0	0.0053	Open
P2449	J15_56	J15_57	120.00	200.0	140.0	0.0176	Open
P2450	J15_56	J16_56	120.00	100.0	140.0	0.1083	Open
P2451	J15_57	J15_58	120.00	250.0	125.0	0.0138	Open
P2452	J15_57	J16_57	120.00	150.0	125.0	0.0556	Open
P2453	J15_58	J15_59	120.00	200.0	140.0	0.0409	Open
P2454	J15_58	J16_58	120.00	200.0	135.0	0.0967	Open
P2455	J15_59	J15_60	120.00	200.0	135.0	0.1434	Open
P2456	J15_59	J16_59	120.00	100.0	135.0	0.0962	Open
P2457	J15_60	J15_61	120.00	250.0	140.0	0.0218	Open
P2458	J15_60	J16_60	120.00	200.0	135.0	0.1326	Open
P2459	J15_61	J15_62	120.00	300.0	130.0	0.0923	Open
P2460	J15_61	J16_61	120.00	150.0	135.0	0.0489	Open
P2461	J15_62	J15_63	120.00	100.0	140.0	0.1485	Open
P2462	J15_62	J16_62	120.00	300.0	130.0	0.0479	Open
P2463	J15_63	J15_64	120.00	200.0	140.0	0.0977	Open
P2464	J15_63	J16_63	120.00	100.0	125.0	0.0079	Open
P2465	J15_64	J15_65	120.00	350.0	125.0	0.0117	Open
P2466	J15_64	J16_64	120.00	450.0	130.0	0.0413	Open
P2467	J15_65	J15_66	120.00	150.0	130.0	0.1482	Open
P2468	J15_65	J16_65	120.00	300.0	140.0	0.0369	Open
P2469	J15_66	J15_67	120.00	200.0	130.0	0.0476	Open
P2470	J15_66	J16_66	120.00	300.0	135.0	0.0742	Open
P2471	J15_67	J15_68	120.00	150.0	130.0	0.1258	Open
P2472	J15_67	J16_67	120.00	150.0	140.0	0.0595	Open
P2473	J15_68	J15_69	120.00	150.0	130.0	0.0948	Open
P2474	J15_68	J16_68	120.00	150.0	130.0	0.0250	Open
P2475	J15_69	J15_70	120.00	300.0	130.0	0.1079	Open
P2476	J15_69	J16_69	120.00	300.0	125.0	0.1144	Open
P2477	J15_70	J15_71	120.00	150.0	140.0	0.0790	Open
P2478	J15_70	J16_70	120.00	150.0	125.0	0.1297	Open
P2479	J15_71	J15_72	120.00	200.0	135.0	0.0941	Open
P2480	J15_71	J16_71	120.00	250.0	135.0	0.0030	Open
P2481	J15_72	J15_73	120.00	250.0	130.0	0.0889	Open
P2482	J15_72	J16_72	120.00	300.0	135.0	0.1355	Open
P2483	J15_73	J15_74	120.00	350.0	125.0	0.0365	Open
P2484	J15_73	J16_73	120.00	350.0	125.0	0.0470	Open
P2485	J15_74	J15_75	120.00	300.0	130.0	0.0783	Open
P2486	J15_74	J16_74	120.00	150.0	135.0	0.0893	Open
P2487	J15_75	J15_76	120.00	250.0	125.0	0.0579	Open
P2488	J15_75	J16_75	120.00	250.0	135.0	0.1370	Open
P2489	J15_76	J15_77	120.00	300.0	125.0	0.1386	Open
P2490	J15_76	J16_76	120.00	100.0	125.0	0.0728	Open
P2491	J15_77	J15_78	120.00	300.0	135.0	0.0218	Open
P2492	J15_77	J16_77	120.00	300.0	140.0	0.1425	Open
P2493	J15_78	J15_79	120.00	250.0	135.0	0.0306	Open
P2494	J15_78	J16_78	120.00	150.0	130.0	0.0097	Open
P2495	J15_79	J15_80	120.00	150.0	125.0	0.0899	Open
P2496	J15_79	J16_79	120.00	150.0	140.0	0.0274	Open
P2497	J15_80	J15_81	120.00	100.0	135.0	0.0681	Open
P2498	J15_80	J16_80	120.00	250.0	130.0	0.0392	Open
P2499	J15_81	J15_82	120.00	250.0	130.0	0.0420	Open
P2500	J15_81	J16_81	120.00	100.0	140.0	0.0869	Open
P2501	J15_82	J15_83	120.00	450.0	125.0	0.0413	Open
P2502	J15_82	J16_82	120.00	300.0	120.0	0.0428	Open
P2503	J15_83	J15_84	120.00	100.0	135.0	0.0934	Open
P2504	J15_83	J16_83	120.00	200.0	130.0	0.1402	Open
P2505	J15_84	J16_84	120.00	100.0	135.0	0.0036	Open
P2506	J16_1	J16_2	120.00	600.0	130.0	0.0312	Open
P2507	J16_1	J17_1	120.00	350.0	130.0	0.0399	Open
P2508	J16_2	J16_3	120.00	200.0	130.0	0.1144	Open
P2509	J16_2	J17_2	120.00	250.0	140.0	0.0144	Open
P2510	J16_3	J16_4	120.00	300.0	135.0	0.0114	Open
P2511	J16_3	J17_3	120.00	300.0	140.0	0.1295	Open
P2512	J16_4	J16_5	120.00	100.0	140.0	0.0563	Open
P2513	J16_4	J17_4	120.00	150.0	125.0	0.0330	Open
P2514	J16_5	J16_6	120.00	100.0	135.0	0.0234	Open
P2515	J16_5	J17_5	120.00	150.0	135.0	0.1264	Open
P2516	J16_6	J16_7	120.00	250.0	130.0	0.0430	Open
P2517	J16_6	J17_6	120.00	150.0	125.0	0.0449	Open
P2518	J16_7	J16_8	120.00	150.0	140.0	0.0705	Open
P2519	J16_7	J17_7	120.00	200.0	130.0	0.1156	Open
P2520	J16_8	J16_9	120.00	200.0	135.0	0.0845	Open
P2521	J16_8	J17_8	120.00	250.0	125.0	0.0850	Open
P2522	J16_9	J16_10	120.00	150.0	125.0	0.1273	Open
P2523	J16_9	J17_9	120.00	250.0	135.0	0.0115	Open
P2524	J16_10	J16_11	120.00	500.0	120.0	0.0303	Open
P2525	J16_10	J17_10	120.00	600.0	130.0	0.0234	Open
P2526	J16_11	J16_12	120.00	100.0	140.0	0.1467	Open
P2527	J16_11	J17_11	120.00	250.0	130.0	0.1395	Open
P2528	J16_12	J16_13	120.00	100.0	130.0	0.0277	Open
P2529	J16_12	J17_12	120.00	200.0	140.0	0.0657	Open
P2530	J16_13	J16_14	120.00	150.0	140.0	0.0997	Open
P2531	J16_13	J17_13	120.00	200.0	130.0	0.0600	Open
P2532	J16_14	J16_15	120.00	300.0	135.0	0.1175	Open
P2533	J16_14	J17_14	120.00	200.0	130.0	0.1389	Open
P2534	J16_15	J16_16	120.00	100.0	140.0	0.0064	Open
P2535	J16_15	J17_15	120.00	150.0	135.0	0.0539	Open
P2536	J16_16	J16_17	120.00	100.0	125.0	0.0087	Open
P2537	J16_16	J17_16	120.00	250.0	125.0	0.1352	Open
P2538	J16_17	J16_18	120.00	300.0	130.0	0.0877	Open
P2539	J16_17	J17_17	120.00	150.0	135.0	0.0754	Open
P2540	J16_18	J16_19	120.00	300.0	135.0	0.1152	Open
P2541	J16_18	J17_18	120.00	200.0	140.0	0.0349	Open
P2542	J16_19	J16_20	120.00	400.0	130.0	0.0407	Open
P2543	J16_19	J17_19	120.00	400.0	125.0	0.0168	Open
P2544	J16_20	J16_21	120.00	250.0	125.0	0.1218	Open
P2545	J16_20	J17_20	120.00	250.0	125.0	0.0514	Open
P2546	J16_21	J16_22	120.00	250.0	140.0	0.1025	Open
P2547	J16_21	J17_21	120.00	100.0	140.0	0.0237	Open
P2548	J16_22	J16_23	120.00	300.0	135.0	0.0593	Open
P2549	J16_22	J17_22	120.00	250.0	140.0	0.0636	Open
P2550	J16_23	J16_24	120.00	250.0	125.0	0.0449	Open
P2551	J16_23	J17_23	120.00	300.0	135.0	0.0333	Open
P2552	J16_24	J16_25	120.00	250.0	135.0	0.0058	Open
P2553	J16_24	J17_24	120.00	150.0	135.0	0.0726	Open
P2554	J16_25	J16_26	120.00	250.0	140.0	0.1129	Open
P2555	J16_25	J17_25	120.00	250.0	140.0	0.0282	Open
P2556	J16_26	J16_27	120.00	100.0	140.0	0.0664	Open
P2557	J16_26	J17_26	120.00	300.0	140.0	0.1456	Open
P2558	J16_27	J16_28	120.00	100.0	130.0	0.0940	Open
P2559	J16_27	J17_27	120.00	100.0	135.0	0.1482	Open
P2560	J16_28	J16_29	120.00	500.0	130.0	0.0254	Open
P2561	J16_28	J17_28	120.00	350.0	130.0	0.0205	Open
P2562	J16_29	J16_30	120.00	200.0	130.0	0.0925	Open
P2563	J16_29	J17_29	120.00	200.0	130.0	0.0712	Open
P2564	J16_30	J16_31	120.00	150.0	125.0	0.0852	Open
P2565	J16_30	J17_30	120.00	250.0	125.0	0.0973	Open
P2566	J16_31	J16_32	120.00	250.0	140.0	0.1340	Open
P2567	J16_31	J17_31	120.00	100.0	130.0	0.0487	Open
P2568	J16_32	J16_33	120.00	150.0	140.0	0.0587	Open
P2569	J16_32	J17_32	120.00	200.0	130.0	0.0117	Open
P2570	J16_33	J16_34	120.00	150.0	130.0	0.0597	Open
P2571	J16_33	J17_33	120.00	200.0	125.0	0.0318	Open
P2572	J16_34	J16_35	120.00	150.0	135.0	0.1057	Open
P2573	J16_34	J17_34	120.00	150.0	130.0	0.0072	Open
P2574	J16_35	J16_36	120.00	300.0	135.0	0.1243	Open
P2575	J16_35	J17_35	120.00	300.0	125.0	0.0377	Open
P2576	J16_36	J16_37	120.00	150.0	135.0	0.0045	Open
P2577	J16_36	J17_36	120.00	300.0	135.0	0.0243	Open
P2578	J16_37	J16_38	120.00	500.0	125.0	0.0186	Open
P2579	J16_37	J17_37	120.00	300.0	120.0	0.0376	Open
P2580	J16_38	J16_39	120.00	200.0	140.0	0.0777	Open
P2581	J16_38	J17_38	120.00	150.0	125.0	0.1055	Open
P2582	J16_39	J16_40	120.00	150.0	125.0	0.1314	Open
P2583	J16_39	J17_39	120.00	250.0	130.0	0.0769	Open
P2584	J16_40	J16_41	120.00	300.0	125.0	0.0318	Open
P2585	J16_40	J17_40	120.00	100.0	130.0	0.0555	Open
P2586	J16_41	J16_42	120.00	300.0	140.0	0.1327	Open
P2587	J16_41	J17_41	120.00	150.0	125.0	0.0630	Open
P2588	J16_42	J16_43	120.00	250.0	130.0	0.0880	Open
P2589	J16_42	J17_42	120.00	200.0	130.0	0.0966	Open
P2590	J16_43	J16_44	120.00	300.0	130.0	0.1335	Open
P2591	J16_43	J17_43	120.00	150.0	140.0	0.1226	Open
P2592	J16_44	J16_45	120.00	150.0	140.0	0.0298	Open
P2593	J16_44	J17_44	120.00	150.0	140.0	0.1489	Open
P2594	J16_45	J16_46	120.00	250.0	140.0	0.0898	Open
P2595	J16_45	J17_45	120.00	150.0	130.0	0.0931	Open
P2596	J16_46	J16_47	120.00	400.0	120.0	0.0332	Open
P2597	J16_46	J17_46	120.00	500.0	130.0	0.0324	Open
P2598	J16_47	J16_48	120.00	250.0	140.0	0.0693	Open
P2599	J16_47	J17_47	120.00	150.0	125.0	0.0679	Open
P2600	J16_48	J16_49	120.00	250.0	125.0	0.0973	Open
P2601	J16_48	J17_48	120.00	150.0	140.0	0.0618	Open
P2602	J16_49	J16_50	120.00	200.0	125.0	0.0423	Open
P2603	J16_49	J17_49	120.00	250.0	135.0	0.0977	Open
P2604	J16_50	J16_51	120.00	300.0	125.0	0.0733	Open
P2605	J16_50	J17_50	120.00	200.0	135.0	0.1247	Open
P2606	J16_51	J16_52	120.00	200.0	130.0	0.0525	Open
P2607	J16_51	J17_51	120.00	250.0	135.0	0.0718	Open
P2608	J16_52	J16_53	120.00	250.0	130.0	0.0334	Open
P2609	J16_52	J17_52	120.00	150.0	135.0	0.0255	Open
P2610	J16_53	J16_54	120.00	300.0	130.0	0.0096	Open
P2611	J16_53	J17_53	120.00	200.0	135.0	0.1388	Open
P2612	J16_54	J16_55	120.00	200.0	140.0	0.0358	Open
P2613	J16_54	J17_54	120.00	200.0	125.0	0.1355	Open
P2614	J16_55	J16_56	120.00	400.0	125.0	0.0311	Open
P2615	J16_55	J17_55	120.00	500.0	120.0	0.0391	Open
P2616	J16_56	J16_57	120.00	200.0	135.0	0.0572	Open
P2617	J16_56	J17_56	120.00	300.0	130.0	0.0959	Open
P2618	J16_57	J16_58	120.00	300.0	135.0	0.0909	Open
P2619	J16_57	J17_57	120.00	300.0	140.0	0.0828	Open
P2620	J16_58	J16_59	120.00	250.0	130.0	0.1153	Open
P2621	J16_58	J17_58	120.00	250.0	140.0	0.0765	Open
P2622	J16_59	J16_60	120.00	300.0	135.0	0.0812	Open
P2623	J16_59	J17_59	120.00	300.0	140.0	0.0627	Open
P2624	J16_60	J16_61	120.00	300.0	125.0	0.0432	Open
P2625	J16_60	J17_60	120.00	300.0	130.0	0.1155	Open
P2626	J16_61	J16_62	120.00	100.0	135.0	0.1100	Open
P2627	J16_61	J17_61	120.00	100.0	125.0	0.0871	Open
P2628	J16_62	J16_63	120.00	200.0	140.0	0.0931	Open
P2629	J16_62	J17_62	120.00	200.0	125.0	0.1366	Open
P2630	J16_63	J16_64	120.00	150.0	140.0	0.1315	Open
P2631	J16_63	J17_63	120.00	100.0	125.0	0.0517	Open
P2632	J16_64	J16_65	120.00	300.0	125.0	0.0218	Open
P2633	J16_64	J17_64	120.00	450.0	125.0	0.0389	Open
P2634	J16_65	J16_66	120.00	250.0	140.0	0.0860	Open
P2635	J16_65	J17_65	120.00	200.0	130.0	0.1147	Open
P2636	J16_66	J16_67	120.00	150.0	135.0	0.0291	Open
P2637	J16_66	J17_66	120.00	250.0	125.0	0.0425	Open
P2638	J16_67	J16_68	120.00	300.0	125.0	0.0062	Open
P2639	J16_67	J17_67	120.00	150.0	135.0	0.1005	Open
P2640	J16_68	J16_69	120.00	100.0	140.0	0.0637	Open
P2641	J16_68	J17_68	120.00	300.0	125.0	0.0986	Open
P2642	J16_69	J16_70	120.00	150.0	140.0	0.1107	Open
P2643	J16_69	J17_69	120.00	100.0	125.0	0.0821	Open
P2644	J16_70	J16_71	120.00	300.0	130.0	0.0073	Open
P2645	J16_70	J17_70	120.00	300.0	130.0	0.0642	Open
P2646	J16_71	J16_72	120.00	100.0	125.0	0.1442	Open
P2647	J16_71	J17_71	120.00	200.0	130.0	0.0006	Open
P2648	J16_72	J16_73	120.00	100.0	135.0	0.0115	Open
P2649	J16_72	J17_72	120.00	300.0	130.0	0.0670	Open
P2650	J16_73	J16_74	120.00	500.0	125.0	0.0377	Open
P2651	J16_73	J17_73	120.00	450.0	130.0	0.0112	Open
P2652	J16_74	J16_75	120.00	250.0	135.0	0.0336	Open
P2653	J16_74	J17_74	120.00	150.0	140.0	0.1323	Open
P2654	J16_75	J16_76	120.00	150.0	125.0	0.0365	Open
P2655	J16_75	J17_75	120.00	150.0	130.0	0.0528	Open
P2656	J16_76	J16_77	120.00	300.0	135.0	0.1093	Open
P2657	J16_76	J17_76	120.00	150.0	140.0	0.1302	Open
P2658	J16_77	J16_78	120.00	200.0	130.0	0.0816	Open
P2659	J16_77	J17_77	120.00	200.0	130.0	0.0937	Open
P2660	J16_78	J16_79	120.00	250.0	135.0	0.0201	Open
P2661	J16_78	J17_78	120.00	300.0	125.0	0.0212	Open
P2662	J16_79	J16_80	120.00	200.0	130.0	0.0405	Open
P2663	J16_79	J17_79	120.00	150.0	140.0	0.0077	Open
P2664	J16_80	J16_81	120.00	200.0	130.0	0.0160	Open
P2665	J16_80	J17_80	120.00	250.0	130.0	0.0570	Open
P2666	J16_81	J16_82	120.00	150.0	135.0	0.0563	Open
P2667	J16_81	J17_81	120.00	100.0	135.0	0.0308	Open
P2668	J16_82	J16_83	120.00	450.0	120.0	0.0400	Open
P2669	J16_82	J17_82	120.00	450.0	130.0	0.0418	Open
P2670	J16_83	J16_84	120.00	250.0	135.0	0.0850	Open
P2671	J16_83	J17_83	120.00	300.0	130.0	0.0549	Open
P2672	J16_84	J17_84	120.00	250.0	135.0	0.1122	Open
P2673	J17_1	J17_2	120.00	600.0	120.0	0.0173	Open
P2674	J17_1	J18_1	120.00	300.0	120.0	0.0248	Open
P2675	J17_2	J17_3	120.00	150.0	125.0	0.1067	Open
P2676	J17_2	J18_2	120.00	100.0	125.0	0.1184	Open
P2677	J17_3	J17_4	120.00	200.0	125.0	0.1070	Open
P2678	J17_3	J18_3	120.00	200.0	140.0	0.0949	Open
P2679	J17_4	J17_5	120.00	250.0	135.0	0.0955	Open
P2680	J17_4	J18_4	120.00	200.0	135.0	0.0676	Open
P2681	J17_5	J17_6	120.00	200.0	140.0	0.0755	Open
P2682	J17_5	J18_5	120.00	250.0	140.0	0.0588	Open
P2683	J17_6	J17_7	120.00	150.0	125.0	0.1455	Open
P2684	J17_6	J18_6	120.00	300.0	125.0	0.1357	Open
P2685	J17_7	J17_8	120.00	300.0	135.0	0.1360	Open
P2686	J17_7	J18_7	120.00	200.0	135.0	0.0352	Open
P2687	J17_8	J17_9	120.00	300.0	125.0	0.0718	Open
P2688	J17_8	J18_8	120.00	100.0	140.0	0.1114	Open
P2689	J17_9	J17_10	120.00	300.0	130.0	0.1474	Open
P2690	J17_9	J18_9	120.00	300.0	140.0	0.0884	Open
P2691	J17_10	J17_11	120.00	500.0	120.0	0.0205	Open
P2692	J17_10	J18_10	120.00	500.0	125.0	0.0237	Open
P2693	J17_11	J17_12	120.00	100.0	130.0	0.0405	Open
P2694	J17_11	J18_11	120.00	200.0	135.0	0.0542	Open
P2695	J17_12	J17_13	120.00	100.0	125.0	0.0040	Open
P2696	J17_12	J18_12	120.00	300.0	125.0	0.1166	Open
P2697	J17_13	J17_14	120.00	150.0	135.0	0.0098	Open
P2698	J17_13	J18_13	120.00	300.0	135.0	0.0795	Open
P2699	J17_14	J17_15	120.00	300.0	135.0	0.0601	Open
P2700	J17_14	J18_14	120.00	300.0	140.0	0.0643	Open
P2701	J17_15	J17_16	120.00	200.0	125.0	0.0684	Open
P2702	J17_15	J18_15	120.00	200.0	135.0	0.0574	Open
P2703	J17_16	J17_17	120.00	100.0	135.0	0.1207	Open
P2704	J17_16	J18_16	120.00	200.0	130.0	0.0432	Open
P2705	J17_17	J17_18	120.00	300.0	135.0	0.0512	Open
P2706	J17_17	J18_17	120.00	100.0	135.0	0.1110	Open
P2707	J17_18	J17_19	120.00	200.0	140.0	0.0758	Open
P2708	J17_18	J18_18	120.00	100.0	135.0	0.1337	Open
P2709	J17_19	J17_20	120.00	350.0	125.0	0.0101	Open
P2710	J17_19	J18_19	120.00	350.0	125.0	0.0322	Open
P2711	J17_20	J17_21	120.00	150.0	140.0	0.0741	Open
P2712	J17_20	J18_20	120.00	150.0	140.0	0.0128	Open
P2713	J17_21	J17_22	120.00	100.0	130.0	0.1199	Open
P2714	J17_21	J18_21	120.00	150.0	140.0	0.1381	Open
P2715	J17_22	J17_23	120.00	100.0	130.0	0.1285	Open
P2716	J17_22	J18_22	120.00	100.0	135.0	0.0197	Open
P2717	J17_23	J17_24	120.00	250.0	130.0	0.1420	Open
P2718	J17_23	J18_23	120.00	100.0	135.0	0.0117	Open
P2719	J17_24	J17_25	120.00	100.0	125.0	0.0478	Open
P2720	J17_24	J18_24	120.00	300.0	125.0	0.0695	Open
P2721	J17_25	J17_26	120.00	100.0	135.0	0.0587	Open
P2722	J17_25	J18_25	120.00	300.0	130.0	0.1326	Open
P2723	J17_26	J17_27	120.00	200.0	125.0	0.0943	Open
P2724	J17_26	J18_26	120.00	200.0	140.0	0.0594	Open
P2725	J17_27	J17_28	120.00	200.0	130.0	0.0389	Open
P2726	J17_27	J18_27	120.00	250.0	125.0	0.0462	Open
P2727	J17_28	J17_29	120.00	600.0	130.0	0.0407	Open
P2728	J17_28	J18_28	120.00	300.0	125.0	0.0208	Open
P2729	J17_29	J17_30	120.00	300.0	140.0	0.0610	Open
P2730	J17_29	J18_29	120.00	300.0	130.0	0.0072	Open
P2731	J17_30	J17_31	120.00	250.0	140.0	0.0208	Open
P2732	J17_30	J18_30	120.00	300.0	135.0	0.0488	Open
P2733	J17_31	J17_32	120.00	200.0	125.0	0.0860	Open
P2734	J17_31	J18_31	120.00	300.0	125.0	0.0016	Open
P2735	J17_32	J17_33	120.00	200.0	140.0	0.1217	Open
P2736	J17_32	J18_32	120.00	150.0	140.0	0.0935	Open
P2737	J17_33	J17_34	120.00	250.0	135.0	0.1465	Open
P2738	J17_33	J18_33	120.00	300.0	130.0	0.0198	Open
P2739	J17_34	J17_35	120.00	150.0	130.0	0.0060	Open
P2740	J17_34	J18_34	120.00	300.0	125.0	0.0416	Open
P2741	J17_35	J17_36	120.00	150.0	140.0	0.1432	Open
P2742	J17_35	J18_35	120.00	300.0	130.0	0.1071	Open
P2743	J17_36	J17_37	120.00	200.0	135.0	0.0361	Open
P2744	J17_36	J18_36	120.00	300.0	130.0	0.1160	Open
P2745	J17_37	J17_38	120.00	600.0	130.0	0.0423	Open
P2746	J17_37	J18_37	120.00	450.0	120.0	0.0169	Open
P2747	J17_38	J17_39	120.00	100.0	130.0	0.0228	Open
P2748	J17_38	J18_38	120.00	100.0	140.0	0.1022	Open
P2749	J17_39	J17_40	120.00	200.0	140.0	0.0934	Open
P2750	J17_39	J18_39	120.00	250.0	140.0	0.0688	Open
P2751	J17_40	J17_41	120.00	250.0	125.0	0.0261	Open
P2752	J17_40	J18_40	120.00	300.0	125.0	0.0206	Open
P2753	J17_41	J17_42	120.00	250.0	125.0	0.1492	Open
P2754	J17_41	J18_41	120.00	150.0	130.0	0.1174	Open
P2755	J17_42	J17_43	120.00	300.0	125.0	0.0241	Open
P2756	J17_42	J18_42	120.00	300.0	140.0	0.0053	Open
P2757	J17_43	J17_44	120.00	300.0	130.0	0.0262	Open
P2758	J17_43	J18_43	120.00	150.0	130.0	0.1415	Open
P2759	J17_44	J17_45	120.00	300.0	135.0	0.0081	Open
P2760	J17_44	J18_44	120.00	250.0	135.0	0.0726	Open
P2761	J17_45	J17_46	120.00	300.0	125.0	0.0672	Open
P2762	J17_45	J18_45	120.00	200.0	125.0	0.1087	Open
P2763	J17_46	J17_47	120.00	350.0	130.0	0.0036	Open
P2764	J17_46	J18_46	120.00	450.0	125.0	0.0113	Open
P2765	J17_47	J17_48	120.00	150.0	135.0	0.0763	Open
P2766	J17_47	J18_47	120.00	100.0	125.0	0.1423	Open
P2767	J17_48	J17_49	120.00	100.0	140.0	0.0450	Open
P2768	J17_48	J18_48	120.00	300.0	130.0	0.0593	Open
P2769	J17_49	J17_50	120.00	300.0	140.0	0.0496	Open
P2770	J17_49	J18_49	120.00	150.0	140.0	0.0456	Open
P2771	J17_50	J17_51	120.00	200.0	135.0	0.1482	Open
P2772	J17_50	J18_50	120.00	100.0	130.0	0.0080	Open
P2773	J17_51	J17_52	120.00	150.0	130.0	0.0680	Open
P2774	J17_51	J18_51	120.00	300.0	130.0	0.0183	Open
P2775	J17_52	J17_53	120.00	250.0	140.0	0.1127	Open
P2776	J17_52	J18_52	120.00	150.0	125.0	0.0383	Open
P2777	J17_53	J17_54	120.00	300.0	125.0	0.0004	Open
P2778	J17_53	J18_53	120.00	250.0	140.0	0.1105	Open
P2779	J17_54	J17_55	120.00	150.0	130.0	0.0505	Open
P2780	J17_54	J18_54	120.00	100.0	130.0	0.0211	Open
P2781	J17_55	J17_56	120.00	350.0	125.0	0.0385	Open
P2782	J17_55	J18_55	120.00	350.0	125.0	0.0264	Open
P2783	J17_56	J17_57	120.00	300.0	135.0	0.1283	Open
P2784	J17_56	J18_56	120.00	200.0	125.0	0.0356	Open
P2785	J17_57	J17_58	120.00	300.0	140.0	0.0236	Open
P2786	J17_57	J18_57	120.00	300.0	130.0	0.0941	Open
P2787	J17_58	J17_59	120.00	300.0	140.0	0.0669	Open
P2788	J17_58	J18_58	120.00	150.0	130.0	0.1246	Open
P2789	J17_59	J17_60	120.00	150.0	130.0	0.0416	Open
P2790	J17_59	J18_59	120.00	100.0	130.0	0.0140	Open
P2791	J17_60	J17_61	120.00	250.0	135.0	0.0211	Open
P2792	J17_60	J18_60	120.00	100.0	135.0	0.0358	Open
P2793	J17_61	J17_62	120.00	300.0	130.0	0.0031	Open
P2794	J17_61	J18_61	120.00	150.0	130.0	0.1332	Open
P2795	J17_62	J17_63	120.00	250.0	140.0	0.0320	Open
P2796	J17_62	J18_62	120.00	100.0	130.0	0.1079	Open
P2797	J17_63	J17_64	120.00	300.0	140.0	0.1462	Open
P2798	J17_63	J18_63	120.00	200.0	135.0	0.1360	Open
P2799	J17_64	J17_65	120.00	450.0	125.0	0.0360	Open
P2800	J17_64	J18_64	120.00	300.0	120.0	0.0442	Open
P2801	J17_65	J17_66	120.00	150.0	140.0	0.0841	Open
P2802	J17_65	J18_65	120.00	300.0	135.0	0.0677	Open
P2803	J17_66	J17_67	120.00	250.0	135.0	0.0297	Open
P2804	J17_66	J18_66	120.00	200.0	130.0	0.1051	Open
P2805	J17_67	J17_68	120.00	100.0	125.0	0.0684	Open
P2806	J17_67	J18_67	120.00	100.0	130.0	0.1019	Open
P2807	J17_68	J17_69	120.00	150.0	135.0	0.0816	Open
P2808	J17_68	J18_68	120.00	200.0	135.0	0.0623	Open
P2809	J17_69	J17_70	120.00	100.0	130.0	0.0259	Open
P2810	J17_69	J18_69	120.00	250.0	125.0	0.0098	Open
P2811	J17_70	J17_71	120.00	200.0	125.0	0.1438	Open
P2812	J17_70	J18_70	120.00	100.0	125.0	0.0725	Open
P2813	J17_71	J17_72	120.00	300.0	130.0	0.1316	Open
P2814	J17_71	J18_71	120.00	200.0	140.0	0.0963	Open
P2815	J17_72	J17_73	120.00	300.0	125.0	0.0792	Open
P2816	J17_72	J18_72	120.00	300.0	125.0	0.0180	Open
P2817	J17_73	J17_74	120.00	600.0	120.0	0.0235	Open
P2818	J17_73	J18_73	120.00	600.0	125.0	0.0277	Open
P2819	J17_74	J17_75	120.00	150.0	130.0	0.1057	Open
P2820	J17_74	J18_74	120.00	150.0	130.0	0.1211	Open
P2821	J17_75	J17_76	120.00	100.0	130.0	0.0543	Open
P2822	J17_75	J18_75	120.00	150.0	130.0	0.0157	Open
P2823	J17_76	J17_77	120.00	300.0	130.0	0.0186	Open
P2824	J17_76	J18_76	120.00	200.0	125.0	0.0035	Open
P2825	J17_77	J17_78	120.00	100.0	140.0	0.0024	Open
P2826	J17_77	J18_77	120.00	250.0	125.0	0.0363	Open
P2827	J17_78	J17_79	120.00	200.0	140.0	0.1412	Open
P2828	J17_78	J18_78	120.00	250.0	135.0	0.0486	Open
P2829	J17_79	J17_80	120.00	200.0	125.0	0.1094	Open
P2830	J17_79	J18_79	120.00	250.0	125.0	0.0601	Open
P2831	J17_80	J17_81	120.00	150.0	125.0	0.0263	Open
P2832	J17_80	J18_80	120.00	250.0	140.0	0.0473	Open
P2833	J17_81	J17_82	120.00	300.0	135.0	0.1463	Open
P2834	J17_81	J18_81	120.00	100.0	135.0	0.0550	Open
P2835	J17_82	J17_83	120.00	350.0	120.0	0.0232	Open
P2836	J17_82	J18_82	120.00	400.0	120.0	0.0163	Open
P2837	J17_83	J17_84	120.00	100.0	135.0	0.0975	Open
P2838	J17_83	J18_83	120.00	300.0	135.0	0.1294	Open
P2839	J17_84	J18_84	120.00	300.0	125.0	0.1141	Open
P2840	J18_1	J18_2	120.00	450.0	125.0	0.0231	Open
P2841	J18_1	J19_1	120.00	500.0	130.0	0.0204	Open
P2842	J18_2	J18_3	120.00	100.0	130.0	0.0760	Open
P2843	J18_2	J19_2	120.00	150.0	140.0	0.0793	Open
P2844	J18_3	J18_4	120.00	150.0	140.0	0.1324	Open
P2845	J18_3	J19_3	120.00	200.0	135.0	0.0996	Open
P2846	J18_4	J18_5	120.00	200.0	140.0	0.0812	Open
P2847	J18_4	J19_4	120.00	200.0	135.0	0.1114	Open
P2848	J18_5	J18_6	120.00	100.0	130.0	0.0243	Open
P2849	J18_5	J19_5	120.00	150.0	140.0	0.1061	Open
P2850	J18_6	J18_7	120.00	250.0	130.0	0.0033	Open
P2851	J18_6	J19_6	120.00	150.0	140.0	0.1215	Open
P2852	J18_7	J18_8	120.00	250.0	135.0	0.1060	Open
P2853	J18_7	J19_7	120.00	100.0	135.0	0.0541	Open
P2854	J18_8	J18_9	120.00	100.0	125.0	0.0153	Open
P2855	J18_8	J19_8	120.00	200.0	135.0	0.0408	Open
P2856	J18_9	J18_10	120.00	250.0	135.0	0.0194	Open
P2857	J18_9	J19_9	120.00	150.0	125.0	0.1176	Open
P2858	J18_10	J18_11	120.00	600.0	125.0	0.0409	Open
P2859	J18_10	J19_10	120.00	500.0	120.0	0.0467	Open
P2860	J18_11	J18_12	120.00	100.0	135.0	0.1034	Open
P2861	J18_11	J19_11	120.00	200.0	125.0	0.0300	Open
P2862	J18_12	J18_13	120.00	100.0	125.0	0.0047	Open
P2863	J18_12	J19_12	120.00	100.0	140.0	0.0643	Open
P2864	J18_13	J18_14	120.00	200.0	125.0	0.0795	Open
P2865	J18_13	J19_13	120.00	200.0	135.0	0.0480	Open
P2866	J18_14	J18_15	120.00	250.0	140.0	0.0588	Open
P2867	J18_14	J19_14	120.00	100.0	140.0	0.0871	Open
P2868	J18_15	J18_16	120.00	100.0	135.0	0.1206	Open
P2869	J18_15	J19_15	120.00	200.0	135.0	0.0064	Open
P2870	J18_16	J18_17	120.00	200.0	140.0	0.0893	Open
P2871	J18_16	J19_16	120.00	200.0	125.0	0.0025	Open
P2872	J18_17	J18_18	120.00	150.0	130.0	0.1170	Open
P2873	J18_17	J19_17	120.00	100.0	135.0	0.1272	Open
P2874	J18_18	J18_19	120.00	100.0	140.0	0.0120	Open
P2875	J18_18	J19_18	120.00	150.0	135.0	0.1149	Open
P2876	J18_19	J18_20	120.00	400.0	120.0	0.0200	Open
P2877	J18_19	J19_19	120.00	300.0	125.0	0.0027	Open
P2878	J18_20	J18_21	120.00	150.0	130.0	0.0244	Open
P2879	J18_20	J19_20	120.00	250.0	130.0	0.0172	Open
P2880	J18_21	J18_22	120.00	150.0	130.0	0.0990	Open
P2881	J18_21	J19_21	120.00	100.0	140.0	0.1310	Open
P2882	J18_22	J18_23	120.00	250.0	140.0	0.1113	Open
P2883	J18_22	J19_22	120.00	100.0	140.0	0.0731	Open
P2884	J18_23	J18_24	120.00	300.0	135.0	0.0673	Open
P2885	J18_23	J19_23	120.00	200.0	140.0	0.0576	Open
P2886	J18_24	J18_25	120.00	200.0	125.0	0.0834	Open
P2887	J18_24	J19_24	120.00	150.0	130.0	0.0585	Open
P2888	J18_25	J18_26	120.00	300.0	130.0	0.0995	Open
P2889	J18_25	J19_25	120.00	250.0	135.0	0.0438	Open
P2890	J18_26	J18_27	120.00	250.0	140.0	0.1117	Open
P2891	J18_26	J19_26	120.00	200.0	125.0	0.0360	Open
P2892	J18_27	J18_28	120.00	100.0	135.0	0.1141	Open
P2893	J18_27	J19_27	120.00	250.0	125.0	0.1484	Open
P2894	J18_28	J18_29	120.00	600.0	125.0	0.0469	Open
P2895	J18_28	J19_28	120.00	300.0	120.0	0.0094	Open
P2896	J18_29	J18_30	120.00	150.0	135.0	0.1093	Open
P2897	J18_29	J19_29	120.00	150.0	140.0	0.0659	Open
P2898	J18_30	J18_31	120.00	150.0	130.0	0.1111	Open
P2899	J18_30	J19_30	120.00	300.0	140.0	0.0649	Open
P2900	J18_31	J18_32	120.00	100.0	140.0	0.1294	Open
P2901	J18_31	J19_31	120.00	100.0	140.0	0.0618	Open
P2902	J18_32	J18_33	120.00	200.0	135.0	0.0005	Open
P2903	J18_32	J19_32	120.00	300.0	135.0	0.0044	Open
P2904	J18_33	J18_34	120.00	200.0	135.0	0.0374	Open
P2905	J18_33	J19_33	120.00	150.0	140.0	0.1015	Open
P2906	J18_34	J18_35	120.00	300.0	125.0	0.0933	Open
P2907	J18_34	J19_34	120.00	200.0	135.0	0.0380	Open
P2908	J18_35	J18_36	120.00	250.0	140.0	0.0398	Open
P2909	J18_35	J19_35	120.00	300.0	135.0	0.1250	Open
P2910	J18_36	J18_37	120.00	200.0	135.0	0.1061	Open
P2911	J18_36	J19_36	120.00	200.0	125.0	0.1442	Open
P2912	J18_37	J18_38	120.00	300.0	130.0	0.0301	Open
P2913	J18_37	J19_37	120.00	500.0	130.0	0.0129	Open
P2914	J18_38	J18_39	120.00	300.0	140.0	0.0309	Open
P2915	J18_38	J19_38	120.00	100.0	135.0	0.0402	Open
P2916	J18_39	J18_40	120.00	100.0	135.0	0.0409	Open
P2917	J18_39	J19_39	120.00	200.0	125.0	0.0519	Open
P2918	J18_40	J18_41	120.00	300.0	125.0	0.0167	Open
P2919	J18_40	J19_40	120.00	100.0	130.0	0.1043	Open
P2920	J18_41	J18_42	120.00	200.0	125.0	0.0804	Open
P2921	J18_41	J19_41	120.00	150.0	130.0	0.1370	Open
P2922	J18_42	J18_43	120.00	300.0	135.0	0.0161	Open
P2923	J18_42	J19_42	120.00	300.0	135.0	0.1217	Open
P2924	J18_43	J18_44	120.00	200.0	135.0	0.0154	Open
P2925	J18_43	J19_43	120.00	200.0	125.0	0.0313	Open
P2926	J18_44	J18_45	120.00	200.0	130.0	0.0743	Open
P2927	J18_44	J19_44	120.00	250.0	140.0	0.0940	Open
P2928	J18_45	J18_46	120.00	200.0	135.0	0.0091	Open
P2929	J18_45	J19_45	120.00	150.0	140.0	0.0633	Open
P2930	J18_46	J18_47	120.00	600.0	130.0	0.0424	Open
P2931	J18_46	J19_46	120.00	600.0	130.0	0.0453	Open
P2932	J18_47	J18_48	120.00	100.0	140.0	0.1311	Open
P2933	J18_47	J19_47	120.00	150.0	125.0	0.0227	Open
P2934	J18_48	J18_49	120.00	150.0	135.0	0.1476	Open
P2935	J18_48	J19_48	120.00	100.0	130.0	0.0262	Open
P2936	J18_49	J18_50	120.00	100.0	135.0	0.0033	Open
P2937	J18_49	J19_49	120.00	100.0	125.0	0.1084	Open
P2938	J18_50	J18_51	120.00	150.0	135.0	0.0833	Open
P2939	J18_50	J19_50	120.00	100.0	140.0	0.0137	Open
P2940	J18_51	J18_52	120.00	150.0	125.0	0.0931	Open
P2941	J18_51	J19_51	120.00	300.0	125.0	0.1101	Open
P2942	J18_52	J18_53	120.00	200.0	125.0	0.1268	Open
P2943	J18_52	J19_52	120.00	200.0	130.0	0.0646	Open
P2944	J18_53	J18_54	120.00	150.0	135.0	0.0472	Open
P2945	J18_53	J19_53	120.00	250.0	140.0	0.0958	Open
P2946	J18_54	J18_55	120.00	300.0	130.0	0.0191	Open
P2947	J18_54	J19_54	120.00	200.0	140.0	0.1480	Open
P2948	J18_55	J18_56	120.00	400.0	130.0	0.0144	Open
P2949	J18_55	J19_55	120.00	400.0	130.0	0.0323	Open
P2950	J18_56	J18_57	120.00	150.0	125.0	0.1200	Open
P2951	J18_56	J19_56	120.00	200.0	135.0	0.0825	Open
P2952	J18_57	J18_58	120.00	300.0	140.0	0.1135	Open
P2953	J18_57	J19_57	120.00	100.0	125.0	0.0322	Open
P2954	J18_58	J18_59	120.00	300.0	125.0	0.1121	Open
P2955	J18_58	J19_58	120.00	100.0	140.0	0.1388	Open
P2956	J18_59	J18_60	120.00	200.0	125.0	0.1244	Open
P2957	J18_59	J19_59	120.00	300.0	135.0	0.1121	Open
P2958	J18_60	J18_61	120.00	200.0	130.0	0.0343	Open
P2959	J18_60	J19_60	120.00	100.0	125.0	0.0894	Open
P2960	J18_61	J18_62	120.00	150.0	125.0	0.1041	Open
P2961	J18_61	J19_61	120.00	150.0	125.0	0.1167	Open
P2962	J18_62	J18_63	120.00	200.0	135.0	0.0565	Open
P2963	J18_62	J19_62	120.00	250.0	125.0	0.0026	Open
P2964	J18_63	J18_64	120.00	250.0	140.0	0.1010	Open
P2965	J18_63	J19_63	120.00	100.0	130.0	0.0195	Open
P2966	J18_64	J18_65	120.00	400.0	130.0	0.0288	Open
P2967	J18_64	J19_64	120.00	400.0	130.0	0.0268	Open
P2968	J18_65	J18_66	120.00	300.0	125.0	0.0945	Open
P2969	J18_65	J19_65	120.00	250.0	140.0	0.0797	Open
P2970	J18_66	J18_67	120.00	100.0	140.0	0.0009	Open
P2971	J18_66	J19_66	120.00	300.0	125.0	0.0634	Open
P2972	J18_67	J18_68	120.00	100.0	140.0	0.0284	Open
P2973	J18_67	J19_67	120.00	250.0	125.0	0.0275	Open
P2974	J18_68	J18_69	120.00	250.0	140.0	0.0681	Open
P2975	J18_68	J19_68	120.00	300.0	135.0	0.0797	Open
P2976	J18_69	J18_70	120.00	200.0	130.0	0.0591	Open
P2977	J18_69	J19_69	120.00	200.0	135.0	0.0008	Open
P2978	J18_70	J18_71	120.00	200.0	130.0	0.0235	Open
P2979	J18_70	J19_70	120.00	200.0	140.0	0.1235	Open
P2980	J18_71	J18_72	120.00	150.0	140.0	0.0310	Open
P2981	J18_71	J19_71	120.00	150.0	140.0	0.0907	Open
P2982	J18_72	J18_73	120.00	300.0	130.0	0.0443	Open
P2983	J18_72	J19_72	120.00	300.0	140.0	0.0269	Open
P2984	J18_73	J18_74	120.00	350.0	125.0	0.0294	Open
P2985	J18_73	J19_73	120.00	400.0	130.0	0.0224	Open
P2986	J18_74	J18_75	120.00	300.0	125.0	0.0952	Open
P2987	J18_74	J19_74	120.00	200.0	135.0	0.1474	Open
P2988	J18_75	J18_76	120.00	150.0	130.0	0.0854	Open
P2989	J18_75	J19_75	120.00	100.0	125.0	0.0860	Open
P2990	J18_76	J18_77	120.00	100.0	140.0	0.0713	Open
P2991	J18_76	J19_76	120.00	100.0	130.0	0.1143	Open
P2992	J18_77	J18_78	120.00	200.0	130.0	0.1342	Open
P2993	J18_77	J19_77	120.00	200.0	130.0	0.1235	Open
P2994	J18_78	J18_79	120.00	250.0	130.0	0.1480	Open
P2995	J18_78	J19_78	120.00	200.0	130.0	0.0468	Open
P2996	J18_79	J18_80	120.00	150.0	140.0	0.1025	Open
P2997	J18_79	J19_79	120.00	250.0	125.0	0.1214	Open
P2998	J18_80	J18_81	120.00	200.0	135.0	0.0873	Open
P2999	J18_80	J19_80	120.00	100.0	130.0	0.0792	Open
P3000	J18_81	J18_82	120.00	300.0	130.0	0.1481	Open
P3001	J18_81	J19_81	120.00	250.0	125.0	0.0016	Open
P3002	J18_82	J18_83	120.00	600.0	130.0	0.0270	Open
P3003	J18_82	J19_82	120.00	450.0	120.0	0.0223	Open
P3004	J18_83	J18_84	120.00	250.0	135.0	0.1352	Open
P3005	J18_83	J19_83	120.00	100.0	125.0	0.1236	Open
P3006	J18_84	J19_84	120.00	150.0	130.0	0.1411	Open
P3007	J19_1	J19_2	120.00	400.0	125.0	0.0162	Open
P3008	J19_1	J20_1	120.00	300.0	125.0	0.0152	Open
P3009	J19_2	J19_3	120.00	500.0	130.0	0.0237	Open
P3010	J19_2	J20_2	120.00	600.0	120.0	0.0308	Open
P3011	J19_3	J19_4	120.00	500.0	120.0	0.0126	Open
P3012	J19_3	J20_3	120.00	500.0	120.0	0.0089	Open
P3013	J19_4	J19_5	120.00	400.0	130.0	0.0407	Open
P3014	J19_4	J20_4	120.00	300.0	130.0	0.0450	Open
P3015	J19_5	J19_6	120.00	400.0	130.0	0.0276	Open
P3016	J19_5	J20_5	120.00	350.0	125.0	0.0185	Open
P3017	J19_6	J19_7	120.00	500.0	120.0	0.0241	Open
P3018	J19_6	J20_6	120.00	400.0	120.0	0.0414	Open
P3019	J19_7	J19_8	120.00	350.0	120.0	0.0494	Open
P3020	J19_7	J20_7	120.00	300.0	130.0	0.0370	Open
P3021	J19_8	J19_9	120.00	450.0	125.0	0.0101	Open
P3022	J19_8	J20_8	120.00	300.0	120.0	0.0316	Open
P3023	J19_9	J19_10	120.00	500.0	120.0	0.0481	Open
P3024	J19_9	J20_9	120.00	500.0	120.0	0.0498	Open
P3025	J19_10	J19_11	120.00	600.0	125.0	0.0151	Open
P3026	J19_10	J20_10	120.00	400.0	120.0	0.0009	Open
P3027	J19_11	J19_12	120.00	300.0	125.0	0.0325	Open
P3028	J19_11	J20_11	120.00	500.0	125.0	0.0379	Open
P3029	J19_12	J19_13	120.00	600.0	120.0	0.0269	Open
P3030	J19_12	J20_12	120.00	350.0	125.0	0.0430	Open
P3031	J19_13	J19_14	120.00	600.0	120.0	0.0488	Open
P3032	J19_13	J20_13	120.00	450.0	125.0	0.0123	Open
P3033	J19_14	J19_15	120.00	350.0	125.0	0.0238	Open
P3034	J19_14	J20_14	120.00	450.0	125.0	0.0230	Open
P3035	J19_15	J19_16	120.00	450.0	120.0	0.0280	Open
P3036	J19_15	J20_15	120.00	600.0	125.0	0.0013	Open
P3037	J19_16	J19_17	120.00	500.0	130.0	0.0291	Open
P3038	J19_16	J20_16	120.00	350.0	120.0	0.0083	Open
P3039	J19_17	J19_18	120.00	450.0	130.0	0.0314	Open
P3040	J19_17	J20_17	120.00	350.0	120.0	0.0095	Open
P3041	J19_18	J19_19	120.00	500.0	130.0	0.0129	Open
P3042	J19_18	J20_18	120.00	350.0	125.0	0.0360	Open
P3043	J19_19	J19_20	120.00	450.0	120.0	0.0034	Open
P3044	J19_19	J20_19	120.00	300.0	120.0	0.0235	Open
P3045	J19_20	J19_21	120.00	300.0	130.0	0.0136	Open
P3046	J19_20	J20_20	120.00	300.0	125.0	0.0294	Open
P3047	J19_21	J19_22	120.00	600.0	125.0	0.0172	Open
P3048	J19_21	J20_21	120.00	350.0	125.0	0.0258	Open
P3049	J19_22	J19_23	120.00	500.0	130.0	0.0163	Open
P3050	J19_22	J20_22	120.00	600.0	125.0	0.0062	Open
P3051	J19_23	J19_24	120.00	600.0	130.0	0.0237	Open
P3052	J19_23	J20_23	120.00	500.0	125.0	0.0468	Open
P3053	J19_24	J19_25	120.00	500.0	130.0	0.0187	Open
P3054	J19_24	J20_24	120.00	350.0	130.0	0.0468	Open
P3055	J19_25	J19_26	120.00	500.0	125.0	0.0458	Open
P3056	J19_25	J20_25	120.00	450.0	130.0	0.0180	Open
P3057	J19_26	J19_27	120.00	300.0	120.0	0.0343	Open
P3058	J19_26	J20_26	120.00	500.0	125.0	0.0123	Open
P3059	J19_27	J19_28	120.00	500.0	125.0	0.0168	Open
P3060	J19_27	J20_27	120.00	350.0	130.0	0.0031	Open
P3061	J19_28	J19_29	120.00	600.0	125.0	0.0101	Open
P3062	J19_28	J20_28	120.00	300.0	130.0	0.0004	Open
P3063	J19_29	J19_30	120.00	600.0	130.0	0.0405	Open
P3064	J19_29	J20_29	120.00	350.0	125.0	0.0122	Open
P3065	J19_30	J19_31	120.00	350.0	125.0	0.0248	Open
P3066	J19_30	J20_30	120.00	400.0	125.0	0.0149	Open
P3067	J19_31	J19_32	120.00	500.0	125.0	0.0436	Open
P3068	J19_31	J20_31	120.00	500.0	125.0	0.0432	Open
P3069	J19_32	J19_33	120.00	500.0	120.0	0.0471	Open
P3070	J19_32	J20_32	120.00	500.0	120.0	0.0049	Open
P3071	J19_33	J19_34	120.00	400.0	130.0	0.0292	Open
P3072	J19_33	J20_33	120.00	450.0	125.0	0.0381	Open
P3073	J19_34	J19_35	120.00	500.0	125.0	0.0479	Open
P3074	J19_34	J20_34	120.00	350.0	125.0	0.0048	Open
P3075	J19_35	J19_36	120.00	450.0	120.0	0.0163	Open
P3076	J19_35	J20_35	120.00	400.0	125.0	0.0328	Open
P3077	J19_36	J19_37	120.00	350.0	120.0	0.0019	Open
P3078	J19_36	J20_36	120.00	350.0	125.0	0.0299	Open
P3079	J19_37	J19_38	120.00	500.0	125.0	0.0454	Open
P3080	J19_37	J20_37	120.00	400.0	125.0	0.0339	Open
P3081	J19_38	J19_39	120.00	450.0	125.0	0.0456	Open
P3082	J19_38	J20_38	120.00	350.0	125.0	0.0007	Open
P3083	J19_39	J19_40	120.00	400.0	130.0	0.0356	Open
P3084	J19_39	J20_39	120.00	500.0	120.0	0.0046	Open
P3085	J19_40	J19_41	120.00	450.0	120.0	0.0189	Open
P3086	J19_40	J20_40	120.00	400.0	130.0	0.0353	Open
P3087	J19_41	J19_42	120.00	300.0	125.0	0.0064	Open
P3088	J19_41	J20_41	120.00	450.0	120.0	0.0403	Open
P3089	J19_42	J19_43	120.00	350.0	125.0	0.0118	Open
P3090	J19_42	J20_42	120.00	350.0	130.0	0.0266	Open
P3091	J19_43	J19_44	120.00	300.0	130.0	0.0282	Open
P3092	J19_43	J20_43	120.00	300.0	130.0	0.0315	Open
P3093	J19_44	J19_45	120.00	450.0	125.0	0.0457	Open
P3094	J19_44	J20_44	120.00	350.0	120.0	0.0200	Open
P3095	J19_45	J19_46	120.00	450.0	120.0	0.0419	Open
P3096	J19_45	J20_45	120.00	500.0	125.0	0.0246	Open
P3097	J19_46	J19_47	120.00	400.0	130.0	0.0005	Open
P3098	J19_46	J20_46	120.00	600.0	130.0	0.0329	Open
P3099	J19_47	J19_48	120.00	500.0	120.0	0.0135	Open
P3100	J19_47	J20_47	120.00	450.0	130.0	0.0318	Open
P3101	J19_48	J19_49	120.00	600.0	130.0	0.0131	Open
P3102	J19_48	J20_48	120.00	500.0	120.0	0.0265	Open
P3103	J19_49	J19_50	120.00	350.0	120.0	0.0043	Open
P3104	J19_49	J20_49	120.00	600.0	125.0	0.0224	Open
P3105	J19_50	J19_51	120.00	450.0	120.0	0.0498	Open
P3106	J19_50	J20_50	120.00	500.0	125.0	0.0034	Open
P3107	J19_51	J19_52	120.00	300.0	125.0	0.0127	Open
P3108	J19_51	J20_51	120.00	450.0	125.0	0.0216	Open
P3109	J19_52	J19_53	120.00	500.0	130.0	0.0219	Open
P3110	J19_52	J20_52	120.00	500.0	125.0	0.0044	Open
P3111	J19_53	J19_54	120.00	300.0	130.0	0.0321	Open
P3112	J19_53	J20_53	120.00	500.0	120.0	0.0349	Open
P3113	J19_54	J19_55	120.00	300.0	130.0	0.0240	Open
P3114	J19_54	J20_54	120.00	400.0	125.0	0.0001	Open
P3115	J19_55	J19_56	120.00	400.0	130.0	0.0274	Open
P3116	J19_55	J20_55	120.00	500.0	120.0	0.0040	Open
P3117	J19_56	J19_57	120.00	450.0	120.0	0.0087	Open
P3118	J19_56	J20_56	120.00	300.0	125.0	0.0124	Open
P3119	J19_57	J19_58	120.00	350.0	125.0	0.0459	Open
P3120	J19_57	J20_57	120.00	400.0	130.0	0.0179	Open
P3121	J19_58	J19_59	120.00	350.0	120.0	0.0466	Open
P3122	J19_58	J20_58	120.00	350.0	120.0	0.0123	Open
P3123	J19_59	J19_60	120.00	600.0	120.0	0.0486	Open
P3124	J19_59	J20_59	120.00	300.0	120.0	0.0284	Open
P3125	J19_60	J19_61	120.00	450.0	125.0	0.0212	Open
P3126	J19_60	J20_60	120.00	300.0	125.0	0.0089	Open
P3127	J19_61	J19_62	120.00	450.0	120.0	0.0444	Open
P3128	J19_61	J20_61	120.00	500.0	120.0	0.0497	Open
P3129	J19_62	J19_63	120.00	350.0	120.0	0.0125	Open
P3130	J19_62	J20_62	120.00	500.0	120.0	0.0360	Open
P3131	J19_63	J19_64	120.00	600.0	125.0	0.0137	Open
P3132	J19_63	J20_63	120.00	600.0	125.0	0.0223	Open
P3133	J19_64	J19_65	120.00	300.0	120.0	0.0417	Open
P3134	J19_64	J20_64	120.00	450.0	130.0	0.0267	Open
P3135	J19_65	J19_66	120.00	600.0	120.0	0.0140	Open
P3136	J19_65	J20_65	120.00	350.0	130.0	0.0055	Open
P3137	J19_66	J19_67	120.00	400.0	130.0	0.0163	Open
P3138	J19_66	J20_66	120.00	500.0	130.0	0.0326	Open
P3139	J19_67	J19_68	120.00	600.0	120.0	0.0168	Open
P3140	J19_67	J20_67	120.00	500.0	120.0	0.0294	Open
P3141	J19_68	J19_69	120.00	350.0	130.0	0.0193	Open
P3142	J19_68	J20_68	120.00	300.0	130.0	0.0248	Open
P3143	J19_69	J19_70	120.00	600.0	120.0	0.0266	Open
P3144	J19_69	J20_69	120.00	500.0	130.0	0.0170	Open
P3145	J19_70	J19_71	120.00	600.0	130.0	0.0156	Open
P3146	J19_70	J20_70	120.00	450.0	120.0	0.0178	Open
P3147	J19_71	J19_72	120.00	300.0	130.0	0.0006	Open
P3148	J19_71	J20_71	120.00	300.0	125.0	0.0225	Open
P3149	J19_72	J19_73	120.00	500.0	125.0	0.0337	Open
P3150	J19_72	J20_72	120.00	600.0	120.0	0.0299	Open
P3151	J19_73	J19_74	120.00	400.0	125.0	0.0208	Open
P3152	J19_73	J20_73	120.00	500.0	130.0	0.0426	Open
P3153	J19_74	J19_75	120.00	500.0	130.0	0.0322	Open
P3154	J19_74	J20_74	120.00	600.0	120.0	0.0351	Open
P3155	J19_75	J19_76	120.00	300.0	125.0	0.0037	Open
P3156	J19_75	J20_75	120.00	500.0	125.0	0.0399	Open
P3157	J19_76	J19_77	120.00	350.0	125.0	0.0332	Open
P3158	J19_76	J20_76	120.00	350.0	130.0	0.0481	Open
P3159	J19_77	J19_78	120.00	300.0	130.0	0.0145	Open
P3160	J19_77	J20_77	120.00	400.0	120.0	0.0158	Open
P3161	J19_78	J19_79	120.00	600.0	125.0	0.0047	Open
P3162	J19_78	J20_78	120.00	450.0	125.0	0.0309	Open
P3163	J19_79	J19_80	120.00	500.0	125.0	0.0036	Open
P3164	J19_79	J20_79	120.00	450.0	125.0	0.0027	Open
P3165	J19_80	J19_81	120.00	500.0	120.0	0.0406	Open
P3166	J19_80	J20_80	120.00	350.0	125.0	0.0388	Open
P3167	J19_81	J19_82	120.00	350.0	125.0	0.0056	Open
P3168	J19_81	J20_81	120.00	300.0	130.0	0.0130	Open
P3169	J19_82	J19_83	120.00	400.0	120.0	0.0061	Open
P3170	J19_82	J20_82	120.00	450.0	120.0	0.0464	Open
P3171	J19_83	J19_84	120.00	400.0	125.0	0.0208	Open
P3172	J19_83	J20_83	120.00	450.0	130.0	0.0317	Open
P3173	J19_84	J20_84	120.00	400.0	120.0	0.0406	Open
P3174	J20_1	J20_2	120.00	300.0	130.0	0.0290	Open
P3175	J20_1	J21_1	120.00	600.0	130.0	0.0466	Open
P3176	J20_2	J20_3	120.00	200.0	125.0	0.0572	Open
P3177	J20_2	J21_2	120.00	200.0	135.0	0.0212	Open
P3178	J20_3	J20_4	120.00	300.0	125.0	0.1243	Open
P3179	J20_3	J21_3	120.00	250.0	140.0	0.1493	Open
P3180	J20_4	J20_5	120.00	150.0	125.0	0.0745	Open
P3181	J20_4	J21_4	120.00	150.0	135.0	0.0237	Open
P3182	J20_5	J20_6	120.00	150.0	125.0	0.1338	Open
P3183	J20_5	J21_5	120.00	150.0	135.0	0.0618	Open
P3184	J20_6	J20_7	120.00	100.0	140.0	0.1193	Open
P3185	J20_6	J21_6	120.00	150.0	125.0	0.0059	Open
P3186	J20_7	J20_8	120.00	300.0	140.0	0.0178	Open
P3187	J20_7	J21_7	120.00	250.0	130.0	0.0211	Open
P3188	J20_8	J20_9	120.00	250.0	140.0	0.0880	Open
P3189	J20_8	J21_8	120.00	250.0	130.0	0.0709	Open
P3190	J20_9	J20_10	120.00	250.0	135.0	0.1420	Open
P3191	J20_9	J21_9	120.00	150.0	140.0	0.1349	Open
P3192	J20_10	J20_11	120.00	350.0	130.0	0.0317	Open
P3193	J20_10	J21_10	120.00	350.0	130.0	0.0151	Open
P3194	J20_11	J20_12	120.00	200.0	140.0	0.0941	Open
P3195	J20_11	J21_11	120.00	100.0	125.0	0.0807	Open
P3196	J20_12	J20_13	120.00	250.0	130.0	0.0144	Open
P3197	J20_12	J21_12	120.00	150.0	135.0	0.0065	Open
P3198	J20_13	J20_14	120.00	150.0	130.0	0.1211	Open
P3199	J20_13	J21_13	120.00	250.0	130.0	0.0542	Open
P3200	J20_14	J20_15	120.00	200.0	135.0	0.0103	Open
P3201	J20_14	J21_14	120.00	150.0	130.0	0.1004	Open
P3202	J20_15	J20_16	120.00	150.0	140.0	0.0876	Open
P3203	J20_15	J21_15	120.00	250.0	125.0	0.0190	Open
P3204	J20_16	J20_17	120.00	300.0	135.0	0.0053	Open
P3205	J20_16	J21_16	120.00	200.0	130.0	0.0600	Open
P3206	J20_17	J20_18	120.00	250.0	135.0	0.1360	Open
P3207	J20_17	J21_17	120.00	100.0	130.0	0.0443	Open
P3208	J20_18	J20_19	120.00	300.0	140.0	0.0256	Open
P3209	J20_18	J21_18	120.00	100.0	130.0	0.1459	Open
P3210	J20_19	J20_20	120.00	300.0	125.0	0.0128	Open
P3211	J20_19	J21_19	120.00	400.0	120.0	0.0046	Open
P3212	J20_20	J20_21	120.00	300.0	130.0	0.0233	Open
P3213	J20_20	J21_20	120.00	300.0	125.0	0.1026	Open
P3214	J20_21	J20_22	120.00	250.0	140.0	0.0977	Open
P3215	J20_21	J21_21	120.00	100.0	125.0	0.1487	Open
P3216	J20_22	J20_23	120.00	300.0	140.0	0.1387	Open
P3217	J20_22	J21_22	120.00	300.0	135.0	0.1232	Open
P3218	J20_23	J20_24	120.00	150.0	130.0	0.0670	Open
P3219	J20_23	J21_23	120.00	150.0	130.0	0.0322	Open
P3220	J20_24	J20_25	120.00	100.0	135.0	0.1412	Open
P3221	J20_24	J21_24	120.00	100.0	135.0	0.0174	Open
P3222	J20_25	J20_26	120.00	200.0	125.0	0.0947	Open
P3223	J20_25	J21_25	120.00	200.0	125.0	0.0383	Open
P3224	J20_26	J20_27	120.00	300.0	140.0	0.0398	Open
P3225	J20_26	J21_26	120.00	100.0	125.0	0.0000	Open
P3226	J20_27	J20_28	120.00	100.0	135.0	0.1384	Open
P3227	J20_27	J21_27	120.00	300.0	135.0	0.0930	Open
P3228	J20_28	J20_29	120.00	300.0	130.0	0.0318	Open
P3229	J20_28	J21_28	120.00	500.0	120.0	0.0475	Open
P3230	J20_29	J20_30	120.00	200.0	130.0	0.1446	Open
P3231	J20_29	J21_29	120.00	250.0	140.0	0.1360	Open
P3232	J20_30	J20_31	120.00	250.0	135.0	0.0227	Open
P3233	J20_30	J21_30	120.00	100.0	130.0	0.0664	Open
P3234	J20_31	J20_32	120.00	300.0	130.0	0.0459	Open
P3235	J20_31	J21_31	120.00	100.0	130.0	0.0397	Open
P3236	J20_32	J20_33	120.00	300.0	135.0	0.0803	Open
P3237	J20_32	J21_32	120.00	150.0	135.0	0.1089	Open
P3238	J20_33	J20_34	120.00	200.0	130.0	0.0538	Open
P3239	J20_33	J21_33	120.00	100.0	130.0	0.1429	Open
P3240	J20_34	J20_35	120.00	200.0	140.0	0.1181	Open
P3241	J20_34	J21_34	120.00	150.0	140.0	0.1031	Open
P3242	J20_35	J20_36	120.00	200.0	140.0	0.1020	Open
P3243	J20_35	J21_35	120.00	100.0	135.0	0.1159	Open
P3244	J20_36	J20_37	120.00	300.0	135.0	0.0239	Open
P3245	J20_36	J21_36	120.00	200.0	125.0	0.0749	Open
P3246	J20_37	J20_38	120.00	400.0	125.0	0.0425	Open
P3247	J20_37	J21_37	120.00	600.0	125.0	0.0301	Open
P3248	J20_38	J20_39	120.00	300.0	135.0	0.0089	Open
P3249	J20_38	J21_38	120.00	100.0	125.0	0.1321	Open
P3250	J20_39	J20_40	120.00	250.0	140.0	0.0327	Open
P3251	J20_39	J21_39	120.00	200.0	130.0	0.0092	Open
P3252	J20_40	J20_41	120.00	300.0	125.0	0.0894	Open
P3253	J20_40	J21_40	120.00	250.0	125.0	0.0897	Open
P3254	J20_41	J20_42	120.00	150.0	125.0	0.1060	Open
P3255	J20_41	J21_41	120.00	200.0	140.0	0.0829	Open
P3256	J20_42	J20_43	120.00	100.0	125.0	0.1037	Open
P3257	J20_42	J21_42	120.00	100.0	140.0	0.0498	Open
P3258	J20_43	J20_44	120.00	150.0	135.0	0.1358	Open
P3259	J20_43	J21_43	120.00	250.0	130.0	0.1399	Open
P3260	J20_44	J20_45	120.00	150.0	140.0	0.1339	Open
P3261	J20_44	J21_44	120.00	300.0	130.0	0.0519	Open
P3262	J20_45	J20_46	120.00	250.0	140.0	0.1408	Open
P3263	J20_45	J21_45	120.00	150.0	135.0	0.0894	Open
P3264	J20_46	J20_47	120.00	300.0	120.0	0.0193	Open
P3265	J20_46	J21_46	120.00	600.0	130.0	0.0434	Open
P3266	J20_47	J20_48	120.00	150.0	125.0	0.0814	Open
P3267	J20_47	J21_47	120.00	100.0	135.0	0.1307	Open
P3268	J20_48	J20_49	120.00	300.0	130.0	0.0872	Open
P3269	J20_48	J21_48	120.00	150.0	135.0	0.0299	Open
P3270	J20_49	J20_50	120.00	150.0	130.0	0.0837	Open
P3271	J20_49	J21_49	120.00	300.0	135.0	0.1490	Open
P3272	J20_50	J20_51	120.00	250.0	140.0	0.0400	Open
P3273	J20_50	J21_50	120.00	150.0	140.0	0.0601	Open
P3274	J20_51	J20_52	120.00	150.0	130.0	0.0910	Open
P3275	J20_51	J21_51	120.00	100.0	140.0	0.0845	Open
P3276	J20_52	J20_53	120.00	300.0	140.0	0.0337	Open
P3277	J20_52	J21_52	120.00	250.0	135.0	0.1307	Open
P3278	J20_53	J20_54	120.00	150.0	135.0	0.1207	Open
P3279	J20_53	J21_53	120.00	250.0	125.0	0.0871	Open
P3280	J20_54	J20_55	120.00	100.0	135.0	0.0805	Open
P3281	J20_54	J21_54	120.00	150.0	140.0	0.1074	Open
P3282	J20_55	J20_56	120.00	600.0	125.0	0.0172	Open
P3283	J20_55	J21_55	120.00	400.0	130.0	0.0462	Open
P3284	J20_56	J20_57	120.00	200.0	135.0	0.0913	Open
P3285	J20_56	J21_56	120.00	250.0	125.0	0.0495	Open
P3286	J20_57	J20_58	120.00	200.0	140.0	0.1143	Open
P3287	J20_57	J21_57	120.00	300.0	140.0	0.0718	Open
P3288	J20_58	J20_59	120.00	150.0	125.0	0.0991	Open
P3289	J20_58	J21_58	120.00	300.0	130.0	0.0928	Open
P3290	J20_59	J20_60	120.00	250.0	135.0	0.0379	Open
P3291	J20_59	J21_59	120.00	300.0	125.0	0.0696	Open
P3292	J20_60	J20_61	120.00	200.0	140.0	0.1063	Open
P3293	J20_60	J21_60	120.00	250.0	135.0	0.0137	Open
P3294	J20_61	J20_62	120.00	200.0	135.0	0.0244	Open
P3295	J20_61	J21_61	120.00	300.0	140.0	0.1250	Open
P3296	J20_62	J20_63	120.00	300.0	140.0	0.0360	Open
P3297	J20_62	J21_62	120.00	250.0	125.0	0.0186	Open
P3298	J20_63	J20_64	120.00	200.0	125.0	0.0967	Open
P3299	J20_63	J21_63	120.00	300.0	130.0	0.1382	Open
P3300	J20_64	J20_65	120.00	450.0	120.0	0.0184	Open
P3301	J20_64	J21_64	120.00	600.0	125.0	0.0087	Open
P3302	J20_65	J20_66	120.00	250.0	135.0	0.0943	Open
P3303	J20_65	J21_65	120.00	200.0	140.0	0.0853	Open
P3304	J20_66	J20_67	120.00	300.0	140.0	0.1344	Open
P3305	J20_66	J21_66	120.00	200.0	125.0	0.0621	Open
P3306	J20_67	J20_68	120.00	250.0	125.0	0.0219	Open
P3307	J20_67	J21_67	120.00	300.0	130.0	0.0766	Open
P3308	J20_68	J20_69	120.00	200.0	125.0	0.1359	Open
P3309	J20_68	J21_68	120.00	300.0	140.0	0.1051	Open
P3310	J20_69	J20_70	120.00	200.0	130.0	0.0485	Open
P3311	J20_69	J21_69	120.00	300.0	125.0	0.1112	Open
P3312	J20_70	J20_71	120.00	150.0	140.0	0.1404	Open
P3313	J20_70	J21_70	120.00	250.0	130.0	0.0762	Open
P3314	J20_71	J20_72	120.00	300.0	125.0	0.0579	Open
P3315	J20_71	J21_71	120.00	150.0	125.0	0.0660	Open
P3316	J20_72	J20_73	120.00	300.0	125.0	0.0333	Open
P3317	J20_72	J21_72	120.00	250.0	135.0	0.0947	Open
P3318	J20_73	J20_74	120.00	300.0	125.0	0.0269	Open
P3319	J20_73	J21_73	120.00	300.0	125.0	0.0063	Open
P3320	J20_74	J20_75	120.00	100.0	135.0	0.0170	Open
P3321	J20_74	J21_74	120.00	100.0	130.0	0.1071	Open
P3322	J20_75	J20_76	120.00	100.0	130.0	0.1354	Open
P3323	J20_75	J21_75	120.00	300.0	125.0	0.1375	Open
P3324	J20_76	J20_77	120.00	200.0	130.0	0.1262	Open
P3325	J20_76	J21_76	120.00	200.0	140.0	0.0675	Open
P3326	J20_77	J20_78	120.00	250.0	130.0	0.0869	Open
P3327	J20_77	J21_77	120.00	200.0	125.0	0.0418	Open
P3328	J20_78	J20_79	120.00	300.0	135.0	0.0128	Open
P3329	J20_78	J21_78	120.00	300.0	140.0	0.1163	Open
P3330	J20_79	J20_80	120.00	150.0	135.0	0.0407	Open
P3331	J20_79	J21_79	120.00	150.0	130.0	0.0643	Open
P3332	J20_80	J20_81	120.00	200.0	135.0	0.1407	Open
P3333	J20_80	J21_80	120.00	300.0	135.0	0.0400	Open
P3334	J20_81	J20_82	120.00	250.0	130.0	0.0789	Open
P3335	J20_81	J21_81	120.00	200.0	130.0	0.0535	Open
P3336	J20_82	J20_83	120.00	600.0	120.0	0.0395	Open
P3337	J20_82	J21_82	120.00	450.0	125.0	0.0256	Open
P3338	J20_83	J20_84	120.00	150.0	130.0	0.0041	Open
P3339	J20_83	J21_83	120.00	300.0	135.0	0.0689	Open
P3340	J20_84	J21_84	120.00	300.0	130.0	0.0918	Open
P3341	J21_1	J21_2	120.00	350.0	125.0	0.0494	Open
P3342	J21_1	J22_1	120.00	350.0	130.0	0.0284	Open
P3343	J21_2	J21_3	120.00	250.0	125.0	0.0701	Open
P3344	J21_2	J22_2	120.00	250.0	135.0	0.1227	Open
P3345	J21_3	J21_4	120.00	200.0	140.0	0.0648	Open
P3346	J21_3	J22_3	120.00	200.0	135.0	0.1322	Open
P3347	J21_4	J21_5	120.00	150.0	140.0	0.0990	Open
P3348	J21_4	J22_4	120.00	100.0	135.0	0.0139	Open
P3349	J21_5	J21_6	120.00	100.0	135.0	0.0612	Open
P3350	J21_5	J22_5	120.00	200.0	135.0	0.0434	Open
P3351	J21_6	J21_7	120.00	200.0	125.0	0.1042	Open
P3352	J21_6	J22_6	120.00	300.0	125.0	0.1095	Open
P3353	J21_7	J21_8	120.00	200.0	140.0	0.0279	Open
P3354	J21_7	J22_7	120.00	200.0	140.0	0.0522	Open
P3355	J21_8	J21_9	120.00	200.0	135.0	0.0215	Open
P3356	J21_8	J22_8	120.00	250.0	125.0	0.0777	Open
P3357	J21_9	J21_10	120.00	250.0	125.0	0.0844	Open
P3358	J21_9	J22_9	120.00	300.0	130.0	0.0780	Open
P3359	J21_10	J21_11	120.00	450.0	120.0	0.0022	Open
P3360	J21_10	J22_10	120.00	500.0	130.0	0.0362	Open
P3361	J21_11	J21_12	120.00	250.0	130.0	0.1229	Open
P3362	J21_11	J22_11	120.00	200.0	130.0	0.0234	Open
P3363	J21_12	J21_13	120.00	150.0	130.0	0.0208	Open
P3364	J21_12	J22_12	120.00	200.0	140.0	0.0064	Open
P3365	J21_13	J21_14	120.00	300.0	130.0	0.0490	Open
P3366	J21_13	J22_13	120.00	100.0	130.0	0.1084	Open
P3367	J21_14	J21_15	120.00	150.0	135.0	0.0551	Open
P3368	J21_14	J22_14	120.00	150.0	125.0	0.0368	Open
P3369	J21_15	J21_16	120.00	200.0	140.0	0.1390	Open
P3370	J21_15	J22_15	120.00	150.0	125.0	0.0740	Open
P3371	J21_16	J21_17	120.00	100.0	140.0	0.1090	Open
P3372	J21_16	J22_16	120.00	100.0	140.0	0.0430	Open
P3373	J21_17	J21_18	120.00	250.0	125.0	0.0640	Open
P3374	J21_17	J22_17	120.00	200.0	135.0	0.0637	Open
P3375	J21_18	J21_19	120.00	200.0	140.0	0.0329	Open
P3376	J21_18	J22_18	120.00	250.0	125.0	0.1032	Open
P3377	J21_19	J21_20	120.00	600.0	120.0	0.0479	Open
P3378	J21_19	J22_19	120.00	500.0	125.0	0.0086	Open
P3379	J21_20	J21_21	120.00	300.0	140.0	0.0764	Open
P3380	J21_20	J22_20	120.00	250.0	125.0	0.0163	Open
P3381	J21_21	J21_22	120.00	300.0	130.0	0.1018	Open
P3382	J21_21	J22_21	120.00	150.0	125.0	0.0859	Open
P3383	J21_22	J21_23	120.00	300.0	125.0	0.0333	Open
P3384	J21_22	J22_22	120.00	150.0	140.0	0.0814	Open
P3385	J21_23	J21_24	120.00	200.0	135.0	0.0238	Open
P3386	J21_23	J22_23	120.00	300.0	140.0	0.0128	Open
P3387	J21_24	J21_25	120.00	250.0	130.0	0.0248	Open
P3388	J21_24	J22_24	120.00	150.0	130.0	0.1006	Open
P3389	J21_25	J21_26	120.00	100.0	130.0	0.1239	Open
P3390	J21_25	J22_25	120.00	100.0	130.0	0.0771	Open
P3391	J21_26	J21_27	120.00	200.0	125.0	0.0010	Open
P3392	J21_26	J22_26	120.00	150.0	125.0	0.0124	Open
P3393	J21_27	J21_28	120.00	100.0	135.0	0.1086	Open
P3394	J21_27	J22_27	120.00	300.0	135.0	0.1129	Open
P3395	J21_28	J21_29	120.00	500.0	120.0	0.0287	Open
P3396	J21_28	J22_28	120.00	400.0	125.0	0.0093	Open
P3397	J21_29	J21_30	120.00	150.0	125.0	0.0828	Open
P3398	J21_29	J22_29	120.00	250.0	130.0	0.0332	Open
P3399	J21_30	J21_31	120.00	150.0	125.0	0.1437	Open
P3400	J21_30	J22_30	120.00	300.0	130.0	0.0599	Open
P3401	J21_31	J21_32	120.00	150.0	140.0	0.1476	Open
P3402	J21_31	J22_31	120.00	250.0	130.0	0.1093	Open
P3403	J21_32	J21_33	120.00	300.0	125.0	0.0178	Open
P3404	J21_32	J22_32	120.00	150.0	140.0	0.0885	Open
P3405	J21_33	J21_34	120.00	250.0	140.0	0.1271	Open
P3406	J21_33	J22_33	120.00	300.0	130.0	0.1171	Open
P3407	J21_34	J21_35	120.00	300.0	125.0	0.1126	Open
P3408	J21_34	J22_34	120.00	100.0	125.0	0.1499	Open
P3409	J21_35	J21_36	120.00	150.0	140.0	0.1055	Open
P3410	J21_35	J22_35	120.00	250.0	130.0	0.0894	Open
P3411	J21_36	J21_37	120.00	150.0	135.0	0.1110	Open
P3412	J21_36	J22_36	120.00	200.0	130.0	0.0310	Open
P3413	J21_37	J21_38	120.00	350.0	130.0	0.0291	Open
P3414	J21_37	J22_37	120.00	300.0	120.0	0.0208	Open
P3415	J21_38	J21_39	120.00	100.0	125.0	0.1370	Open
P3416	J21_38	J22_38	120.00	100.0	125.0	0.0083	Open
P3417	J21_39	J21_40	120.00	250.0	140.0	0.0702	Open
P3418	J21_39	J22_39	120.00	200.0	125.0	0.0461	Open
P3419	J21_40	J21_41	120.00	250.0	125.0	0.0073	Open
P3420	J21_40	J22_40	120.00	250.0	140.0	0.0333	Open
P3421	J21_41	J21_42	120.00	300.0	125.0	0.0706	Open
P3422	J21_41	J22_41	120.00	150.0	135.0	0.1494	Open
P3423	J21_42	J21_43	120.00	300.0	130.0	0.0884	Open
P3424	J21_42	J22_42	120.00	250.0	125.0	0.0627	Open
P3425	J21_43	J21_44	120.00	100.0	135.0	0.0679	Open
P3426	J21_43	J22_43	120.00	100.0	125.0	0.1130	Open
P3427	J21_44	J21_45	120.00	250.0	130.0	0.0698	Open
P3428	J21_44	J22_44	120.00	100.0	130.0	0.0336	Open
P3429	J21_45	J21_46	120.00	300.0	125.0	0.0986	Open
P3430	J21_45	J22_45	120.00	300.0	135.0	0.0092	Open
P3431	J21_46	J21_47	120.00	600.0	120.0	0.0456	Open
P3432	J21_46	J22_46	120.00	350.0	120.0	0.0000	Open
P3433	J21_47	J21_48	120.00	300.0	130.0	0.0875	Open
P3434	J21_47	J22_47	120.00	300.0	135.0	0.0944	Open
P3435	J21_48	J21_49	120.00	300.0	130.0	0.0271	Open
P3436	J21_48	J22_48	120.00	200.0	135.0	0.0415	Open
P3437	J21_49	J21_50	120.00	200.0	125.0	0.1288	Open
P3438	J21_49	J22_49	120.00	150.0	135.0	0.0611	Open
P3439	J21_50	J21_51	120.00	200.0	130.0	0.0370	Open
P3440	J21_50	J22_50	120.00	100.0	135.0	0.1454	Open
P3441	J21_51	J21_52	120.00	300.0	135.0	0.0154	Open
P3442	J21_51	J22_51	120.00	200.0	130.0	0.0645	Open
P3443	J21_52	J21_53	120.00	250.0	125.0	0.0253	Open
P3444	J21_52	J22_52	120.00	150.0	135.0	0.0380	Open
P3445	J21_53	J21_54	120.00	150.0	135.0	0.0682	Open
P3446	J21_53	J22_53	120.00	150.0	135.0	0.1138	Open
P3447	J21_54	J21_55	120.00	150.0	125.0	0.0622	Open
P3448	J21_54	J22_54	120.00	300.0	125.0	0.1243	Open
P3449	J21_55	J21_56	120.00	400.0	125.0	0.0010	Open
P3450	J21_55	J22_55	120.00	500.0	120.0	0.0174	Open
P3451	J21_56	J21_57	120.00	300.0	135.0	0.0221	Open
P3452	J21_56	J22_56	120.00	250.0	135.0	0.0290	Open
P3453	J21_57	J21_58	120.00	100.0	125.0	0.0707	Open
P3454	J21_57	J22_57	120.00	200.0	125.0	0.0281	Open
P3455	J21_58	J21_59	120.00	250.0	130.0	0.0085	Open
P3456	J21_58	J22_58	120.00	250.0	140.0	0.0618	Open
P3457	J21_59	J21_60	120.00	100.0	135.0	0.1451	Open
P3458	J21_59	J22_59	120.00	300.0	130.0	0.0646	Open
P3459	J21_60	J21_61	120.00	300.0	135.0	0.0232	Open
P3460	J21_60	J22_60	120.00	250.0	125.0	0.0727	Open
P3461	J21_61	J21_62	120.00	150.0	140.0	0.0032	Open
P3462	J21_61	J22_61	120.00	300.0	140.0	0.1165	Open
P3463	J21_62	J21_63	120.00	150.0	140.0	0.0898	Open
P3464	J21_62	J22_62	120.00	200.0	125.0	0.0975	Open
P3465	J21_63	J21_64	120.00	250.0	130.0	0.1485	Open
P3466	J21_63	J22_63	120.00	250.0	140.0	0.1400	Open
P3467	J21_64	J21_65	120.00	450.0	120.0	0.0318	Open
P3468	J21_64	J22_64	120.00	450.0	130.0	0.0182	Open
P3469	J21_65	J21_66	120.00	200.0	135.0	0.0538	Open
P3470	J21_65	J22_65	120.00	200.0	140.0	0.0752	Open
P3471	J21_66	J21_67	120.00	250.0	140.0	0.0821	Open
P3472	J21_66	J22_66	120.00	300.0	130.0	0.0986	Open
P3473	J21_67	J21_68	120.00	100.0	125.0	0.0426	Open
P3474	J21_67	J22_67	120.00	250.0	135.0	0.0431	Open
P3475	J21_68	J21_69	120.00	300.0	140.0	0.0220	Open
P3476	J21_68	J22_68	120.00	250.0	125.0	0.0658	Open
P3477	J21_69	J21_70	120.00	300.0	125.0	0.0081	Open
P3478	J21_69	J22_69	120.00	300.0	135.0	0.0326	Open
P3479	J21_70	J21_71	120.00	250.0	130.0	0.0857	Open
P3480	J21_70	J22_70	120.00	100.0	135.0	0.1093	Open
P3481	J21_71	J21_72	120.00	200.0	140.0	0.0098	Open
P3482	J21_71	J22_71	120.00	100.0	140.0	0.0361	Open
P3483	J21_72	J21_73	120.00	250.0	125.0	0.0067	Open
P3484	J21_72	J22_72	120.00	250.0	130.0	0.1045	Open
P3485	J21_73	J21_74	120.00	350.0	120.0	0.0448	Open
P3486	J21_73	J22_73	120.00	400.0	125.0	0.0293	Open
P3487	J21_74	J21_75	120.00	100.0	130.0	0.0166	Open
P3488	J21_74	J22_74	120.00	100.0	130.0	0.0548	Open
P3489	J21_75	J21_76	120.00	150.0	125.0	0.0338	Open
P3490	J21_75	J22_75	120.00	250.0	140.0	0.0277	Open
P3491	J21_76	J21_77	120.00	300.0	135.0	0.0816	Open
P3492	J21_76	J22_76	120.00	200.0	125.0	0.0607	Open
P3493	J21_77	J21_78	120.00	300.0	140.0	0.0144	Open
P3494	J21_77	J22_77	120.00	300.0	140.0	0.1485	Open
P3495	J21_78	J21_79	120.00	200.0	130.0	0.0156	Open
P3496	J21_78	J22_78	120.00	300.0	130.0	0.0220	Open
P3497	J21_79	J21_80	120.00	200.0	125.0	0.0194	Open
P3498	J21_79	J22_79	120.00	300.0	130.0	0.0424	Open
P3499	J21_80	J21_81	120.00	200.0	130.0	0.0225	Open
P3500	J21_80	J22_80	120.00	300.0	135.0	0.1474	Open
P3501	J21_81	J21_82	120.00	100.0	135.0	0.0500	Open
P3502	J21_81	J22_81	120.00	150.0	125.0	0.1396	Open
P3503	J21_82	J21_83	120.00	450.0	120.0	0.0480	Open
P3504	J21_82	J22_82	120.00	450.0	130.0	0.0258	Open
P3505	J21_83	J21_84	120.00	250.0	140.0	0.0815	Open
P3506	J21_83	J22_83	120.00	300.0	135.0	0.0261	Open
P3507	J21_84	J22_84	120.00	150.0	135.0	0.0165	Open
P3508	J22_1	J22_2	120.00	400.0	130.0	0.0187	Open
P3509	J22_1	J23_1	120.00	400.0	120.0	0.0251	Open
P3510	J22_2	J22_3	120.00	150.0	135.0	0.0037	Open
P3511	J22_2	J23_2	120.00	100.0	140.0	0.0213	Open
P3512	J22_3	J22_4	120.00	300.0	130.0	0.0444	Open
P3513	J22_3	J23_3	120.00	200.0	135.0	0.0325	Open
P3514	J22_4	J22_5	120.00	250.0	125.0	0.1111	Open
P3515	J22_4	J23_4	120.00	100.0	140.0	0.0416	Open
P3516	J22_5	J22_6	120.00	200.0	140.0	0.0086	Open
P3517	J22_5	J23_5	120.00	200.0	135.0	0.0321	Open
P3518	J22_6	J22_7	120.00	100.0	135.0	0.0536	Open
P3519	J22_6	J23_6	120.00	100.0	135.0	0.1183	Open
P3520	J22_7	J22_8	120.00	100.0	140.0	0.0472	Open
P3521	J22_7	J23_7	120.00	250.0	140.0	0.0058	Open
P3522	J22_8	J22_9	120.00	200.0	140.0	0.1433	Open
P3523	J22_8	J23_8	120.00	100.0	125.0	0.1021	Open
P3524	J22_9	J22_10	120.00	250.0	125.0	0.1145	Open
P3525	J22_9	J23_9	120.00	200.0	130.0	0.0420	Open
P3526	J22_10	J22_11	120.00	300.0	130.0	0.0294	Open
P3527	J22_10	J23_10	120.00	350.0	125.0	0.0344	Open
P3528	J22_11	J22_12	120.00	150.0	140.0	0.0652	Open
P3529	J22_11	J23_11	120.00	300.0	135.0	0.0904	Open
P3530	J22_12	J22_13	120.00	100.0	130.0	0.1063	Open
P3531	J22_12	J23_12	120.00	300.0	140.0	0.0353	Open
P3532	J22_13	J22_14	120.00	200.0	130.0	0.0918	Open
P3533	J22_13	J23_13	120.00	150.0	125.0	0.0904	Open
P3534	J22_14	J22_15	120.00	200.0	125.0	0.0171	Open
P3535	J22_14	J23_14	120.00	200.0	135.0	0.0337	Open
P3536	J22_15	J22_16	120.00	300.0	130.0	0.0189	Open
P3537	J22_15	J23_15	120.00	300.0	140.0	0.0942	Open
P3538	J22_16	J22_17	120.00	300.0	130.0	0.0429	Open
P3539	J22_16	J23_16	120.00	150.0	125.0	0.1365	Open
P3540	J22_17	J22_18	120.00	300.0	140.0	0.0251	Open
P3541	J22_17	J23_17	120.00	300.0	130.0	0.0483	Open
P3542	J22_18	J22_19	120.00	100.0	130.0	0.1022	Open
P3543	J22_18	J23_18	120.00	200.0	140.0	0.0808	Open
P3544	J22_19	J22_20	120.00	500.0	130.0	0.0101	Open
P3545	J22_19	J23_19	120.00	350.0	130.0	0.0246	Open
P3546	J22_20	J22_21	120.00	250.0	135.0	0.0996	Open
P3547	J22_20	J23_20	120.00	250.0	125.0	0.0715	Open
P3548	J22_21	J22_22	120.00	150.0	125.0	0.1374	Open
P3549	J22_21	J23_21	120.00	150.0	140.0	0.0774	Open
P3550	J22_22	J22_23	120.00	150.0	140.0	0.1264	Open
P3551	J22_22	J23_22	120.00	150.0	140.0	0.0412	Open
P3552	J22_23	J22_24	120.00	300.0	130.0	0.1348	Open
P3553	J22_23	J23_23	120.00	150.0	130.0	0.1333	Open
P3554	J22_24	J22_25	120.00	100.0	130.0	0.0648	Open
P3555	J22_24	J23_24	120.00	150.0	135.0	0.0140	Open
P3556	J22_25	J22_26	120.00	100.0	140.0	0.1446	Open
P3557	J22_25	J23_25	120.00	250.0	130.0	0.0778	Open
P3558	J22_26	J22_27	120.00	250.0	140.0	0.0663	Open
P3559	J22_26	J23_26	120.00	300.0	135.0	0.0032	Open
P3560	J22_27	J22_28	120.00	300.0	130.0	0.1106	Open
P3561	J22_27	J23_27	120.00	200.0	135.0	0.0510	Open
P3562	J22_28	J22_29	120.00	600.0	125.0	0.0261	Open
P3563	J22_28	J23_28	120.00	400.0	120.0	0.0232	Open
P3564	J22_29	J22_30	120.00	250.0	130.0	0.1417	Open
P3565	J22_29	J23_29	120.00	200.0	140.0	0.1417	Open
P3566	J22_30	J22_31	120.00	150.0	135.0	0.0104	Open
P3567	J22_30	J23_30	120.00	100.0	130.0	0.1009	Open
P3568	J22_31	J22_32	120.00	300.0	140.0	0.1413	Open
P3569	J22_31	J23_31	120.00	200.0	130.0	0.1335	Open
P3570	J22_32	J22_33	120.00	150.0	140.0	0.1013	Open
P3571	J22_32	J23_32	120.00	150.0	125.0	0.0352	Open
P3572	J22_33	J22_34	120.00	100.0	140.0	0.1074	Open
P3573	J22_33	J23_33	120.00	100.0	130.0	0.1459	Open
P3574	J22_34	J22_35	120.00	300.0	140.0	0.0385	Open
P3575	J22_34	J23_34	120.00	250.0	125.0	0.0324	Open
P3576	J22_35	J22_36	120.00	200.0	135.0	0.0204	Open
P3577	J22_35	J23_35	120.00	100.0	130.0	0.0962	Open
P3578	J22_36	J22_37	120.00	250.0	130.0	0.0063	Open
P3579	J22_36	J23_36	120.00	300.0	140.0	0.0080	Open
P3580	J22_37	J22_38	120.00	500.0	130.0	0.0192	Open
P3581	J22_37	J23_37	120.00	300.0	130.0	0.0286	Open
P3582	J22_38	J22_39	120.00	200.0	140.0	0.1244	Open
P3583	J22_38	J23_38	120.00	100.0	125.0	0.1284	Open
P3584	J22_39	J22_40	120.00	250.0	135.0	0.1235	Open
P3585	J22_39	J23_39	120.00	100.0	130.0	0.0177	Open
P3586	J22_40	J22_41	120.00	300.0	140.0	0.1404	Open
P3587	J22_40	J23_40	120.00	200.0	135.0	0.0435	Open
P3588	J22_41	J22_42	120.00	300.0	140.0	0.1054	Open
P3589	J22_41	J23_41	120.00	100.0	125.0	0.0305	Open
P3590	J22_42	J22_43	120.00	200.0	140.0	0.0224	Open
P3591	J22_42	J23_42	120.00	150.0	125.0	0.0920	Open
P3592	J22_43	J22_44	120.00	200.0	125.0	0.1412	Open
P3593	J22_43	J23_43	120.00	100.0	140.0	0.0851	Open
P3594	J22_44	J22_45	120.00	150.0	125.0	0.1194	Open
P3595	J22_44	J23_44	120.00	150.0	130.0	0.1270	Open
P3596	J22_45	J22_46	120.00	200.0	135.0	0.1203	Open
P3597	J22_45	J23_45	120.00	200.0	125.0	0.0057	Open
P3598	J22_46	J22_47	120.00	450.0	125.0	0.0163	Open
P3599	J22_46	J23_46	120.00	450.0	120.0	0.0131	Open
P3600	J22_47	J22_48	120.00	200.0	125.0	0.1067	Open
P3601	J22_47	J23_47	120.00	200.0	130.0	0.0798	Open
P3602	J22_48	J22_49	120.00	300.0	140.0	0.0447	Open
P3603	J22_48	J23_48	120.00	200.0	140.0	0.1483	Open
P3604	J22_49	J22_50	120.00	150.0	135.0	0.0480	Open
P3605	J22_49	J23_49	120.00	150.0	130.0	0.0614	Open
P3606	J22_50	J22_51	120.00	100.0	125.0	0.0349	Open
P3607	J22_50	J23_50	120.00	100.0	140.0	0.0565	Open
P3608	J22_51	J22_52	120.00	300.0	135.0	0.1245	Open
P3609	J22_51	J23_51	120.00	200.0	125.0	0.0679	Open
P3610	J22_52	J22_53	120.00	300.0	130.0	0.0969	Open
P3611	J22_52	J23_52	120.00	100.0	130.0	0.1353	Open
P3612	J22_53	J22_54	120.00	200.0	125.0	0.1237	Open
P3613	J22_53	J23_53	120.00	150.0	130.0	0.0581	Open
P3614	J22_54	J22_55	120.00	250.0	140.0	0.0550	Open
P3615	J22_54	J23_54	120.00	300.0	140.0	0.0921	Open
P3616	J22_55	J22_56	120.00	300.0	130.0	0.0180	Open
P3617	J22_55	J23_55	120.00	450.0	125.0	0.0256	Open
P3618	J22_56	J22_57	120.00	150.0	125.0	0.0806	Open
P3619	J22_56	J23_56	120.00	200.0	135.0	0.0622	Open
P3620	J22_57	J22_58	120.00	300.0	130.0	0.0172	Open
P3621	J22_57	J23_57	120.00	200.0	135.0	0.0337	Open
P3622	J22_58	J22_59	120.00	100.0	125.0	0.0322	Open
P3623	J22_58	J23_58	120.00	250.0	140.0	0.1443	Open
P3624	J22_59	J22_60	120.00	250.0	135.0	0.0284	Open
P3625	J22_59	J23_59	120.00	250.0	125.0	0.0060	Open
P3626	J22_60	J22_61	120.00	250.0	130.0	0.0677	Open
P3627	J22_60	J23_60	120.00	300.0	125.0	0.0218	Open
P3628	J22_61	J22_62	120.00	100.0	140.0	0.1269	Open
P3629	J22_61	J23_61	120.00	200.0	135.0	0.0854	Open
P3630	J22_62	J22_63	120.00	250.0	125.0	0.0584	Open
P3631	J22_62	J23_62	120.00	100.0	125.0	0.0179	Open
P3632	J22_63	J22_64	120.00	300.0	140.0	0.0799	Open
P3633	J22_63	J23_63	120.00	200.0	135.0	0.0753	Open
P3634	J22_64	J22_65	120.00	300.0	130.0	0.0131	Open
P3635	J22_64	J23_64	120.00	600.0	130.0	0.0065	Open
P3636	J22_65	J22_66	120.00	200.0	135.0	0.0169	Open
P3637	J22_65	J23_65	120.00	150.0	135.0	0.0905	Open
P3638	J22_66	J22_67	120.00	100.0	130.0	0.0663	Open
P3639	J22_66	J23_66	120.00	150.0	125.0	0.1383	Open
P3640	J22_67	J22_68	120.00	150.0	125.0	0.0383	Open
P3641	J22_67	J23_67	120.00	300.0	130.0	0.0160	Open
P3642	J22_68	J22_69	120.00	150.0	125.0	0.0559	Open
P3643	J22_68	J23_68	120.00	300.0	140.0	0.1013	Open
P3644	J22_69	J22_70	120.00	300.0	130.0	0.0210	Open
P3645	J22_69	J23_69	120.00	150.0	135.0	0.0831	Open
P3646	J22_70	J22_71	120.00	250.0	130.0	0.1483	Open
P3647	J22_70	J23_70	120.00	100.0	135.0	0.0051	Open
P3648	J22_71	J22_72	120.00	250.0	140.0	0.0815	Open
P3649	J22_71	J23_71	120.00	150.0	125.0	0.0903	Open
P3650	J22_72	J22_73	120.00	100.0	140.0	0.0688	Open
P3651	J22_72	J23_72	120.00	300.0	125.0	0.1116	Open
P3652	J22_73	J22_74	120.00	500.0	130.0	0.0315	Open
P3653	J22_73	J23_73	120.00	400.0	125.0	0.0051	Open
P3654	J22_74	J22_75	120.00	150.0	135.0	0.1272	Open
P3655	J22_74	J23_74	120.00	100.0	140.0	0.1254	Open
P3656	J22_75	J22_76	120.00	250.0	130.0	0.1467	Open
P3657	J22_75	J23_75	120.00	200.0	135.0	0.0821	Open
P3658	J22_76	J22_77	120.00	100.0	130.0	0.1018	Open
P3659	J22_76	J23_76	120.00	150.0	130.0	0.0714	Open
P3660	J22_77	J22_78	120.00	200.0	140.0	0.0424	Open
P3661	J22_77	J23_77	120.00	100.0	140.0	0.0351	Open
P3662	J22_78	J22_79	120.00	200.0	135.0	0.0841	Open
P3663	J22_78	J23_78	120.00	100.0	135.0	0.1274	Open
P3664	J22_79	J22_80	120.00	100.0	140.0	0.1428	Open
P3665	J22_79	J23_79	120.00	150.0	135.0	0.0755	Open
P3666	J22_80	J22_81	120.00	150.0	135.0	0.0521	Open
P3667	J22_80	J23_80	120.00	100.0	135.0	0.0166	Open
P3668	J22_81	J22_82	120.00	250.0	130.0	0.1170	Open
P3669	J22_81	J23_81	120.00	200.0	140.0	0.0648	Open
P3670	J22_82	J22_83	120.00	500.0	125.0	0.0317	Open
P3671	J22_82	J23_82	120.00	500.0	130.0	0.0324	Open
P3672	J22_83	J22_84	120.00	200.0	135.0	0.1189	Open
P3673	J22_83	J23_83	120.00	300.0	130.0	0.0238	Open
P3674	J22_84	J23_84	120.00	100.0	140.0	0.0476	Open
P3675	J23_1	J23_2	120.00	400.0	125.0	0.0277	Open
P3676	J23_1	J24_1	120.00	500.0	120.0	0.0439	Open
P3677	J23_2	J23_3	120.00	200.0	140.0	0.1447	Open
P3678	J23_2	J24_2	120.00	150.0	140.0	0.0680	Open
P3679	J23_3	J23_4	120.00	100.0	125.0	0.0445	Open
P3680	J23_3	J24_3	120.00	200.0	140.0	0.0805	Open
P3681	J23_4	J23_5	120.00	250.0	135.0	0.0755	Open
P3682	J23_4	J24_4	120.00	150.0	125.0	0.0849	Open
P3683	J23_5	J23_6	120.00	250.0	130.0	0.0219	Open
P3684	J23_5	J24_5	120.00	150.0	125.0	0.1346	Open
P3685	J23_6	J23_7	120.00	300.0	130.0	0.0473	Open
P3686	J23_6	J24_6	120.00	200.0	135.0	0.0251	Open
P3687	J23_7	J23_8	120.00	300.0	130.0	0.1439	Open
P3688	J23_7	J24_7	120.00	150.0	135.0	0.0724	Open
P3689	J23_8	J23_9	120.00	250.0	125.0	0.0709	Open
P3690	J23_8	J24_8	120.00	100.0	140.0	0.0413	Open
P3691	J23_9	J23_10	120.00	100.0	130.0	0.1433	Open
P3692	J23_9	J24_9	120.00	300.0	125.0	0.1167	Open
P3693	J23_10	J23_11	120.00	350.0	125.0	0.0231	Open
P3694	J23_10	J24_10	120.00	500.0	125.0	0.0260	Open
P3695	J23_11	J23_12	120.00	300.0	125.0	0.1295	Open
P3696	J23_11	J24_11	120.00	300.0	140.0	0.0360	Open
P3697	J23_12	J23_13	120.00	200.0	140.0	0.1447	Open
P3698	J23_12	J24_12	120.00	250.0	135.0	0.1204	Open
P3699	J23_13	J23_14	120.00	100.0	125.0	0.1313	Open
P3700	J23_13	J24_13	120.00	300.0	125.0	0.0521	Open
P3701	J23_14	J23_15	120.00	150.0	135.0	0.0949	Open
P3702	J23_14	J24_14	120.00	250.0	135.0	0.0048	Open
P3703	J23_15	J23_16	120.00	300.0	140.0	0.0652	Open
P3704	J23_15	J24_15	120.00	100.0	140.0	0.0125	Open
P3705	J23_16	J23_17	120.00	300.0	125.0	0.0197	Open
P3706	J23_16	J24_16	120.00	150.0	140.0	0.0858	Open
P3707	J23_17	J23_18	120.00	200.0	130.0	0.0309	Open
P3708	J23_17	J24_17	120.00	300.0	130.0	0.0112	Open
P3709	J23_18	J23_19	120.00	150.0	130.0	0.1351	Open
P3710	J23_18	J24_18	120.00	300.0	125.0	0.0744	Open
P3711	J23_19	J23_20	120.00	300.0	125.0	0.0208	Open
P3712	J23_19	J24_19	120.00	500.0	125.0	0.0159	Open
P3713	J23_20	J23_21	120.00	200.0	125.0	0.0528	Open
P3714	J23_20	J24_20	120.00	300.0	135.0	0.0379	Open
P3715	J23_21	J23_22	120.00	300.0	135.0	0.0867	Open
P3716	J23_21	J24_21	120.00	100.0	140.0	0.0404	Open
P3717	J23_22	J23_23	120.00	300.0	130.0	0.0474	Open
P3718	J23_22	J24_22	120.00	300.0	135.0	0.1050	Open
P3719	J23_23	J23_24	120.00	250.0	135.0	0.0201	Open
P3720	J23_23	J24_23	120.00	250.0	135.0	0.1488	Open
P3721	J23_24	J23_25	120.00	100.0	135.0	0.0479	Open
P3722	J23_24	J24_24	120.00	200.0	125.0	0.0396	Open
P3723	J23_25	J23_26	120.00	100.0	135.0	0.0971	Open
P3724	J23_25	J24_25	120.00	300.0	140.0	0.0226	Open
P3725	J23_26	J23_27	120.00	300.0	130.0	0.0389	Open
P3726	J23_26	J24_26	120.00	100.0	140.0	0.0503	Open
P3727	J23_27	J23_28	120.00	100.0	140.0	0.1405	Open
P3728	J23_27	J24_27	120.00	100.0	135.0	0.0899	Open
P3729	J23_28	J23_29	120.00	400.0	130.0	0.0393	Open
P3730	J23_28	J24_28	120.00	350.0	130.0	0.0049	Open
P3731	J23_29	J23_30	120.00	250.0	140.0	0.0907	Open
P3732	J23_29	J24_29	120.00	300.0	130.0	0.0362	Open
P3733	J23_30	J23_31	120.00	300.0	135.0	0.0385	Open
P3734	J23_30	J24_30	120.00	100.0	130.0	0.1430	Open
P3735	J23_31	J23_32	120.00	150.0	130.0	0.0110	Open
P3736	J23_31	J24_31	120.00	200.0	140.0	0.0915	Open
P3737	J23_32	J23_33	120.00	200.0	135.0	0.0674	Open
P3738	J23_32	J24_32	120.00	100.0	125.0	0.1033	Open
P3739	J23_33	J23_34	120.00	250.0	135.0	0.0222	Open
P3740	J23_33	J24_33	120.00	150.0	130.0	0.0631	Open
P3741	J23_34	J23_35	120.00	150.0	130.0	0.0616	Open
P3742	J23_34	J24_34	120.00	250.0	140.0	0.0721	Open
P3743	J23_35	J23_36	120.00	300.0	140.0	0.0301	Open
P3744	J23_35	J24_35	120.00	200.0	135.0	0.0868	Open
P3745	J23_36	J23_37	120.00	250.0	125.0	0.0749	Open
P3746	J23_36	J24_36	120.00	250.0	135.0	0.0866	Open
P3747	J23_37	J23_38	120.00	450.0	125.0	0.0053	Open
P3748	J23_37	J24_37	120.00	300.0	120.0	0.0111	Open
P3749	J23_38	J23_39	120.00	300.0	125.0	0.0510	Open
P3750	J23_38	J24_38	120.00	300.0	130.0	0.1365	Open
P3751	J23_39	J23_40	120.00	100.0	125.0	0.0131	Open
P3752	J23_39	J24_39	120.00	200.0	140.0	0.1416	Open
P3753	J23_40	J23_41	120.00	100.0	125.0	0.0236	Open
P3754	J23_40	J24_40	120.00	300.0	135.0	0.0621	Open
P3755	J23_41	J23_42	120.00	150.0	130.0	0.0104	Open
P3756	J23_41	J24_41	120.00	150.0	140.0	0.1476	Open
P3757	J23_42	J23_43	120.00	150.0	130.0	0.0475	Open
P3758	J23_42	J24_42	120.00	200.0	125.0	0.1087	Open
P3759	J23_43	J23_44	120.00	100.0	125.0	0.1026	Open
P3760	J23_43	J24_43	120.00	300.0	140.0	0.1202	Open
P3761	J23_44	J23_45	120.00	300.0	140.0	0.1025	Open
P3762	J23_44	J24_44	120.00	250.0	140.0	0.0486	Open
P3763	J23_45	J23_46	120.00	150.0	125.0	0.1047	Open
P3764	J23_45	J24_45	120.00	300.0	130.0	0.1019	Open
P3765	J23_46	J23_47	120.00	450.0	120.0	0.0047	Open
P3766	J23_46	J24_46	120.00	400.0	125.0	0.0306	Open
P3767	J23_47	J23_48	120.00	250.0	130.0	0.1195	Open
P3768	J23_47	J24_47	120.00	100.0	135.0	0.1454	Open
P3769	J23_48	J23_49	120.00	150.0	135.0	0.0982	Open
P3770	J23_48	J24_48	120.00	250.0	130.0	0.0150	Open
P3771	J23_49	J23_50	120.00	300.0	130.0	0.0963	Open
P3772	J23_49	J24_49	120.00	300.0	125.0	0.0039	Open
P3773	J23_50	J23_51	120.00	100.0	140.0	0.1160	Open
P3774	J23_50	J24_50	120.00	200.0	125.0	0.0651	Open
P3775	J23_51	J23_52	120.00	200.0	125.0	0.0804	Open
P3776	J23_51	J24_51	120.00	300.0	125.0	0.1500	Open
P3777	J23_52	J23_53	120.00	250.0	125.0	0.0821	Open
P3778	J23_52	J24_52	120.00	100.0	135.0	0.1171	Open
P3779	J23_53	J23_54	120.00	200.0	125.0	0.1463	Open
P3780	J23_53	J24_53	120.00	250.0	140.0	0.0755	Open
P3781	J23_54	J23_55	120.00	250.0	125.0	0.1481	Open
P3782	J23_54	J24_54	120.00	100.0	125.0	0.0809	Open
P3783	J23_55	J23_56	120.00	350.0	120.0	0.0299	Open
P3784	J23_55	J24_55	120.00	300.0	120.0	0.0323	Open
P3785	J23_56	J23_57	120.00	100.0	125.0	0.1293	Open
P3786	J23_56	J24_56	120.00	200.0	130.0	0.0710	Open
P3787	J23_57	J23_58	120.00	250.0	135.0	0.1185	Open
P3788	J23_57	J24_57	120.00	100.0	125.0	0.1068	Open
P3789	J23_58	J23_59	120.00	100.0	135.0	0.0778	Open
P3790	J23_58	J24_58	120.00	250.0	135.0	0.0009	Open
P3791	J23_59	J23_60	120.00	200.0	140.0	0.0078	Open
P3792	J23_59	J24_59	120.00	250.0	130.0	0.0766	Open
P3793	J23_60	J23_61	120.00	150.0	130.0	0.0081	Open
P3794	J23_60	J24_60	120.00	200.0	125.0	0.0096	Open
P3795	J23_61	J23_62	120.00	300.0	140.0	0.1130	Open
P3796	J23_61	J24_61	120.00	300.0	130.0	0.1137	Open
P3797	J23_62	J23_63	120.00	100.0	125.0	0.0400	Open
P3798	J23_62	J24_62	120.00	300.0	130.0	0.0225	Open
P3799	J23_63	J23_64	120.00	300.0	125.0	0.1093	Open
P3800	J23_63	J24_63	120.00	150.0	140.0	0.0896	Open
P3801	J23_64	J23_65	120.00	400.0	130.0	0.0409	Open
P3802	J23_64	J24_64	120.00	450.0	125.0	0.0358	Open
P3803	J23_65	J23_66	120.00	300.0	135.0	0.0563	Open
P3804	J23_65	J24_65	120.00	200.0	140.0	0.1131	Open
P3805	J23_66	J23_67	120.00	100.0	135.0	0.1483	Open
P3806	J23_66	J24_66	120.00	150.0	140.0	0.0571	Open
P3807	J23_67	J23_68	120.00	100.0	135.0	0.0268	Open
P3808	J23_67	J24_67	120.00	200.0	125.0	0.1132	Open
P3809	J23_68	J23_69	120.00	100.0	135.0	0.0514	Open
P3810	J23_68	J24_68	120.00	300.0	140.0	0.1032	Open
P3811	J23_69	J23_70	120.00	200.0	135.0	0.0139	Open
P3812	J23_69	J24_69	120.00	100.0	125.0	0.0978	Open
P3813	J23_70	J23_71	120.00	150.0	135.0	0.0442	Open
P3814	J23_70	J24_70	120.00	300.0	135.0	0.1134	Open
P3815	J23_71	J23_72	120.00	100.0	140.0	0.0979	Open
P3816	J23_71	J24_71	120.00	250.0	140.0	0.0410	Open
P3817	J23_72	J23_73	120.00	150.0	135.0	0.0810	Open
P3818	J23_72	J24_72	120.00	150.0	130.0	0.0797	Open
P3819	J23_73	J23_74	120.00	400.0	130.0	0.0307	Open
P3820	J23_73	J24_73	120.00	300.0	125.0	0.0080	Open
P3821	J23_74	J23_75	120.00	200.0	140.0	0.0265	Open
P3822	J23_74	J24_74	120.00	300.0	140.0	0.0701	Open
P3823	J23_75	J23_76	120.00	200.0	125.0	0.0411	Open
P3824	J23_75	J24_75	120.00	100.0	130.0	0.0226	Open
P3825	J23_76	J23_77	120.00	100.0	130.0	0.1281	Open
P3826	J23_76	J24_76	120.00	100.0	130.0	0.0622	Open
P3827	J23_77	J23_78	120.00	200.0	125.0	0.0962	Open
P3828	J23_77	J24_77	120.00	100.0	130.0	0.0202	Open
P3829	J23_78	J23_79	120.00	200.0	140.0	0.0198	Open
P3830	J23_78	J24_78	120.00	250.0	140.0	0.0275	Open
P3831	J23_79	J23_80	120.00	250.0	140.0	0.1448	Open
P3832	J23_79	J24_79	120.00	200.0	125.0	0.1440	Open
P3833	J23_80	J23_81	120.00	150.0	140.0	0.0990	Open
P3834	J23_80	J24_80	120.00	200.0	130.0	0.0724	Open
P3835	J23_81	J23_82	120.00	100.0	140.0	0.0822	Open
P3836	J23_81	J24_81	120.00	150.0	135.0	0.0210	Open
P3837	J23_82	J23_83	120.00	450.0	130.0	0.0070	Open
P3838	J23_82	J24_82	120.00	300.0	120.0	0.0156	Open
P3839	J23_83	J23_84	120.00	200.0	130.0	0.0869	Open
P3840	J23_83	J24_83	120.00	150.0	130.0	0.0467	Open
P3841	J23_84	J24_84	120.00	100.0	135.0	0.1154	Open
P3842	J24_1	J24_2	120.00	600.0	120.0	0.0322	Open
P3843	J24_1	J25_1	120.00	500.0	130.0	0.0103	Open
P3844	J24_2	J24_3	120.00	250.0	135.0	0.1146	Open
P3845	J24_2	J25_2	120.00	200.0	135.0	0.0194	Open
P3846	J24_3	J24_4	120.00	100.0	140.0	0.0057	Open
P3847	J24_3	J25_3	120.00	300.0	125.0	0.0050	Open
P3848	J24_4	J24_5	120.00	300.0	130.0	0.0958	Open
P3849	J24_4	J25_4	120.00	150.0	130.0	0.0607	Open
P3850	J24_5	J24_6	120.00	200.0	125.0	0.1192	Open
P3851	J24_5	J25_5	120.00	250.0	140.0	0.0722	Open
P3852	J24_6	J24_7	120.00	300.0	140.0	0.0842	Open
P3853	J24_6	J25_6	120.00	150.0	130.0	0.0472	Open
P3854	J24_7	J24_8	120.00	250.0	140.0	0.0480	Open
P3855	J24_7	J25_7	120.00	250.0	135.0	0.0502	Open
P3856	J24_8	J24_9	120.00	200.0	130.0	0.0980	Open
P3857	J24_8	J25_8	120.00	150.0	140.0	0.1180	Open
P3858	J24_9	J24_10	120.00	300.0	130.0	0.1103	Open
P3859	J24_9	J25_9	120.00	100.0	130.0	0.0428	Open
P3860	J24_10	J24_11	120.00	400.0	120.0	0.0060	Open
P3861	J24_10	J25_10	120.00	500.0	125.0	0.0094	Open
P3862	J24_11	J24_12	120.00	100.0	140.0	0.0831	Open
P3863	J24_11	J25_11	120.00	200.0	125.0	0.1443	Open
P3864	J24_12	J24_13	120.00	150.0	125.0	0.0417	Open
P3865	J24_12	J25_12	120.00	100.0	125.0	0.0337	Open
P3866	J24_13	J24_14	120.00	100.0	140.0	0.0800	Open
P3867	J24_13	J25_13	120.00	250.0	130.0	0.1193	Open
P3868	J24_14	J24_15	120.00	150.0	125.0	0.0757	Open
P3869	J24_14	J25_14	120.00	100.0	125.0	0.1362	Open
P3870	J24_15	J24_16	120.00	300.0	125.0	0.0587	Open
P3871	J24_15	J25_15	120.00	300.0	130.0	0.0405	Open
P3872	J24_16	J24_17	120.00	150.0	130.0	0.1196	Open
P3873	J24_16	J25_16	120.00	150.0	130.0	0.0879	Open
P3874	J24_17	J24_18	120.00	300.0	130.0	0.1455	Open
P3875	J24_17	J25_17	120.00	150.0	140.0	0.0754	Open
P3876	J24_18	J24_19	120.00	100.0	140.0	0.0129	Open
P3877	J24_18	J25_18	120.00	250.0	130.0	0.0143	Open
P3878	J24_19	J24_20	120.00	350.0	125.0	0.0276	Open
P3879	J24_19	J25_19	120.00	450.0	130.0	0.0450	Open
P3880	J24_20	J24_21	120.00	100.0	125.0	0.1499	Open
P3881	J24_20	J25_20	120.00	250.0	130.0	0.1054	Open
P3882	J24_21	J24_22	120.00	150.0	125.0	0.0272	Open
P3883	J24_21	J25_21	120.00	250.0	135.0	0.1334	Open
P3884	J24_22	J24_23	120.00	100.0	135.0	0.0789	Open
P3885	J24_22	J25_22	120.00	250.0	125.0	0.0618	Open
P3886	J24_23	J24_24	120.00	300.0	135.0	0.1463	Open
P3887	J24_23	J25_23	120.00	100.0	125.0	0.0149	Open
P3888	J24_24	J24_25	120.00	150.0	140.0	0.0435	Open
P3889	J24_24	J25_24	120.00	200.0	140.0	0.1236	Open
P3890	J24_25	J24_26	120.00	100.0	140.0	0.0134	Open
P3891	J24_25	J25_25	120.00	200.0	135.0	0.1394	Open
P3892	J24_26	J24_27	120.00	250.0	125.0	0.1063	Open
P3893	J24_26	J25_26	120.00	200.0	130.0	0.0752	Open
P3894	J24_27	J24_28	120.00	100.0	125.0	0.0553	Open
P3895	J24_27	J25_27	120.00	200.0	140.0	0.1267	Open
P3896	J24_28	J24_29	120.00	350.0	125.0	0.0434	Open
P3897	J24_28	J25_28	120.00	300.0	125.0	0.0163	Open
P3898	J24_29	J24_30	120.00	250.0	130.0	0.0520	Open
P3899	J24_29	J25_29	120.00	300.0	135.0	0.0390	Open
P3900	J24_30	J24_31	120.00	300.0	130.0	0.0057	Open
P3901	J24_30	J25_30	120.00	300.0	135.0	0.0528	Open
P3902	J24_31	J24_32	120.00	100.0	130.0	0.1036	Open
P3903	J24_31	J25_31	120.00	300.0	135.0	0.0088	Open
P3904	J24_32	J24_33	120.00	300.0	135.0	0.0614	Open
P3905	J24_32	J25_32	120.00	250.0	135.0	0.0783	Open
P3906	J24_33	J24_34	120.00	100.0	130.0	0.0911	Open
P3907	J24_33	J25_33	120.00	100.0	140.0	0.0151	Open
P3908	J24_34	J24_35	120.00	200.0	130.0	0.1461	Open
P3909	J24_34	J25_34	120.00	300.0	130.0	0.0142	Open
P3910	J24_35	J24_36	120.00	300.0	140.0	0.0107	Open
P3911	J24_35	J25_35	120.00	300.0	140.0	0.0071	Open
P3912	J24_36	J24_37	120.00	100.0	140.0	0.0260	Open
P3913	J24_36	J25_36	120.00	250.0	135.0	0.0227	Open
P3914	J24_37	J24_38	120.00	300.0	120.0	0.0210	Open
P3915	J24_37	J25_37	120.00	300.0	130.0	0.0381	Open
P3916	J24_38	J24_39	120.00	100.0	125.0	0.1371	Open
P3917	J24_38	J25_38	120.00	100.0	135.0	0.0358	Open
P3918	J24_39	J24_40	120.00	100.0	130.0	0.0682	Open
P3919	J24_39	J25_39	120.00	250.0	140.0	0.0460	Open
P3920	J24_40	J24_41	120.00	150.0	140.0	0.0235	Open
P3921	J24_40	J25_40	120.00	150.0	125.0	0.0948	Open
P3922	J24_41	J24_42	120.00	100.0	135.0	0.1057	Open
P3923	J24_41	J25_41	120.00	150.0	135.0	0.0981	Open
P3924	J24_42	J24_43	120.00	150.0	125.0	0.0447	Open
P3925	J24_42	J25_42	120.00	150.0	125.0	0.0433	Open
P3926	J24_43	J24_44	120.00	250.0	140.0	0.1413	Open
P3927	J24_43	J25_43	120.00	150.0	135.0	0.0125	Open
P3928	J24_44	J24_45	120.00	200.0	125.0	0.1201	Open
P3929	J24_44	J25_44	120.00	100.0	130.0	0.1045	Open
P3930	J24_45	J24_46	120.00	100.0	140.0	0.0185	Open
P3931	J24_45	J25_45	120.00	100.0	130.0	0.0759	Open
P3932	J24_46	J24_47	120.00	400.0	120.0	0.0125	Open
P3933	J24_46	J25_46	120.00	500.0	125.0	0.0007	Open
P3934	J24_47	J24_48	120.00	150.0	140.0	0.1074	Open
P3935	J24_47	J25_47	120.00	150.0	135.0	0.1431	Open
P3936	J24_48	J24_49	120.00	200.0	130.0	0.0748	Open
P3937	J24_48	J25_48	120.00	300.0	125.0	0.0083	Open
P3938	J24_49	J24_50	120.00	250.0	130.0	0.0065	Open
P3939	J24_49	J25_49	120.00	200.0	130.0	0.0610	Open
P3940	J24_50	J24_51	120.00	300.0	125.0	0.1148	Open
P3941	J24_50	J25_50	120.00	200.0	135.0	0.0360	Open
P3942	J24_51	J24_52	120.00	300.0	130.0	0.0932	Open
P3943	J24_51	J25_51	120.00	300.0	130.0	0.0833	Open
P3944	J24_52	J24_53	120.00	100.0	125.0	0.0070	Open
P3945	J24_52	J25_52	120.00	150.0	140.0	0.0278	Open
P3946	J24_53	J24_54	120.00	250.0	130.0	0.1023	Open
P3947	J24_53	J25_53	120.00	300.0	140.0	0.1375	Open
P3948	J24_54	J24_55	120.00	300.0	130.0	0.0904	Open
P3949	J24_54	J25_54	120.00	250.0	140.0	0.0173	Open
P3950	J24_55	J24_56	120.00	600.0	125.0	0.0180	Open
P3951	J24_55	J25_55	120.00	500.0	120.0	0.0033	Open
P3952	J24_56	J24_57	120.00	100.0	140.0	0.1379	Open
P3953	J24_56	J25_56	120.00	200.0	135.0	0.0431	Open
P3954	J24_57	J24_58	120.00	100.0	130.0	0.0132	Open
P3955	J24_57	J25_57	120.00	200.0	140.0	0.1176	Open
P3956	J24_58	J24_59	120.00	150.0	140.0	0.1341	Open
P3957	J24_58	J25_58	120.00	200.0	135.0	0.0146	Open
P3958	J24_59	J24_60	120.00	300.0	130.0	0.0996	Open
P3959	J24_59	J25_59	120.00	300.0	140.0	0.1206	Open
P3960	J24_60	J24_61	120.00	100.0	130.0	0.1194	Open
P3961	J24_60	J25_60	120.00	150.0	140.0	0.0122	Open
P3962	J24_61	J24_62	120.00	100.0	125.0	0.0980	Open
P3963	J24_61	J25_61	120.00	300.0	140.0	0.1488	Open
P3964	J24_62	J24_63	120.00	100.0	130.0	0.0273	Open
P3965	J24_62	J25_62	120.00	300.0	140.0	0.1333	Open
P3966	J24_63	J24_64	120.00	200.0	140.0	0.0180	Open
P3967	J24_63	J25_63	120.00	100.0	130.0	0.1197	Open
P3968	J24_64	J24_65	120.00	450.0	120.0	0.0094	Open
P3969	J24_64	J25_64	120.00	450.0	125.0	0.0446	Open
P3970	J24_65	J24_66	120.00	250.0	130.0	0.1274	Open
P3971	J24_65	J25_65	120.00	300.0	140.0	0.0145	Open
P3972	J24_66	J24_67	120.00	200.0	140.0	0.0294	Open
P3973	J24_66	J25_66	120.00	300.0	140.0	0.0188	Open
P3974	J24_67	J24_68	120.00	300.0	135.0	0.0390	Open
P3975	J24_67	J25_67	120.00	150.0	140.0	0.1174	Open
P3976	J24_68	J24_69	120.00	250.0	140.0	0.0558	Open
P3977	J24_68	J25_68	120.00	150.0	125.0	0.0827	Open
P3978	J24_69	J24_70	120.00	100.0	135.0	0.0030	Open
P3979	J24_69	J25_69	120.00	100.0	140.0	0.0659	Open
P3980	J24_70	J24_71	120.00	300.0	135.0	0.0753	Open
P3981	J24_70	J25_70	120.00	100.0	140.0	0.0089	Open
P3982	J24_71	J24_72	120.00	200.0	135.0	0.0412	Open
P3983	J24_71	J25_71	120.00	300.0	135.0	0.0787	Open
P3984	J24_72	J24_73	120.00	200.0	140.0	0.1497	Open
P3985	J24_72	J25_72	120.00	200.0	140.0	0.1494	Open
P3986	J24_73	J24_74	120.00	400.0	125.0	0.0398	Open
P3987	J24_73	J25_73	120.00	350.0	125.0	0.0235	Open
P3988	J24_74	J24_75	120.00	150.0	135.0	0.0637	Open
P3989	J24_74	J25_74	120.00	300.0	140.0	0.0532	Open
P3990	J24_75	J24_76	120.00	250.0	130.0	0.0994	Open
P3991	J24_75	J25_75	120.00	300.0	135.0	0.0173	Open
P3992	J24_76	J24_77	120.00	100.0	140.0	0.1407	Open
P3993	J24_76	J25_76	120.00	100.0	125.0	0.1350	Open
P3994	J24_77	J24_78	120.00	150.0	125.0	0.0339	Open
P3995	J24_77	J25_77	120.00	250.0	130.0	0.1426	Open
P3996	J24_78	J24_79	120.00	150.0	125.0	0.0408	Open
P3997	J24_78	J25_78	120.00	300.0	125.0	0.0861	Open
P3998	J24_79	J24_80	120.00	250.0	140.0	0.1117	Open
P3999	J24_79	J25_79	120.00	100.0	125.0	0.1164	Open
P4000	J24_80	J24_81	120.00	100.0	125.0	0.0948	Open
P4001	J24_80	J25_80	120.00	200.0	125.0	0.0306	Open
P4002	J24_81	J24_82	120.00	200.0	135.0	0.1126	Open
P4003	J24_81	J25_81	120.00	300.0	130.0	0.0256	Open
P4004	J24_82	J24_83	120.00	450.0	130.0	0.0388	Open
P4005	J24_82	J25_82	120.00	350.0	125.0	0.0179	Open
P4006	J24_83	J24_84	120.00	250.0	125.0	0.0663	Open
P4007	J24_83	J25_83	120.00	250.0	135.0	0.1182	Open
P4008	J24_84	J25_84	120.00	250.0	135.0	0.0772	Open
P4009	J25_1	J25_2	120.00	450.0	125.0	0.0344	Open
P4010	J25_1	J26_1	120.00	600.0	125.0	0.0401	Open
P4011	J25_2	J25_3	120.00	150.0	140.0	0.1013	Open
P4012	J25_2	J26_2	120.00	200.0	125.0	0.1067	Open
P4013	J25_3	J25_4	120.00	300.0	135.0	0.0688	Open
P4014	J25_3	J26_3	120.00	200.0	125.0	0.0717	Open
P4015	J25_4	J25_5	120.00	250.0	130.0	0.1361	Open
P4016	J25_4	J26_4	120.00	100.0	140.0	0.0098	Open
P4017	J25_5	J25_6	120.00	250.0	125.0	0.1077	Open
P4018	J25_5	J26_5	120.00	250.0	130.0	0.0730	Open
P4019	J25_6	J25_7	120.00	150.0	140.0	0.0834	Open
P4020	J25_6	J26_6	120.00	300.0	135.0	0.0820	Open
P4021	J25_7	J25_8	120.00	150.0	135.0	0.1296	Open
P4022	J25_7	J26_7	120.00	200.0	130.0	0.1308	Open
P4023	J25_8	J25_9	120.00	200.0	125.0	0.0047	Open
P4024	J25_8	J26_8	120.00	150.0	125.0	0.1093	Open
P4025	J25_9	J25_10	120.00	300.0	125.0	0.0215	Open
P4026	J25_9	J26_9	120.00	200.0	135.0	0.0931	Open
P4027	J25_10	J25_11	120.00	500.0	130.0	0.0032	Open
P4028	J25_10	J26_10	120.00	400.0	125.0	0.0223	Open
P4029	J25_11	J25_12	120.00	100.0	140.0	0.0615	Open
P4030	J25_11	J26_11	120.00	150.0	135.0	0.0155	Open
P4031	J25_12	J25_13	120.00	150.0	135.0	0.0562	Open
P4032	J25_12	J26_12	120.00	150.0	130.0	0.1206	Open
P4033	J25_13	J25_14	120.00	150.0	130.0	0.0749	Open
P4034	J25_13	J26_13	120.00	250.0	130.0	0.1247	Open
P4035	J25_14	J25_15	120.00	250.0	140.0	0.0618	Open
P4036	J25_14	J26_14	120.00	300.0	130.0	0.1066	Open
P4037	J25_15	J25_16	120.00	150.0	140.0	0.0428	Open
P4038	J25_15	J26_15	120.00	100.0	130.0	0.1093	Open
P4039	J25_16	J25_17	120.00	100.0	125.0	0.0818	Open
P4040	J25_16	J26_16	120.00	100.0	140.0	0.1228	Open
P4041	J25_17	J25_18	120.00	150.0	130.0	0.0357	Open
P4042	J25_17	J26_17	120.00	200.0	125.0	0.1276	Open
P4043	J25_18	J25_19	120.00	200.0	125.0	0.0566	Open
P4044	J25_18	J26_18	120.00	250.0	135.0	0.0619	Open
P4045	J25_19	J25_20	120.00	300.0	120.0	0.0067	Open
P4046	J25_19	J26_19	120.00	400.0	125.0	0.0164	Open
P4047	J25_20	J25_21	120.00	200.0	125.0	0.0310	Open
P4048	J25_20	J26_20	120.00	250.0	140.0	0.0062	Open
P4049	J25_21	J25_22	120.00	150.0	135.0	0.0958	Open
P4050	J25_21	J26_21	120.00	250.0	140.0	0.0284	Open
P4051	J25_22	J25_23	120.00	250.0	130.0	0.0379	Open
P4052	J25_22	J26_22	120.00	150.0	130.0	0.1069	Open
P4053	J25_23	J25_24	120.00	300.0	140.0	0.0875	Open
P4054	J25_23	J26_23	120.00	250.0	130.0	0.0404	Open
P4055	J25_24	J25_25	120.00	100.0	140.0	0.1376	Open
P4056	J25_24	J26_24	120.00	200.0	125.0	0.0393	Open
P4057	J25_25	J25_26	120.00	250.0	140.0	0.1166	Open
P4058	J25_25	J26_25	120.00	300.0	140.0	0.1188	Open
P4059	J25_26	J25_27	120.00	200.0	125.0	0.0535	Open
P4060	J25_26	J26_26	120.00	100.0	135.0	0.0613	Open
P4061	J25_27	J25_28	120.00	150.0	125.0	0.0682	Open
P4062	J25_27	J26_27	120.00	250.0	135.0	0.0135	Open
P4063	J25_28	J25_29	120.00	350.0	125.0	0.0330	Open
P4064	J25_28	J26_28	120.00	450.0	130.0	0.0169	Open
P4065	J25_29	J25_30	120.00	150.0	135.0	0.0842	Open
P4066	J25_29	J26_29	120.00	200.0	135.0	0.0740	Open
P4067	J25_30	J25_31	120.00	150.0	130.0	0.1111	Open
P4068	J25_30	J26_30	120.00	150.0	125.0	0.1130	Open
P4069	J25_31	J25_32	120.00	150.0	140.0	0.0468	Open
P4070	J25_31	J26_31	120.00	200.0	135.0	0.0298	Open
P4071	J25_32	J25_33	120.00	150.0	135.0	0.0184	Open
P4072	J25_32	J26_32	120.00	100.0	140.0	0.0135	Open
P4073	J25_33	J25_34	120.00	300.0	140.0	0.0452	Open
P4074	J25_33	J26_33	120.00	100.0	130.0	0.0868	Open
P4075	J25_34	J25_35	120.00	200.0	130.0	0.0536	Open
P4076	J25_34	J26_34	120.00	300.0	135.0	0.0655	Open
P4077	J25_35	J25_36	120.00	100.0	130.0	0.0280	Open
P4078	J25_35	J26_35	120.00	100.0	135.0	0.0302	Open
P4079	J25_36	J25_37	120.00	200.0	140.0	0.0620	Open
P4080	J25_36	J26_36	120.00	100.0	130.0	0.0747	Open
P4081	J25_37	J25_38	120.00	500.0	130.0	0.0401	Open
P4082	J25_37	J26_37	120.00	500.0	130.0	0.0358	Open
P4083	J25_38	J25_39	120.00	150.0	140.0	0.0892	Open
P4084	J25_38	J26_38	120.00	250.0	130.0	0.1493	Open
P4085	J25_39	J25_40	120.00	100.0	135.0	0.0362	Open
P4086	J25_39	J26_39	120.00	300.0	125.0	0.0384	Open
P4087	J25_40	J25_41	120.00	250.0	140.0	0.0830	Open
P4088	J25_40	J26_40	120.00	200.0	135.0	0.0248	Open
P4089	J25_41	J25_42	120.00	150.0	135.0	0.0486	Open
P4090	J25_41	J26_41	120.00	100.0	140.0	0.1486	Open
P4091	J25_42	J25_43	120.00	300.0	140.0	0.0353	Open
P4092	J25_42	J26_42	120.00	250.0	135.0	0.0955	Open
P4093	J25_43	J25_44	120.00	150.0	130.0	0.0994	Open
P4094	J25_43	J26_43	120.00	100.0	140.0	0.1475	Open
P4095	J25_44	J25_45	120.00	300.0	135.0	0.1358	Open
P4096	J25_44	J26_44	120.00	200.0	140.0	0.1418	Open
P4097	J25_45	J25_46	120.00	200.0	135.0	0.1246	Open
P4098	J25_45	J26_45	120.00	300.0	130.0	0.0688	Open
P4099	J25_46	J25_47	120.00	600.0	130.0	0.0313	Open
P4100	J25_46	J26_46	120.00	450.0	120.0	0.0424	Open
P4101	J25_47	J25_48	120.00	250.0	130.0	0.1154	Open
P4102	J25_47	J26_47	120.00	100.0	135.0	0.0318	Open
P4103	J25_48	J25_49	120.00	300.0	125.0	0.1019	Open
P4104	J25_48	J26_48	120.00	150.0	125.0	0.0345	Open
P4105	J25_49	J25_50	120.00	250.0	130.0	0.0558	Open
P4106	J25_49	J26_49	120.00	300.0	135.0	0.0198	Open
P4107	J25_50	J25_51	120.00	150.0	140.0	0.0686	Open
P4108	J25_50	J26_50	120.00	250.0	135.0	0.1421	Open
P4109	J25_51	J25_52	120.00	300.0	130.0	0.0637	Open
P4110	J25_51	J26_51	120.00	200.0	130.0	0.0283	Open
P4111	J25_52	J25_53	120.00	200.0	140.0	0.1430	Open
P4112	J25_52	J26_52	120.00	300.0	140.0	0.0405	Open
P4113	J25_53	J25_54	120.00	300.0	125.0	0.0595	Open
P4114	J25_53	J26_53	120.00	300.0	130.0	0.0231	Open
P4115	J25_54	J25_55	120.00	150.0	125.0	0.1344	Open
P4116	J25_54	J26_54	120.00	150.0	130.0	0.1367	Open
P4117	J25_55	J25_56	120.00	500.0	125.0	0.0198	Open
P4118	J25_55	J26_55	120.00	350.0	125.0	0.0394	Open
P4119	J25_56	J25_57	120.00	250.0	130.0	0.1421	Open
P4120	J25_56	J26_56	120.00	250.0	140.0	0.1036	Open
P4121	J25_57	J25_58	120.00	300.0	135.0	0.0814	Open
P4122	J25_57	J26_57	120.00	300.0	140.0	0.0610	Open
P4123	J25_58	J25_59	120.00	200.0	130.0	0.0409	Open
P4124	J25_58	J26_58	120.00	150.0	140.0	0.1106	Open
P4125	J25_59	J25_60	120.00	150.0	140.0	0.1367	Open
P4126	J25_59	J26_59	120.00	200.0	130.0	0.0291	Open
P4127	J25_60	J25_61	120.00	300.0	135.0	0.0496	Open
P4128	J25_60	J26_60	120.00	250.0	125.0	0.0195	Open
P4129	J25_61	J25_62	120.00	100.0	130.0	0.0503	Open
P4130	J25_61	J26_61	120.00	250.0	130.0	0.0839	Open
P4131	J25_62	J25_63	120.00	300.0	140.0	0.0140	Open
P4132	J25_62	J26_62	120.00	200.0	140.0	0.0907	Open
P4133	J25_63	J25_64	120.00	100.0	130.0	0.0175	Open
P4134	J25_63	J26_63	120.00	300.0	125.0	0.1115	Open
P4135	J25_64	J25_65	120.00	450.0	120.0	0.0117	Open
P4136	J25_64	J26_64	120.00	350.0	120.0	0.0231	Open
P4137	J25_65	J25_66	120.00	250.0	125.0	0.1059	Open
P4138	J25_65	J26_65	120.00	250.0	130.0	0.1158	Open
P4139	J25_66	J25_67	120.00	150.0	125.0	0.0653	Open
P4140	J25_66	J26_66	120.00	300.0	135.0	0.1439	Open
P4141	J25_67	J25_68	120.00	100.0	130.0	0.0888	Open
P4142	J25_67	J26_67	120.00	250.0	130.0	0.0494	Open
P4143	J25_68	J25_69	120.00	200.0	140.0	0.0722	Open
P4144	J25_68	J26_68	120.00	250.0	130.0	0.0017	Open
P4145	J25_69	J25_70	120.00	200.0	140.0	0.0268	Open
P4146	J25_69	J26_69	120.00	100.0	125.0	0.0777	Open
P4147	J25_70	J25_71	120.00	150.0	125.0	0.1499	Open
P4148	J25_70	J26_70	120.00	150.0	130.0	0.0928	Open
P4149	J25_71	J25_72	120.00	250.0	125.0	0.0289	Open
P4150	J25_71	J26_71	120.00	300.0	125.0	0.0681	Open
P4151	J25_72	J25_73	120.00	300.0	125.0	0.0959	Open
P4152	J25_72	J26_72	120.00	100.0	135.0	0.1335	Open
P4153	J25_73	J25_74	120.00	450.0	120.0	0.0332	Open
P4154	J25_73	J26_73	120.00	300.0	130.0	0.0310	Open
P4155	J25_74	J25_75	120.00	200.0	140.0	0.0464	Open
P4156	J25_74	J26_74	120.00	300.0	130.0	0.0029	Open
P4157	J25_75	J25_76	120.00	150.0	130.0	0.1032	Open
P4158	J25_75	J26_75	120.00	300.0	125.0	0.0097	Open
P4159	J25_76	J25_77	120.00	300.0	140.0	0.0596	Open
P4160	J25_76	J26_76	120.00	100.0	130.0	0.1243	Open
P4161	J25_77	J25_78	120.00	300.0	130.0	0.0363	Open
P4162	J25_77	J26_77	120.00	150.0	135.0	0.0975	Open
P4163	J25_78	J25_79	120.00	200.0	135.0	0.0203	Open
P4164	J25_78	J26_78	120.00	300.0	140.0	0.1127	Open
P4165	J25_79	J25_80	120.00	200.0	135.0	0.0367	Open
P4166	J25_79	J26_79	120.00	100.0	140.0	0.0709	Open
P4167	J25_80	J25_81	120.00	150.0	125.0	0.0782	Open
P4168	J25_80	J26_80	120.00	250.0	135.0	0.0954	Open
P4169	J25_81	J25_82	120.00	100.0	125.0	0.1009	Open
P4170	J25_81	J26_81	120.00	300.0	140.0	0.0815	Open
P4171	J25_82	J25_83	120.00	400.0	120.0	0.0023	Open
P4172	J25_82	J26_82	120.00	400.0	125.0	0.0010	Open
P4173	J25_83	J25_84	120.00	200.0	135.0	0.1463	Open
P4174	J25_83	J26_83	120.00	250.0	135.0	0.1028	Open
P4175	J25_84	J26_84	120.00	150.0	135.0	0.0472	Open
P4176	J26_1	J26_2	120.00	350.0	120.0	0.0003	Open
P4177	J26_1	J27_1	120.00	400.0	120.0	0.0360	Open
P4178	J26_2	J26_3	120.00	300.0	135.0	0.1277	Open
P4179	J26_2	J27_2	120.00	100.0	130.0	0.0312	Open
P4180	J26_3	J26_4	120.00	300.0	130.0	0.0770	Open
P4181	J26_3	J27_3	120.00	100.0	130.0	0.0506	Open
P4182	J26_4	J26_5	120.00	150.0	135.0	0.0398	Open
P4183	J26_4	J27_4	120.00	100.0	135.0	0.0273	Open
P4184	J26_5	J26_6	120.00	100.0	140.0	0.0963	Open
P4185	J26_5	J27_5	120.00	200.0	140.0	0.1187	Open
P4186	J26_6	J26_7	120.00	300.0	135.0	0.1146	Open
P4187	J26_6	J27_6	120.00	150.0	140.0	0.0806	Open
P4188	J26_7	J26_8	120.00	100.0	135.0	0.0118	Open
P4189	J26_7	J27_7	120.00	200.0	130.0	0.0769	Open
P4190	J26_8	J26_9	120.00	150.0	135.0	0.0638	Open
P4191	J26_8	J27_8	120.00	250.0	130.0	0.0086	Open
P4192	J26_9	J26_10	120.00	150.0	135.0	0.0684	Open
P4193	J26_9	J27_9	120.00	100.0	125.0	0.0856	Open
P4194	J26_10	J26_11	120.00	600.0	125.0	0.0486	Open
P4195	J26_10	J27_10	120.00	450.0	125.0	0.0488	Open
P4196	J26_11	J26_12	120.00	150.0	125.0	0.0489	Open
P4197	J26_11	J27_11	120.00	150.0	135.0	0.1105	Open
P4198	J26_12	J26_13	120.00	100.0	130.0	0.1442	Open
P4199	J26_12	J27_12	120.00	250.0	135.0	0.0733	Open
P4200	J26_13	J26_14	120.00	150.0	130.0	0.1412	Open
P4201	J26_13	J27_13	120.00	200.0	140.0	0.1167	Open
P4202	J26_14	J26_15	120.00	250.0	135.0	0.1355	Open
P4203	J26_14	J27_14	120.00	300.0	130.0	0.0616	Open
P4204	J26_15	J26_16	120.00	100.0	125.0	0.0487	Open
P4205	J26_15	J27_15	120.00	100.0	130.0	0.0204	Open
P4206	J26_16	J26_17	120.00	150.0	125.0	0.1490	Open
P4207	J26_16	J27_16	120.00	200.0	130.0	0.0049	Open
P4208	J26_17	J26_18	120.00	200.0	140.0	0.0688	Open
P4209	J26_17	J27_17	120.00	150.0	125.0	0.0695	Open
P4210	J26_18	J26_19	120.00	100.0	135.0	0.0384	Open
P4211	J26_18	J27_18	120.00	300.0	140.0	0.0729	Open
P4212	J26_19	J26_20	120.00	600.0	125.0	0.0424	Open
P4213	J26_19	J27_19	120.00	300.0	120.0	0.0372	Open
P4214	J26_20	J26_21	120.00	300.0	125.0	0.1084	Open
P4215	J26_20	J27_20	120.00	250.0	140.0	0.0955	Open
P4216	J26_21	J26_22	120.00	200.0	140.0	0.1491	Open
P4217	J26_21	J27_21	120.00	150.0	125.0	0.1142	Open
P4218	J26_22	J26_23	120.00	300.0	140.0	0.0600	Open
P4219	J26_22	J27_22	120.00	100.0	125.0	0.0052	Open
P4220	J26_23	J26_24	120.00	150.0	135.0	0.1133	Open
P4221	J26_23	J27_23	120.00	150.0	135.0	0.1355	Open
P4222	J26_24	J26_25	120.00	200.0	140.0	0.1016	Open
P4223	J26_24	J27_24	120.00	150.0	130.0	0.0701	Open
P4224	J26_25	J26_26	120.00	200.0	125.0	0.0525	Open
P4225	J26_25	J27_25	120.00	100.0	140.0	0.1093	Open
P4226	J26_26	J26_27	120.00	250.0	125.0	0.0802	Open
P4227	J26_26	J27_26	120.00	250.0	130.0	0.0891	Open
P4228	J26_27	J26_28	120.00	150.0	135.0	0.1366	Open
P4229	J26_27	J27_27	120.00	100.0	140.0	0.1022	Open
P4230	J26_28	J26_29	120.00	450.0	120.0	0.0118	Open
P4231	J26_28	J27_28	120.00	450.0	125.0	0.0299	Open
P4232	J26_29	J26_30	120.00	150.0	125.0	0.1411	Open
P4233	J26_29	J27_29	120.00	300.0	125.0	0.0895	Open
P4234	J26_30	J26_31	120.00	250.0	125.0	0.0394	Open
P4235	J26_30	J27_30	120.00	200.0	135.0	0.1022	Open
P4236	J26_31	J26_32	120.00	100.0	135.0	0.0448	Open
P4237	J26_31	J27_31	120.00	150.0	125.0	0.1077	Open
P4238	J26_32	J26_33	120.00	300.0	130.0	0.1412	Open
P4239	J26_32	J27_32	120.00	250.0	130.0	0.1138	Open
P4240	J26_33	J26_34	120.00	200.0	135.0	0.0532	Open
P4241	J26_33	J27_33	120.00	300.0	135.0	0.0130	Open
P4242	J26_34	J26_35	120.00	300.0	125.0	0.0064	Open
P4243	J26_34	J27_34	120.00	250.0	135.0	0.0918	Open
P4244	J26_35	J26_36	120.00	300.0	135.0	0.1058	Open
P4245	J26_35	J27_35	120.00	100.0	140.0	0.1463	Open
P4246	J26_36	J26_37	120.00	200.0	135.0	0.0653	Open
P4247	J26_36	J27_36	120.00	100.0	130.0	0.1305	Open
P4248	J26_37	J26_38	120.00	500.0	125.0	0.0285	Open
P4249	J26_37	J27_37	120.00	350.0	125.0	0.0321	Open
P4250	J26_38	J26_39	120.00	100.0	125.0	0.0692	Open
P4251	J26_38	J27_38	120.00	100.0	135.0	0.0028	Open
P4252	J26_39	J26_40	120.00	250.0	130.0	0.0259	Open
P4253	J26_39	J27_39	120.00	100.0	140.0	0.0643	Open
P4254	J26_40	J26_41	120.00	100.0	130.0	0.0238	Open
P4255	J26_40	J27_40	120.00	300.0	125.0	0.1262	Open
P4256	J26_41	J26_42	120.00	300.0	135.0	0.1116	Open
P4257	J26_41	J27_41	120.00	200.0	135.0	0.0681	Open
P4258	J26_42	J26_43	120.00	300.0	125.0	0.0711	Open
P4259	J26_42	J27_42	120.00	200.0	125.0	0.1272	Open
P4260	J26_43	J26_44	120.00	250.0	125.0	0.0379	Open
P4261	J26_43	J27_43	120.00	300.0	130.0	0.0141	Open
P4262	J26_44	J26_45	120.00	250.0	125.0	0.1132	Open
P4263	J26_44	J27_44	120.00	250.0	130.0	0.1286	Open
P4264	J26_45	J26_46	120.00	200.0	140.0	0.1090	Open
P4265	J26_45	J27_45	120.00	100.0	140.0	0.1176	Open
P4266	J26_46	J26_47	120.00	350.0	130.0	0.0318	Open
P4267	J26_46	J27_46	120.00	450.0	120.0	0.0167	Open
P4268	J26_47	J26_48	120.00	300.0	135.0	0.0098	Open
P4269	J26_47	J27_47	120.00	100.0	125.0	0.1494	Open
P4270	J26_48	J26_49	120.00	150.0	125.0	0.0736	Open
P4271	J26_48	J27_48	120.00	100.0	140.0	0.1470	Open
P4272	J26_49	J26_50	120.00	200.0	125.0	0.0578	Open
P4273	J26_49	J27_49	120.00	300.0	125.0	0.0559	Open
P4274	J26_50	J26_51	120.00	100.0	130.0	0.0722	Open
P4275	J26_50	J27_50	120.00	100.0	135.0	0.1143	Open
P4276	J26_51	J26_52	120.00	100.0	140.0	0.0412	Open
P4277	J26_51	J27_51	120.00	250.0	140.0	0.0432	Open
P4278	J26_52	J26_53	120.00	150.0	140.0	0.0458	Open
P4279	J26_52	J27_52	120.00	100.0	130.0	0.1429	Open
P4280	J26_53	J26_54	120.00	200.0	125.0	0.0503	Open
P4281	J26_53	J27_53	120.00	200.0	130.0	0.1137	Open
P4282	J26_54	J26_55	120.00	200.0	130.0	0.0094	Open
P4283	J26_54	J27_54	120.00	150.0	140.0	0.1349	Open
P4284	J26_55	J26_56	120.00	450.0	125.0	0.0401	Open
P4285	J26_55	J27_55	120.00	450.0	130.0	0.0327	Open
P4286	J26_56	J26_57	120.00	200.0	130.0	0.0351	Open
P4287	J26_56	J27_56	120.00	200.0	130.0	0.1215	Open
P4288	J26_57	J26_58	120.00	250.0	125.0	0.1205	Open
P4289	J26_57	J27_57	120.00	300.0	130.0	0.0220	Open
P4290	J26_58	J26_59	120.00	250.0	125.0	0.0007	Open
P4291	J26_58	J27_58	120.00	150.0	140.0	0.0583	Open
P4292	J26_59	J26_60	120.00	250.0	125.0	0.1137	Open
P4293	J26_59	J27_59	120.00	250.0	130.0	0.0027	Open
P4294	J26_60	J26_61	120.00	250.0	135.0	0.1414	Open
P4295	J26_60	J27_60	120.00	250.0	135.0	0.1417	Open
P4296	J26_61	J26_62	120.00	250.0	135.0	0.0223	Open
P4297	J26_61	J27_61	120.00	300.0	125.0	0.1075	Open
P4298	J26_62	J26_63	120.00	100.0	140.0	0.1331	Open
P4299	J26_62	J27_62	120.00	100.0	125.0	0.1055	Open
P4300	J26_63	J26_64	120.00	250.0	130.0	0.0771	Open
P4301	J26_63	J27_63	120.00	250.0	125.0	0.0741	Open
P4302	J26_64	J26_65	120.00	300.0	125.0	0.0337	Open
P4303	J26_64	J27_64	120.00	350.0	120.0	0.0038	Open
P4304	J26_65	J26_66	120.00	250.0	135.0	0.0838	Open
P4305	J26_65	J27_65	120.00	300.0	125.0	0.0444	Open
P4306	J26_66	J26_67	120.00	250.0	135.0	0.0697	Open
P4307	J26_66	J27_66	120.00	100.0	130.0	0.0319	Open
P4308	J26_67	J26_68	120.00	250.0	135.0	0.1320	Open
P4309	J26_67	J27_67	120.00	150.0	140.0	0.1393	Open
P4310	J26_68	J26_69	120.00	200.0	140.0	0.0041	Open
P4311	J26_68	J27_68	120.00	300.0	125.0	0.1204	Open
P4312	J26_69	J26_70	120.00	250.0	135.0	0.0593	Open
P4313	J26_69	J27_69	120.00	250.0	140.0	0.0347	Open
P4314	J26_70	J26_71	120.00	300.0	125.0	0.0735	Open
P4315	J26_70	J27_70	120.00	150.0	125.0	0.1330	Open
P4316	J26_71	J26_72	120.00	300.0	135.0	0.0659	Open
P4317	J26_71	J27_71	120.00	200.0	130.0	0.0971	Open
P4318	J26_72	J26_73	120.00	300.0	130.0	0.1304	Open
P4319	J26_72	J27_72	120.00	100.0	130.0	0.0829	Open
P4320	J26_73	J26_74	120.00	450.0	130.0	0.0027	Open
P4321	J26_73	J27_73	120.00	600.0	130.0	0.0197	Open
P4322	J26_74	J26_75	120.00	100.0	140.0	0.1093	Open
P4323	J26_74	J27_74	120.00	200.0	135.0	0.1327	Open
P4324	J26_75	J26_76	120.00	250.0	140.0	0.1454	Open
P4325	J26_75	J27_75	120.00	100.0	125.0	0.0285	Open
P4326	J26_76	J26_77	120.00	300.0	125.0	0.0585	Open
P4327	J26_76	J27_76	120.00	100.0	125.0	0.1296	Open
P4328	J26_77	J26_78	120.00	100.0	125.0	0.1338	Open
P4329	J26_77	J27_77	120.00	100.0	130.0	0.1216	Open
P4330	J26_78	J26_79	120.00	100.0	130.0	0.1147	Open
P4331	J26_78	J27_78	120.00	200.0	125.0	0.1475	Open
P4332	J26_79	J26_80	120.00	200.0	130.0	0.0722	Open
P4333	J26_79	J27_79	120.00	150.0	130.0	0.0959	Open
P4334	J26_80	J26_81	120.00	250.0	125.0	0.1487	Open
P4335	J26_80	J27_80	120.00	250.0	140.0	0.0834	Open
P4336	J26_81	J26_82	120.00	150.0	140.0	0.1431	Open
P4337	J26_81	J27_81	120.00	250.0	130.0	0.0284	Open
P4338	J26_82	J26_83	120.00	350.0	120.0	0.0116	Open
P4339	J26_82	J27_82	120.00	300.0	130.0	0.0110	Open
P4340	J26_83	J26_84	120.00	200.0	130.0	0.1398	Open
P4341	J26_83	J27_83	120.00	150.0	130.0	0.0938	Open
P4342	J26_84	J27_84	120.00	200.0	130.0	0.0214	Open
P4343	J27_1	J27_2	120.00	300.0	120.0	0.0485	Open
P4344	J27_1	J28_1	120.00	450.0	125.0	0.0430	Open
P4345	J27_2	J27_3	120.00	100.0	125.0	0.1085	Open
P4346	J27_2	J28_2	120.00	150.0	135.0	0.0495	Open
P4347	J27_3	J27_4	120.00	150.0	135.0	0.0652	Open
P4348	J27_3	J28_3	120.00	150.0	140.0	0.0157	Open
P4349	J27_4	J27_5	120.00	200.0	140.0	0.1356	Open
P4350	J27_4	J28_4	120.00	250.0	135.0	0.1248	Open
P4351	J27_5	J27_6	120.00	200.0	130.0	0.1013	Open
P4352	J27_5	J28_5	120.00	250.0	125.0	0.0604	Open
P4353	J27_6	J27_7	120.00	300.0	135.0	0.0583	Open
P4354	J27_6	J28_6	120.00	200.0	135.0	0.1076	Open
P4355	J27_7	J27_8	120.00	150.0	130.0	0.1127	Open
P4356	J27_7	J28_7	120.00	200.0	125.0	0.1461	Open
P4357	J27_8	J27_9	120.00	300.0	140.0	0.0512	Open
P4358	J27_8	J28_8	120.00	200.0	130.0	0.0038	Open
P4359	J27_9	J27_10	120.00	150.0	140.0	0.0505	Open
P4360	J27_9	J28_9	120.00	250.0	140.0	0.0173	Open
P4361	J27_10	J27_11	120.00	400.0	130.0	0.0394	Open
P4362	J27_10	J28_10	120.00	450.0	130.0	0.0375	Open
P4363	J27_11	J27_12	120.00	250.0	140.0	0.1042	Open
P4364	J27_11	J28_11	120.00	100.0	125.0	0.0487	Open
P4365	J27_12	J27_13	120.00	100.0	140.0	0.0369	Open
P4366	J27_12	J28_12	120.00	200.0	130.0	0.0745	Open
P4367	J27_13	J27_14	120.00	100.0	135.0	0.1031	Open
P4368	J27_13	J28_13	120.00	200.0	125.0	0.0700	Open
P4369	J27_14	J27_15	120.00	150.0	140.0	0.1484	Open
P4370	J27_14	J28_14	120.00	250.0	135.0	0.0569	Open
P4371	J27_15	J27_16	120.00	150.0	135.0	0.0576	Open
P4372	J27_15	J28_15	120.00	250.0	135.0	0.1006	Open
P4373	J27_16	J27_17	120.00	300.0	125.0	0.0218	Open
P4374	J27_16	J28_16	120.00	300.0	130.0	0.0620	Open
P4375	J27_17	J27_18	120.00	250.0	130.0	0.1342	Open
P4376	J27_17	J28_17	120.00	300.0	125.0	0.1424	Open
P4377	J27_18	J27_19	120.00	150.0	135.0	0.0704	Open
P4378	J27_18	J28_18	120.00	300.0	135.0	0.0371	Open
P4379	J27_19	J27_20	120.00	350.0	125.0	0.0390	Open
P4380	J27_19	J28_19	120.00	600.0	125.0	0.0474	Open
P4381	J27_20	J27_21	120.00	250.0	140.0	0.0077	Open
P4382	J27_20	J28_20	120.00	250.0	140.0	0.1218	Open
P4383	J27_21	J27_22	120.00	150.0	125.0	0.1468	Open
P4384	J27_21	J28_21	120.00	200.0	135.0	0.1368	Open
P4385	J27_22	J27_23	120.00	300.0	130.0	0.0195	Open
P4386	J27_22	J28_22	120.00	100.0	130.0	0.0252	Open
P4387	J27_23	J27_24	120.00	200.0	130.0	0.0914	Open
P4388	J27_23	J28_23	120.00	300.0	135.0	0.0662	Open
P4389	J27_24	J27_25	120.00	300.0	135.0	0.0705	Open
P4390	J27_24	J28_24	120.00	100.0	130.0	0.0406	Open
P4391	J27_25	J27_26	120.00	100.0	130.0	0.0295	Open
P4392	J27_25	J28_25	120.00	300.0	125.0	0.0380	Open
P4393	J27_26	J27_27	120.00	300.0	125.0	0.0108	Open
P4394	J27_26	J28_26	120.00	100.0	135.0	0.0626	Open
P4395	J27_27	J27_28	120.00	150.0	125.0	0.0151	Open
P4396	J27_27	J28_27	120.00	200.0	135.0	0.0414	Open
P4397	J27_28	J27_29	120.00	300.0	125.0	0.0368	Open
P4398	J27_28	J28_28	120.00	600.0	125.0	0.0386	Open
P4399	J27_29	J27_30	120.00	250.0	130.0	0.0200	Open
P4400	J27_29	J28_29	120.00	100.0	135.0	0.1439	Open
P4401	J27_30	J27_31	120.00	150.0	140.0	0.0396	Open
P4402	J27_30	J28_30	120.00	300.0	140.0	0.0915	Open
P4403	J27_31	J27_32	120.00	150.0	135.0	0.0873	Open
P4404	J27_31	J28_31	120.00	300.0	140.0	0.0451	Open
P4405	J27_32	J27_33	120.00	200.0	140.0	0.0605	Open
P4406	J27_32	J28_32	120.00	200.0	135.0	0.0937	Open
P4407	J27_33	J27_34	120.00	250.0	125.0	0.0011	Open
P4408	J27_33	J28_33	120.00	200.0	140.0	0.0490	Open
P4409	J27_34	J27_35	120.00	250.0	125.0	0.1466	Open
P4410	J27_34	J28_34	120.00	300.0	130.0	0.1300	Open
P4411	J27_35	J27_36	120.00	200.0	130.0	0.0398	Open
P4412	J27_35	J28_35	120.00	300.0	135.0	0.0928	Open
P4413	J27_36	J27_37	120.00	200.0	130.0	0.1092	Open
P4414	J27_36	J28_36	120.00	150.0	135.0	0.0346	Open
P4415	J27_37	J27_38	120.00	400.0	130.0	0.0069	Open
P4416	J27_37	J28_37	120.00	450.0	125.0	0.0027	Open
P4417	J27_38	J27_39	120.00	250.0	125.0	0.1148	Open
P4418	J27_38	J28_38	120.00	100.0	125.0	0.0325	Open
P4419	J27_39	J27_40	120.00	200.0	135.0	0.0627	Open
P4420	J27_39	J28_39	120.00	100.0	135.0	0.1141	Open
P4421	J27_40	J27_41	120.00	100.0	140.0	0.0002	Open
P4422	J27_40	J28_40	120.00	250.0	130.0	0.0309	Open
P4423	J27_41	J27_42	120.00	300.0	125.0	0.1028	Open
P4424	J27_41	J28_41	120.00	300.0	140.0	0.1423	Open
P4425	J27_42	J27_43	120.00	300.0	140.0	0.0225	Open
P4426	J27_42	J28_42	120.00	300.0	135.0	0.1091	Open
P4427	J27_43	J27_44	120.00	150.0	140.0	0.0565	Open
P4428	J27_43	J28_43	120.00	250.0	125.0	0.1013	Open
P4429	J27_44	J27_45	120.00	250.0	130.0	0.0173	Open
P4430	J27_44	J28_44	120.00	300.0	140.0	0.1351	Open
P4431	J27_45	J27_46	120.00	100.0	135.0	0.0222	Open
P4432	J27_45	J28_45	120.00	300.0	140.0	0.1239	Open
P4433	J27_46	J27_47	120.00	300.0	120.0	0.0379	Open
P4434	J27_46	J28_46	120.00	350.0	120.0	0.0313	Open
P4435	J27_47	J27_48	120.00	200.0	130.0	0.1105	Open
P4436	J27_47	J28_47	120.00	200.0	140.0	0.0671	Open
P4437	J27_48	J27_49	120.00	300.0	130.0	0.1468	Open
P4438	J27_48	J28_48	120.00	100.0	130.0	0.0960	Open
P4439	J27_49	J27_50	120.00	150.0	140.0	0.0071	Open
P4440	J27_49	J28_49	120.00	150.0	140.0	0.0273	Open
P4441	J27_50	J27_51	120.00	300.0	140.0	0.1366	Open
P4442	J27_50	J28_50	120.00	100.0	130.0	0.0959	Open
P4443	J27_51	J27_52	120.00	100.0	125.0	0.0875	Open
P4444	J27_51	J28_51	120.00	200.0	140.0	0.0437	Open
P4445	J27_52	J27_53	120.00	200.0	130.0	0.0046	Open
P4446	J27_52	J28_52	120.00	200.0	140.0	0.0657	Open
P4447	J27_53	J27_54	120.00	250.0	130.0	0.1124	Open
P4448	J27_53	J28_53	120.00	100.0	140.0	0.0720	Open
P4449	J27_54	J27_55	120.00	300.0	125.0	0.0745	Open
P4450	J27_54	J28_54	120.00	250.0	125.0	0.1289	Open
P4451	J27_55	J27_56	120.00	300.0	120.0	0.0006	Open
P4452	J27_55	J28_55	120.00	500.0	120.0	0.0385	Open
P4453	J27_56	J27_57	120.00	150.0	130.0	0.0881	Open
P4454	J27_56	J28_56	120.00	100.0	135.0	0.0896	Open
P4455	J27_57	J27_58	120.00	100.0	135.0	0.1172	Open
P4456	J27_57	J28_57	120.00	300.0	140.0	0.0932	Open
P4457	J27_58	J27_59	120.00	250.0	125.0	0.1417	Open
P4458	J27_58	J28_58	120.00	200.0	125.0	0.0484	Open
P4459	J27_59	J27_60	120.00	250.0	135.0	0.0887	Open
P4460	J27_59	J28_59	120.00	200.0	135.0	0.0051	Open
P4461	J27_60	J27_61	120.00	250.0	135.0	0.0042	Open
P4462	J27_60	J28_60	120.00	150.0	135.0	0.1477	Open
P4463	J27_61	J27_62	120.00	150.0	130.0	0.0458	Open
P4464	J27_61	J28_61	120.00	150.0	130.0	0.0563	Open
P4465	J27_62	J27_63	120.00	100.0	125.0	0.0784	Open
P4466	J27_62	J28_62	120.00	100.0	130.0	0.0291	Open
P4467	J27_63	J27_64	120.00	200.0	140.0	0.0147	Open
P4468	J27_63	J28_63	120.00	150.0	140.0	0.1302	Open
P4469	J27_64	J27_65	120.00	300.0	120.0	0.0234	Open
P4470	J27_64	J28_64	120.00	350.0	125.0	0.0190	Open
P4471	J27_65	J27_66	120.00	200.0	130.0	0.0265	Open
P4472	J27_65	J28_65	120.00	150.0	140.0	0.1185	Open
P4473	J27_66	J27_67	120.00	300.0	135.0	0.1008	Open
P4474	J27_66	J28_66	120.00	150.0	130.0	0.1467	Open
P4475	J27_67	J27_68	120.00	200.0	125.0	0.0925	Open
P4476	J27_67	J28_67	120.00	200.0	140.0	0.1370	Open
P4477	J27_68	J27_69	120.00	100.0	135.0	0.1029	Open
P4478	J27_68	J28_68	120.00	100.0	140.0	0.0572	Open
P4479	J27_69	J27_70	120.00	150.0	130.0	0.0901	Open
P4480	J27_69	J28_69	120.00	150.0	135.0	0.0734	Open
P4481	J27_70	J27_71	120.00	100.0	135.0	0.0113	Open
P4482	J27_70	J28_70	120.00	100.0	130.0	0.0142	Open
P4483	J27_71	J27_72	120.00	150.0	140.0	0.0435	Open
P4484	J27_71	J28_71	120.00	100.0	130.0	0.1184	Open
P4485	J27_72	J27_73	120.00	300.0	125.0	0.1299	Open
P4486	J27_72	J28_72	120.00	200.0	130.0	0.1156	Open
P4487	J27_73	J27_74	120.00	300.0	130.0	0.0197	Open
P4488	J27_73	J28_73	120.00	500.0	125.0	0.0051	Open
P4489	J27_74	J27_75	120.00	100.0	125.0	0.1071	Open
P4490	J27_74	J28_74	120.00	150.0	125.0	0.0771	Open
P4491	J27_75	J27_76	120.00	300.0	140.0	0.0136	Open
P4492	J27_75	J28_75	120.00	200.0	140.0	0.0942	Open
P4493	J27_76	J27_77	120.00	300.0	135.0	0.0837	Open
P4494	J27_76	J28_76	120.00	150.0	125.0	0.0547	Open
P4495	J27_77	J27_78	120.00	200.0	125.0	0.1039	Open
P4496	J27_77	J28_77	120.00	150.0	125.0	0.0735	Open
P4497	J27_78	J27_79	120.00	100.0	125.0	0.0614	Open
P4498	J27_78	J28_78	120.00	150.0	140.0	0.1410	Open
P4499	J27_79	J27_80	120.00	250.0	140.0	0.0743	Open
P4500	J27_79	J28_79	120.00	150.0	125.0	0.1389	Open
P4501	J27_80	J27_81	120.00	200.0	140.0	0.0494	Open
P4502	J27_80	J28_80	120.00	250.0	135.0	0.0090	Open
P4503	J27_81	J27_82	120.00	200.0	135.0	0.0329	Open
P4504	J27_81	J28_81	120.00	250.0	140.0	0.0174	Open
P4505	J27_82	J27_83	120.00	350.0	130.0	0.0407	Open
P4506	J27_82	J28_82	120.00	450.0	125.0	0.0199	Open
P4507	J27_83	J27_84	120.00	300.0	130.0	0.0726	Open
P4508	J27_83	J28_83	120.00	300.0	135.0	0.0621	Open
P4509	J27_84	J28_84	120.00	150.0	130.0	0.0092	Open
P4510	J28_1	J28_2	120.00	350.0	120.0	0.0304	Open
P4511	J28_1	J29_1	120.00	350.0	120.0	0.0370	Open
P4512	J28_2	J28_3	120.00	450.0	125.0	0.0454	Open
P4513	J28_2	J29_2	120.00	600.0	120.0	0.0024	Open
P4514	J28_3	J28_4	120.00	400.0	130.0	0.0465	Open
P4515	J28_3	J29_3	120.00	600.0	125.0	0.0419	Open
P4516	J28_4	J28_5	120.00	450.0	120.0	0.0076	Open
P4517	J28_4	J29_4	120.00	350.0	120.0	0.0234	Open
P4518	J28_5	J28_6	120.00	450.0	120.0	0.0032	Open
P4519	J28_5	J29_5	120.00	350.0	130.0	0.0378	Open
P4520	J28_6	J28_7	120.00	500.0	120.0	0.0044	Open
P4521	J28_6	J29_6	120.00	400.0	125.0	0.0058	Open
P4522	J28_7	J28_8	120.00	500.0	130.0	0.0339	Open
P4523	J28_7	J29_7	120.00	450.0	120.0	0.0450	Open
P4524	J28_8	J28_9	120.00	350.0	130.0	0.0169	Open
P4525	J28_8	J29_8	120.00	600.0	125.0	0.0468	Open
P4526	J28_9	J28_10	120.00	500.0	120.0	0.0140	Open
P4527	J28_9	J29_9	120.00	450.0	120.0	0.0137	Open
P4528	J28_10	J28_11	120.00	450.0	120.0	0.0145	Open
P4529	J28_10	J29_10	120.00	450.0	125.0	0.0481	Open
P4530	J28_11	J28_12	120.00	450.0	125.0	0.0320	Open
P4531	J28_11	J29_11	120.00	450.0	120.0	0.0229	Open
P4532	J28_12	J28_13	120.00	400.0	120.0	0.0476	Open
P4533	J28_12	J29_12	120.00	400.0	125.0	0.0487	Open
P4534	J28_13	J28_14	120.00	400.0	125.0	0.0293	Open
P4535	J28_13	J29_13	120.00	400.0	120.0	0.0174	Open
P4536	J28_14	J28_15	120.00	350.0	125.0	0.0365	Open
P4537	J28_14	J29_14	120.00	350.0	120.0	0.0496	Open
P4538	J28_15	J28_16	120.00	500.0	120.0	0.0255	Open
P4539	J28_15	J29_15	120.00	400.0	120.0	0.0475	Open
P4540	J28_16	J28_17	120.00	350.0	130.0	0.0406	Open
P4541	J28_16	J29_16	120.00	500.0	120.0	0.0417	Open
P4542	J28_17	J28_18	120.00	400.0	120.0	0.0419	Open
P4543	J28_17	J29_17	120.00	500.0	120.0	0.0091	Open
P4544	J28_18	J28_19	120.00	350.0	130.0	0.0458	Open
P4545	J28_18	J29_18	120.00	500.0	120.0	0.0233	Open
P4546	J28_19	J28_20	120.00	450.0	125.0	0.0348	Open
P4547	J28_19	J29_19	120.00	400.0	130.0	0.0141	Open
P4548	J28_20	J28_21	120.00	600.0	125.0	0.0052	Open
P4549	J28_20	J29_20	120.00	450.0	130.0	0.0392	Open
P4550	J28_21	J28_22	120.00	350.0	120.0	0.0406	Open
P4551	J28_21	J29_21	120.00	450.0	120.0	0.0298	Open
P4552	J28_22	J28_23	120.00	350.0	130.0	0.0065	Open
P4553	J28_22	J29_22	120.00	400.0	120.0	0.0134	Open
P4554	J28_23	J28_24	120.00	300.0	125.0	0.0046	Open
P4555	J28_23	J29_23	120.00	350.0	125.0	0.0440	Open
P4556	J28_24	J28_25	120.00	300.0	125.0	0.0000	Open
P4557	J28_24	J29_24	120.00	500.0	120.0	0.0465	Open
P4558	J28_25	J28_26	120.00	350.0	125.0	0.0351	Open
P4559	J28_25	J29_25	120.00	400.0	125.0	0.0401	Open
P4560	J28_26	J28_27	120.00	300.0	120.0	0.0276	Open
P4561	J28_26	J29_26	120.00	600.0	120.0	0.0047	Open
P4562	J28_27	J28_28	120.00	300.0	130.0	0.0095	Open
P4563	J28_27	J29_27	120.00	600.0	120.0	0.0127	Open
P4564	J28_28	J28_29	120.00	500.0	120.0	0.0161	Open
P4565	J28_28	J29_28	120.00	500.0	130.0	0.0451	Open
P4566	J28_29	J28_30	120.00	350.0	130.0	0.0352	Open
P4567	J28_29	J29_29	120.00	450.0	130.0	0.0207	Open
P4568	J28_30	J28_31	120.00	500.0	125.0	0.0358	Open
P4569	J28_30	J29_30	120.00	500.0	125.0	0.0239	Open
P4570	J28_31	J28_32	120.00	400.0	130.0	0.0374	Open
P4571	J28_31	J29_31	120.00	300.0	120.0	0.0150	Open
P4572	J28_32	J28_33	120.00	500.0	120.0	0.0237	Open
P4573	J28_32	J29_32	120.00	300.0	125.0	0.0447	Open
P4574	J28_33	J28_34	120.00	300.0	120.0	0.0294	Open
P4575	J28_33	J29_33	120.00	500.0	125.0	0.0066	Open
P4576	J28_34	J28_35	120.00	600.0	130.0	0.0041	Open
P4577	J28_34	J29_34	120.00	600.0	125.0	0.0179	Open
P4578	J28_35	J28_36	120.00	600.0	120.0	0.0430	Open
P4579	J28_35	J29_35	120.00	400.0	120.0	0.0417	Open
P4580	J28_36	J28_37	120.00	500.0	120.0	0.0332	Open
P4581	J28_36	J29_36	120.00	500.0	130.0	0.0106	Open
P4582	J28_37	J28_38	120.00	300.0	125.0	0.0125	Open
P4583	J28_37	J29_37	120.00	400.0	125.0	0.0089	Open
P4584	J28_38	J28_39	120.00	600.0	125.0	0.0102	Open
P4585	J28_38	J29_38	120.00	400.0	125.0	0.0472	Open
P4586	J28_39	J28_40	120.00	500.0	125.0	0.0114	Open
P4587	J28_39	J29_39	120.00	400.0	120.0	0.0244	Open
P4588	J28_40	J28_41	120.00	400.0	120.0	0.0262	Open
P4589	J28_40	J29_40	120.00	350.0	130.0	0.0165	Open
P4590	J28_41	J28_42	120.00	400.0	125.0	0.0238	Open
P4591	J28_41	J29_41	120.00	300.0	130.0	0.0371	Open
P4592	J28_42	J28_43	120.00	450.0	125.0	0.0022	Open
P4593	J28_42	J29_42	120.00	600.0	120.0	0.0464	Open
P4594	J28_43	J28_44	120.00	350.0	130.0	0.0142	Open
P4595	J28_43	J29_43	120.00	300.0	120.0	0.0137	Open
P4596	J28_44	J28_45	120.00	450.0	125.0	0.0434	Open
P4597	J28_44	J29_44	120.00	450.0	120.0	0.0019	Open
P4598	J28_45	J28_46	120.00	600.0	125.0	0.0483	Open
P4599	J28_45	J29_45	120.00	600.0	130.0	0.0058	Open
P4600	J28_46	J28_47	120.00	400.0	130.0	0.0251	Open
P4601	J28_46	J29_46	120.00	400.0	125.0	0.0375	Open
P4602	J28_47	J28_48	120.00	350.0	120.0	0.0390	Open
P4603	J28_47	J29_47	120.00	400.0	125.0	0.0071	Open
P4604	J28_48	J28_49	120.00	300.0	130.0	0.0359	Open
P4605	J28_48	J29_48	120.00	450.0	130.0	0.0330	Open
P4606	J28_49	J28_50	120.00	350.0	130.0	0.0243	Open
P4607	J28_49	J29_49	120.00	300.0	130.0	0.0349	Open
P4608	J28_50	J28_51	120.00	300.0	130.0	0.0484	Open
P4609	J28_50	J29_50	120.00	400.0	130.0	0.0069	Open
P4610	J28_51	J28_52	120.00	450.0	130.0	0.0364	Open
P4611	J28_51	J29_51	120.00	600.0	130.0	0.0138	Open
P4612	J28_52	J28_53	120.00	400.0	120.0	0.0040	Open
P4613	J28_52	J29_52	120.00	350.0	120.0	0.0097	Open
P4614	J28_53	J28_54	120.00	400.0	130.0	0.0066	Open
P4615	J28_53	J29_53	120.00	600.0	125.0	0.0266	Open
P4616	J28_54	J28_55	120.00	500.0	120.0	0.0122	Open
P4617	J28_54	J29_54	120.00	600.0	125.0	0.0121	Open
P4618	J28_55	J28_56	120.00	450.0	120.0	0.0028	Open
P4619	J28_55	J29_55	120.00	300.0	130.0	0.0200	Open
P4620	J28_56	J28_57	120.00	350.0	125.0	0.0477	Open
P4621	J28_56	J29_56	120.00	450.0	130.0	0.0485	Open
P4622	J28_57	J28_58	120.00	350.0	120.0	0.0433	Open
P4623	J28_57	J29_57	120.00	500.0	130.0	0.0401	Open
P4624	J28_58	J28_59	120.00	300.0	120.0	0.0150	Open
P4625	J28_58	J29_58	120.00	300.0	125.0	0.0496	Open
P4626	J28_59	J28_60	120.00	400.0	120.0	0.0414	Open
P4627	J28_59	J29_59	120.00	350.0	130.0	0.0387	Open
P4628	J28_60	J28_61	120.00	300.0	125.0	0.0033	Open
P4629	J28_60	J29_60	120.00	600.0	120.0	0.0444	Open
P4630	J28_61	J28_62	120.00	450.0	120.0	0.0104	Open
P4631	J28_61	J29_61	120.00	300.0	120.0	0.0432	Open
P4632	J28_62	J28_63	120.00	400.0	125.0	0.0440	Open
P4633	J28_62	J29_62	120.00	300.0	130.0	0.0480	Open
P4634	J28_63	J28_64	120.00	400.0	130.0	0.0189	Open
P4635	J28_63	J29_63	120.00	600.0	130.0	0.0309	Open
P4636	J28_64	J28_65	120.00	450.0	130.0	0.0401	Open
P4637	J28_64	J29_64	120.00	300.0	130.0	0.0202	Open
P4638	J28_65	J28_66	120.00	500.0	120.0	0.0356	Open
P4639	J28_65	J29_65	120.00	400.0	130.0	0.0041	Open
P4640	J28_66	J28_67	120.00	300.0	125.0	0.0178	Open
P4641	J28_66	J29_66	120.00	500.0	120.0	0.0424	Open
P4642	J28_67	J28_68	120.00	500.0	120.0	0.0071	Open
P4643	J28_67	J29_67	120.00	350.0	125.0	0.0413	Open
P4644	J28_68	J28_69	120.00	350.0	130.0	0.0452	Open
P4645	J28_68	J29_68	120.00	400.0	120.0	0.0412	Open
P4646	J28_69	J28_70	120.00	400.0	120.0	0.0406	Open
P4647	J28_69	J29_69	120.00	500.0	125.0	0.0082	Open
P4648	J28_70	J28_71	120.00	500.0	125.0	0.0031	Open
P4649	J28_70	J29_70	120.00	350.0	130.0	0.0130	Open
P4650	J28_71	J28_72	120.00	450.0	130.0	0.0298	Open
P4651	J28_71	J29_71	120.00	500.0	120.0	0.0281	Open
P4652	J28_72	J28_73	120.00	300.0	125.0	0.0029	Open
P4653	J28_72	J29_72	120.00	300.0	130.0	0.0260	Open
P4654	J28_73	J28_74	120.00	400.0	120.0	0.0360	Open
P4655	J28_73	J29_73	120.00	450.0	125.0	0.0278	Open
P4656	J28_74	J28_75	120.00	450.0	125.0	0.0322	Open
P4657	J28_74	J29_74	120.00	600.0	125.0	0.0425	Open
P4658	J28_75	J28_76	120.00	350.0	125.0	0.0018	Open
P4659	J28_75	J29_75	120.00	600.0	125.0	0.0227	Open
P4660	J28_76	J28_77	120.00	500.0	120.0	0.0444	Open
P4661	J28_76	J29_76	120.00	400.0	120.0	0.0400	Open
P4662	J28_77	J28_78	120.00	450.0	120.0	0.0233	Open
P4663	J28_77	J29_77	120.00	350.0	130.0	0.0108	Open
P4664	J28_78	J28_79	120.00	300.0	125.0	0.0316	Open
P4665	J28_78	J29_78	120.00	450.0	120.0	0.0356	Open
P4666	J28_79	J28_80	120.00	350.0	120.0	0.0288	Open
P4667	J28_79	J29_79	120.00	300.0	120.0	0.0396	Open
P4668	J28_80	J28_81	120.00	600.0	125.0	0.0185	Open
P4669	J28_80	J29_80	120.00	300.0	130.0	0.0257	Open
P4670	J28_81	J28_82	120.00	600.0	125.0	0.0041	Open
P4671	J28_81	J29_81	120.00	600.0	120.0	0.0454	Open
P4672	J28_82	J28_83	120.00	400.0	120.0	0.0396	Open
P4673	J28_82	J29_82	120.00	350.0	130.0	0.0009	Open
P4674	J28_83	J28_84	120.00	350.0	120.0	0.0311	Open
P4675	J28_83	J29_83	120.00	400.0	130.0	0.0019	Open
P4676	J28_84	J29_84	120.00	450.0	130.0	0.0151	Open
P4677	J29_1	J29_2	120.00	600.0	130.0	0.0472	Open
P4678	J29_1	J30_1	120.00	500.0	125.0	0.0078	Open
P4679	J29_2	J29_3	120.00	300.0	125.0	0.0459	Open
P4680	J29_2	J30_2	120.00	150.0	140.0	0.1374	Open
P4681	J29_3	J29_4	120.00	250.0	125.0	0.0270	Open
P4682	J29_3	J30_3	120.00	300.0	130.0	0.0045	Open
P4683	J29_4	J29_5	120.00	200.0	125.0	0.1343	Open
P4684	J29_4	J30_4	120.00	200.0	125.0	0.1427	Open
P4685	J29_5	J29_6	120.00	250.0	130.0	0.0568	Open
P4686	J29_5	J30_5	120.00	300.0	125.0	0.0486	Open
P4687	J29_6	J29_7	120.00	300.0	140.0	0.0420	Open
P4688	J29_6	J30_6	120.00	300.0	125.0	0.1018	Open
P4689	J29_7	J29_8	120.00	150.0	125.0	0.1449	Open
P4690	J29_7	J30_7	120.00	100.0	140.0	0.1496	Open
P4691	J29_8	J29_9	120.00	100.0	135.0	0.0242	Open
P4692	J29_8	J30_8	120.00	100.0	130.0	0.0740	Open
P4693	J29_9	J29_10	120.00	250.0	140.0	0.0373	Open
P4694	J29_9	J30_9	120.00	250.0	140.0	0.0468	Open
P4695	J29_10	J29_11	120.00	350.0	130.0	0.0061	Open
P4696	J29_10	J30_10	120.00	300.0	130.0	0.0264	Open
P4697	J29_11	J29_12	120.00	200.0	125.0	0.0161	Open
P4698	J29_11	J30_11	120.00	300.0	125.0	0.0144	Open
P4699	J29_12	J29_13	120.00	250.0	135.0	0.0195	Open
P4700	J29_12	J30_12	120.00	150.0	125.0	0.0583	Open
P4701	J29_13	J29_14	120.00	300.0	125.0	0.0652	Open
P4702	J29_13	J30_13	120.00	100.0	135.0	0.0422	Open
P4703	J29_14	J29_15	120.00	250.0	135.0	0.0652	Open
P4704	J29_14	J30_14	120.00	300.0	140.0	0.1331	Open
P4705	J29_15	J29_16	120.00	100.0	135.0	0.0931	Open
P4706	J29_15	J30_15	120.00	300.0	140.0	0.1129	Open
P4707	J29_16	J29_17	120.00	300.0	135.0	0.0879	Open
P4708	J29_16	J30_16	120.00	150.0	130.0	0.0933	Open
P4709	J29_17	J29_18	120.00	100.0	135.0	0.0237	Open
P4710	J29_17	J30_17	120.00	200.0	130.0	0.1460	Open
P4711	J29_18	J29_19	120.00	100.0	135.0	0.0487	Open
P4712	J29_18	J30_18	120.00	250.0	130.0	0.0367	Open
P4713	J29_19	J29_20	120.00	600.0	130.0	0.0381	Open
P4714	J29_19	J30_19	120.00	300.0	120.0	0.0074	Open
P4715	J29_20	J29_21	120.00	250.0	125.0	0.0203	Open
P4716	J29_20	J30_20	120.00	250.0	140.0	0.0442	Open
P4717	J29_21	J29_22	120.00	300.0	130.0	0.0628	Open
P4718	J29_21	J30_21	120.00	150.0	135.0	0.0526	Open
P4719	J29_22	J29_23	120.00	100.0	125.0	0.1487	Open
P4720	J29_22	J30_22	120.00	300.0	135.0	0.0250	Open
P4721	J29_23	J29_24	120.00	100.0	125.0	0.0920	Open
P4722	J29_23	J30_23	120.00	300.0	130.0	0.1005	Open
P4723	J29_24	J29_25	120.00	250.0	140.0	0.0290	Open
P4724	J29_24	J30_24	120.00	300.0	130.0	0.0165	Open
P4725	J29_25	J29_26	120.00	200.0	125.0	0.0169	Open
P4726	J29_25	J30_25	120.00	200.0	130.0	0.0664	Open
P4727	J29_26	J29_27	120.00	100.0	125.0	0.1023	Open
P4728	J29_26	J30_26	120.00	300.0	125.0	0.1461	Open
P4729	J29_27	J29_28	120.00	100.0	135.0	0.1294	Open
P4730	J29_27	J30_27	120.00	250.0	125.0	0.0461	Open
P4731	J29_28	J29_29	120.00	400.0	120.0	0.0186	Open
P4732	J29_28	J30_28	120.00	600.0	130.0	0.0422	Open
P4733	J29_29	J29_30	120.00	200.0	135.0	0.0295	Open
P4734	J29_29	J30_29	120.00	150.0	125.0	0.1460	Open
P4735	J29_30	J29_31	120.00	100.0	140.0	0.0249	Open
P4736	J29_30	J30_30	120.00	100.0	135.0	0.0763	Open
P4737	J29_31	J29_32	120.00	200.0	135.0	0.1330	Open
P4738	J29_31	J30_31	120.00	200.0	140.0	0.0749	Open
P4739	J29_32	J29_33	120.00	100.0	140.0	0.0572	Open
P4740	J29_32	J30_32	120.00	300.0	125.0	0.0776	Open
P4741	J29_33	J29_34	120.00	250.0	140.0	0.0862	Open
P4742	J29_33	J30_33	120.00	100.0	125.0	0.0963	Open
P4743	J29_34	J29_35	120.00	150.0	140.0	0.0066	Open
P4744	J29_34	J30_34	120.00	100.0	140.0	0.0318	Open
P4745	J29_35	J29_36	120.00	300.0	135.0	0.1401	Open
P4746	J29_35	J30_35	120.00	300.0	135.0	0.0656	Open
P4747	J29_36	J29_37	120.00	150.0	140.0	0.0116	Open
P4748	J29_36	J30_36	120.00	300.0	125.0	0.0754	Open
P4749	J29_37	J29_38	120.00	600.0	125.0	0.0377	Open
P4750	J29_37	J30_37	120.00	300.0	130.0	0.0463	Open
P4751	J29_38	J29_39	120.00	200.0	130.0	0.0906	Open
P4752	J29_38	J30_38	120.00	250.0	125.0	0.0253	Open
P4753	J29_39	J29_40	120.00	150.0	135.0	0.1212	Open
P4754	J29_39	J30_39	120.00	250.0	125.0	0.0667	Open
P4755	J29_40	J29_41	120.00	150.0	140.0	0.1491	Open
P4756	J29_40	J30_40	120.00	150.0	125.0	0.0685	Open
P4757	J29_41	J29_42	120.00	200.0	125.0	0.1417	Open
P4758	J29_41	J30_41	120.00	300.0	125.0	0.0942	Open
P4759	J29_42	J29_43	120.00	100.0	140.0	0.0315	Open
P4760	J29_42	J30_42	120.00	200.0	125.0	0.0701	Open
P4761	J29_43	J29_44	120.00	250.0	135.0	0.0627	Open
P4762	J29_43	J30_43	120.00	300.0	140.0	0.1232	Open
P4763	J29_44	J29_45	120.00	200.0	130.0	0.0578	Open
P4764	J29_44	J30_44	120.00	150.0	135.0	0.1341	Open
P4765	J29_45	J29_46	120.00	150.0	140.0	0.1316	Open
P4766	J29_45	J30_45	120.00	150.0	130.0	0.0271	Open
P4767	J29_46	J29_47	120.00	350.0	120.0	0.0156	Open
P4768	J29_46	J30_46	120.00	350.0	125.0	0.0180	Open
P4769	J29_47	J29_48	120.00	300.0	125.0	0.0541	Open
P4770	J29_47	J30_47	120.00	150.0	125.0	0.0952	Open
P4771	J29_48	J29_49	120.00	150.0	140.0	0.1389	Open
P4772	J29_48	J30_48	120.00	200.0	135.0	0.0729	Open
P4773	J29_49	J29_50	120.00	150.0	135.0	0.1280	Open
P4774	J29_49	J30_49	120.00	100.0	135.0	0.0086	Open
P4775	J29_50	J29_51	120.00	250.0	140.0	0.1119	Open
P4776	J29_50	J30_50	120.00	250.0	125.0	0.1239	Open
P4777	J29_51	J29_52	120.00	200.0	140.0	0.1164	Open
P4778	J29_51	J30_51	120.00	300.0	130.0	0.1066	Open
P4779	J29_52	J29_53	120.00	100.0	125.0	0.0565	Open
P4780	J29_52	J30_52	120.00	100.0	130.0	0.1181	Open
P4781	J29_53	J29_54	120.00	100.0	140.0	0.1178	Open
P4782	J29_53	J30_53	120.00	300.0	140.0	0.1056	Open
P4783	J29_54	J29_55	120.00	300.0	130.0	0.0157	Open
P4784	J29_54	J30_54	120.00	150.0	135.0	0.0607	Open
P4785	J29_55	J29_56	120.00	400.0	120.0	0.0355	Open
P4786	J29_55	J30_55	120.00	400.0	130.0	0.0357	Open
P4787	J29_56	J29_57	120.00	300.0	125.0	0.0219	Open
P4788	J29_56	J30_56	120.00	150.0	130.0	0.1480	Open
P4789	J29_57	J29_58	120.00	100.0	140.0	0.0728	Open
P4790	J29_57	J30_57	120.00	150.0	135.0	0.1481	Open
P4791	J29_58	J29_59	120.00	200.0	140.0	0.1418	Open
P4792	J29_58	J30_58	120.00	100.0	135.0	0.0500	Open
P4793	J29_59	J29_60	120.00	100.0	130.0	0.0128	Open
P4794	J29_59	J30_59	120.00	100.0	130.0	0.0844	Open
P4795	J29_60	J29_61	120.00	150.0	125.0	0.0033	Open
P4796	J29_60	J30_60	120.00	300.0	130.0	0.0704	Open
P4797	J29_61	J29_62	120.00	250.0	130.0	0.0150	Open
P4798	J29_61	J30_61	120.00	200.0	135.0	0.0374	Open
P4799	J29_62	J29_63	120.00	250.0	130.0	0.0442	Open
P4800	J29_62	J30_62	120.00	150.0	140.0	0.0251	Open
P4801	J29_63	J29_64	120.00	200.0	140.0	0.0487	Open
P4802	J29_63	J30_63	120.00	150.0	125.0	0.0190	Open
P4803	J29_64	J29_65	120.00	400.0	125.0	0.0338	Open
P4804	J29_64	J30_64	120.00	450.0	120.0	0.0121	Open
P4805	J29_65	J29_66	120.00	200.0	130.0	0.1298	Open
P4806	J29_65	J30_65	120.00	150.0	125.0	0.0703	Open
P4807	J29_66	J29_67	120.00	100.0	125.0	0.0751	Open
P4808	J29_66	J30_66	120.00	200.0	140.0	0.0271	Open
P4809	J29_67	J29_68	120.00	250.0	125.0	0.0778	Open
P4810	J29_67	J30_67	120.00	300.0	125.0	0.0641	Open
P4811	J29_68	J29_69	120.00	150.0	140.0	0.0852	Open
P4812	J29_68	J30_68	120.00	250.0	140.0	0.0107	Open
P4813	J29_69	J29_70	120.00	100.0	135.0	0.1387	Open
P4814	J29_69	J30_69	120.00	150.0	140.0	0.0424	Open
P4815	J29_70	J29_71	120.00	150.0	135.0	0.1197	Open
P4816	J29_70	J30_70	120.00	200.0	135.0	0.0162	Open
P4817	J29_71	J29_72	120.00	100.0	130.0	0.0175	Open
P4818	J29_71	J30_71	120.00	300.0	125.0	0.1236	Open
P4819	J29_72	J29_73	120.00	300.0	130.0	0.1404	Open
P4820	J29_72	J30_72	120.00	150.0	130.0	0.0621	Open
P4821	J29_73	J29_74	120.00	450.0	125.0	0.0466	Open
P4822	J29_73	J30_73	120.00	500.0	120.0	0.0066	Open
P4823	J29_74	J29_75	120.00	250.0	140.0	0.1022	Open
P4824	J29_74	J30_74	120.00	150.0	130.0	0.0871	Open
P4825	J29_75	J29_76	120.00	100.0	140.0	0.0418	Open
P4826	J29_75	J30_75	120.00	300.0	125.0	0.0206	Open
P4827	J29_76	J29_77	120.00	250.0	130.0	0.0245	Open
P4828	J29_76	J30_76	120.00	200.0	135.0	0.0682	Open
P4829	J29_77	J29_78	120.00	200.0	135.0	0.1305	Open
P4830	J29_77	J30_77	120.00	250.0	135.0	0.0759	Open
P4831	J29_78	J29_79	120.00	200.0	125.0	0.0717	Open
P4832	J29_78	J30_78	120.00	200.0	135.0	0.1439	Open
P4833	J29_79	J29_80	120.00	250.0	125.0	0.0379	Open
P4834	J29_79	J30_79	120.00	150.0	130.0	0.1336	Open
P4835	J29_80	J29_81	120.00	100.0	130.0	0.0213	Open
P4836	J29_80	J30_80	120.00	200.0	135.0	0.0152	Open
P4837	J29_81	J29_82	120.00	200.0	135.0	0.0620	Open
P4838	J29_81	J30_81	120.00	300.0	135.0	0.0053	Open
P4839	J29_82	J29_83	120.00	300.0	120.0	0.0250	Open
P4840	J29_82	J30_82	120.00	350.0	120.0	0.0406	Open
P4841	J29_83	J29_84	120.00	300.0	125.0	0.1450	Open
P4842	J29_83	J30_83	120.00	150.0	140.0	0.0673	Open
P4843	J29_84	J30_84	120.00	300.0	125.0	0.0168	Open
P4844	J30_1	J30_2	120.00	600.0	120.0	0.0429	Open
P4845	J30_1	J31_1	120.00	500.0	120.0	0.0335	Open
P4846	J30_2	J30_3	120.00	150.0	130.0	0.1478	Open
P4847	J30_2	J31_2	120.00	100.0	130.0	0.1230	Open
P4848	J30_3	J30_4	120.00	250.0	125.0	0.1219	Open
P4849	J30_3	J31_3	120.00	100.0	130.0	0.0704	Open
P4850	J30_4	J30_5	120.00	300.0	135.0	0.1057	Open
P4851	J30_4	J31_4	120.00	250.0	140.0	0.0181	Open
P4852	J30_5	J30_6	120.00	100.0	140.0	0.1224	Open
P4853	J30_5	J31_5	120.00	250.0	125.0	0.0541	Open
P4854	J30_6	J30_7	120.00	150.0	125.0	0.0510	Open
P4855	J30_6	J31_6	120.00	300.0	125.0	0.0580	Open
P4856	J30_7	J30_8	120.00	250.0	135.0	0.0134	Open
P4857	J30_7	J31_7	120.00	200.0	135.0	0.0188	Open
P4858	J30_8	J30_9	120.00	250.0	130.0	0.1071	Open
P4859	J30_8	J31_8	120.00	200.0	140.0	0.1454	Open
P4860	J30_9	J30_10	120.00	250.0	135.0	0.1383	Open
P4861	J30_9	J31_9	120.00	300.0	125.0	0.1267	Open
P4862	J30_10	J30_11	120.00	450.0	130.0	0.0062	Open
P4863	J30_10	J31_10	120.00	600.0	130.0	0.0089	Open
P4864	J30_11	J30_12	120.00	150.0	140.0	0.1281	Open
P4865	J30_11	J31_11	120.00	250.0	125.0	0.0864	Open
P4866	J30_12	J30_13	120.00	250.0	125.0	0.1370	Open
P4867	J30_12	J31_12	120.00	150.0	130.0	0.0605	Open
P4868	J30_13	J30_14	120.00	150.0	130.0	0.0877	Open
P4869	J30_13	J31_13	120.00	250.0	130.0	0.0388	Open
P4870	J30_14	J30_15	120.00	100.0	135.0	0.0666	Open
P4871	J30_14	J31_14	120.00	300.0	140.0	0.0601	Open
P4872	J30_15	J30_16	120.00	200.0	125.0	0.1456	Open
P4873	J30_15	J31_15	120.00	100.0	140.0	0.1237	Open
P4874	J30_16	J30_17	120.00	150.0	135.0	0.0260	Open
P4875	J30_16	J31_16	120.00	200.0	135.0	0.0619	Open
P4876	J30_17	J30_18	120.00	250.0	130.0	0.0788	Open
P4877	J30_17	J31_17	120.00	200.0	125.0	0.0920	Open
P4878	J30_18	J30_19	120.00	100.0	125.0	0.1024	Open
P4879	J30_18	J31_18	120.00	250.0	135.0	0.1121	Open
P4880	J30_19	J30_20	120.00	500.0	125.0	0.0356	Open
P4881	J30_19	J31_19	120.00	300.0	125.0	0.0319	Open
P4882	J30_20	J30_21	120.00	250.0	135.0	0.1262	Open
P4883	J30_20	J31_20	120.00	200.0	125.0	0.0550	Open
P4884	J30_21	J30_22	120.00	100.0	130.0	0.1339	Open
P4885	J30_21	J31_21	120.00	150.0	140.0	0.0660	Open
P4886	J30_22	J30_23	120.00	300.0	140.0	0.0225	Open
P4887	J30_22	J31_22	120.00	100.0	130.0	0.0855	Open
P4888	J30_23	J30_24	120.00	150.0	135.0	0.0093	Open
P4889	J30_23	J31_23	120.00	200.0	130.0	0.0535	Open
P4890	J30_24	J30_25	120.00	250.0	140.0	0.1216	Open
P4891	J30_24	J31_24	120.00	200.0	135.0	0.0296	Open
P4892	J30_25	J30_26	120.00	300.0	130.0	0.0037	Open
P4893	J30_25	J31_25	120.00	300.0	130.0	0.0808	Open
P4894	J30_26	J30_27	120.00	250.0	125.0	0.1376	Open
P4895	J30_26	J31_26	120.00	200.0	125.0	0.0638	Open
P4896	J30_27	J30_28	120.00	300.0	125.0	0.0224	Open
P4897	J30_27	J31_27	120.00	200.0	135.0	0.0614	Open
P4898	J30_28	J30_29	120.00	600.0	120.0	0.0099	Open
P4899	J30_28	J31_28	120.00	600.0	125.0	0.0242	Open
P4900	J30_29	J30_30	120.00	250.0	130.0	0.0963	Open
P4901	J30_29	J31_29	120.00	150.0	130.0	0.0092	Open
P4902	J30_30	J30_31	120.00	200.0	135.0	0.0226	Open
P4903	J30_30	J31_30	120.00	300.0	125.0	0.0516	Open
P4904	J30_31	J30_32	120.00	300.0	140.0	0.1341	Open
P4905	J30_31	J31_31	120.00	150.0	140.0	0.0295	Open
P4906	J30_32	J30_33	120.00	200.0	125.0	0.1000	Open
P4907	J30_32	J31_32	120.00	300.0	135.0	0.1231	Open
P4908	J30_33	J30_34	120.00	100.0	130.0	0.1279	Open
P4909	J30_33	J31_33	120.00	200.0	135.0	0.0287	Open
P4910	J30_34	J30_35	120.00	300.0	125.0	0.0454	Open
P4911	J30_34	J31_34	120.00	200.0	125.0	0.1488	Open
P4912	J30_35	J30_36	120.00	100.0	135.0	0.0990	Open
P4913	J30_35	J31_35	120.00	250.0	140.0	0.1431	Open
P4914	J30_36	J30_37	120.00	100.0	135.0	0.1224	Open
P4915	J30_36	J31_36	120.00	100.0	140.0	0.0346	Open
P4916	J30_37	J30_38	120.00	450.0	130.0	0.0221	Open
P4917	J30_37	J31_37	120.00	350.0	120.0	0.0325	Open
P4918	J30_38	J30_39	120.00	300.0	125.0	0.0043	Open
P4919	J30_38	J31_38	120.00	200.0	140.0	0.0987	Open
P4920	J30_39	J30_40	120.00	100.0	140.0	0.0562	Open
P4921	J30_39	J31_39	120.00	300.0	130.0	0.0568	Open
P4922	J30_40	J30_41	120.00	250.0	135.0	0.0527	Open
P4923	J30_40	J31_40	120.00	300.0	140.0	0.1219	Open
P4924	J30_41	J30_42	120.00	300.0	140.0	0.0414	Open
P4925	J30_41	J31_41	120.00	200.0	130.0	0.1284	Open
P4926	J30_42	J30_43	120.00	250.0	140.0	0.0878	Open
P4927	J30_42	J31_42	120.00	150.0	135.0	0.0333	Open
P4928	J30_43	J30_44	120.00	150.0	140.0	0.0805	Open
P4929	J30_43	J31_43	120.00	200.0	125.0	0.0102	Open
P4930	J30_44	J30_45	120.00	100.0	140.0	0.0457	Open
P4931	J30_44	J31_44	120.00	200.0	125.0	0.0216	Open
P4932	J30_45	J30_46	120.00	150.0	140.0	0.0246	Open
P4933	J30_45	J31_45	120.00	200.0	130.0	0.0323	Open
P4934	J30_46	J30_47	120.00	300.0	125.0	0.0461	Open
P4935	J30_46	J31_46	120.00	400.0	125.0	0.0188	Open
P4936	J30_47	J30_48	120.00	150.0	125.0	0.0634	Open
P4937	J30_47	J31_47	120.00	300.0	130.0	0.1306	Open
P4938	J30_48	J30_49	120.00	300.0	125.0	0.1197	Open
P4939	J30_48	J31_48	120.00	100.0	135.0	0.0259	Open
P4940	J30_49	J30_50	120.00	300.0	125.0	0.0089	Open
P4941	J30_49	J31_49	120.00	250.0	130.0	0.0814	Open
P4942	J30_50	J30_51	120.00	150.0	140.0	0.1165	Open
P4943	J30_50	J31_50	120.00	300.0	130.0	0.0372	Open
P4944	J30_51	J30_52	120.00	150.0	140.0	0.0106	Open
P4945	J30_51	J31_51	120.00	250.0	135.0	0.1291	Open
P4946	J30_52	J30_53	120.00	150.0	140.0	0.0797	Open
P4947	J30_52	J31_52	120.00	150.0	125.0	0.1162	Open
P4948	J30_53	J30_54	120.00	250.0	125.0	0.0995	Open
P4949	J30_53	J31_53	120.00	150.0	135.0	0.0403	Open
P4950	J30_54	J30_55	120.00	250.0	140.0	0.1385	Open
P4951	J30_54	J31_54	120.00	100.0	125.0	0.0657	Open
P4952	J30_55	J30_56	120.00	350.0	120.0	0.0413	Open
P4953	J30_55	J31_55	120.00	300.0	130.0	0.0279	Open
P4954	J30_56	J30_57	120.00	300.0	125.0	0.0041	Open
P4955	J30_56	J31_56	120.00	250.0	135.0	0.1474	Open
P4956	J30_57	J30_58	120.00	250.0	135.0	0.0995	Open
P4957	J30_57	J31_57	120.00	250.0	130.0	0.0021	Open
P4958	J30_58	J30_59	120.00	100.0	125.0	0.0262	Open
P4959	J30_58	J31_58	120.00	150.0	130.0	0.1038	Open
P4960	J30_59	J30_60	120.00	200.0	125.0	0.1407	Open
P4961	J30_59	J31_59	120.00	300.0	135.0	0.0871	Open
P4962	J30_60	J30_61	120.00	250.0	140.0	0.0109	Open
P4963	J30_60	J31_60	120.00	200.0	135.0	0.0665	Open
P4964	J30_61	J30_62	120.00	250.0	135.0	0.1295	Open
P4965	J30_61	J31_61	120.00	150.0	130.0	0.1050	Open
P4966	J30_62	J30_63	120.00	300.0	130.0	0.1074	Open
P4967	J30_62	J31_62	120.00	250.0	135.0	0.0509	Open
P4968	J30_63	J30_64	120.00	200.0	125.0	0.0337	Open
P4969	J30_63	J31_63	120.00	200.0	135.0	0.1484	Open
P4970	J30_64	J30_65	120.00	600.0	125.0	0.0059	Open
P4971	J30_64	J31_64	120.00	350.0	130.0	0.0041	Open
P4972	J30_65	J30_66	120.00	100.0	125.0	0.1136	Open
P4973	J30_65	J31_65	120.00	100.0	135.0	0.0653	Open
P4974	J30_66	J30_67	120.00	150.0	130.0	0.0969	Open
P4975	J30_66	J31_66	120.00	100.0	135.0	0.1235	Open
P4976	J30_67	J30_68	120.00	100.0	130.0	0.0487	Open
P4977	J30_67	J31_67	120.00	200.0	125.0	0.0200	Open
P4978	J30_68	J30_69	120.00	100.0	125.0	0.0816	Open
P4979	J30_68	J31_68	120.00	100.0	135.0	0.1448	Open
P4980	J30_69	J30_70	120.00	100.0	130.0	0.1171	Open
P4981	J30_69	J31_69	120.00	150.0	140.0	0.1327	Open
P4982	J30_70	J30_71	120.00	200.0	125.0	0.1491	Open
P4983	J30_70	J31_70	120.00	250.0	125.0	0.0317	Open
P4984	J30_71	J30_72	120.00	250.0	135.0	0.0774	Open
P4985	J30_71	J31_71	120.00	250.0	130.0	0.0712	Open
P4986	J30_72	J30_73	120.00	100.0	130.0	0.0380	Open
P4987	J30_72	J31_72	120.00	250.0	140.0	0.0811	Open
P4988	J30_73	J30_74	120.00	500.0	130.0	0.0117	Open
P4989	J30_73	J31_73	120.00	450.0	130.0	0.0494	Open
P4990	J30_74	J30_75	120.00	200.0	125.0	0.1094	Open
P4991	J30_74	J31_74	120.00	300.0	125.0	0.0917	Open
P4992	J30_75	J30_76	120.00	250.0	135.0	0.0598	Open
P4993	J30_75	J31_75	120.00	250.0	135.0	0.0780	Open
P4994	J30_76	J30_77	120.00	250.0	135.0	0.0781	Open
P4995	J30_76	J31_76	120.00	150.0	125.0	0.0376	Open
P4996	J30_77	J30_78	120.00	100.0	135.0	0.1489	Open
P4997	J30_77	J31_77	120.00	300.0	140.0	0.1168	Open
P4998	J30_78	J30_79	120.00	200.0	135.0	0.0800	Open
P4999	J30_78	J31_78	120.00	150.0	140.0	0.0872	Open
P5000	J30_79	J30_80	120.00	300.0	140.0	0.0061	Open
P5001	J30_79	J31_79	120.00	100.0	140.0	0.1063	Open
P5002	J30_80	J30_81	120.00	150.0	125.0	0.1284	Open
P5003	J30_80	J31_80	120.00	250.0	140.0	0.0784	Open
P5004	J30_81	J30_82	120.00	250.0	130.0	0.0922	Open
P5005	J30_81	J31_81	120.00	150.0	125.0	0.1088	Open
P5006	J30_82	J30_83	120.00	400.0	120.0	0.0030	Open
P5007	J30_82	J31_82	120.00	300.0	125.0	0.0366	Open
P5008	J30_83	J30_84	120.00	300.0	125.0	0.0314	Open
P5009	J30_83	J31_83	120.00	150.0	140.0	0.0902	Open
P5010	J30_84	J31_84	120.00	200.0	130.0	0.1469	Open
P5011	J31_1	J31_2	120.00	400.0	120.0	0.0328	Open
P5012	J31_1	J32_1	120.00	450.0	120.0	0.0246	Open
P5013	J31_2	J31_3	120.00	100.0	130.0	0.1324	Open
P5014	J31_2	J32_2	120.00	300.0	130.0	0.0633	Open
P5015	J31_3	J31_4	120.00	250.0	130.0	0.0237	Open
P5016	J31_3	J32_3	120.00	300.0	135.0	0.1488	Open
P5017	J31_4	J31_5	120.00	300.0	135.0	0.0972	Open
P5018	J31_4	J32_4	120.00	250.0	135.0	0.1221	Open
P5019	J31_5	J31_6	120.00	250.0	140.0	0.1330	Open
P5020	J31_5	J32_5	120.00	100.0	130.0	0.1022	Open
P5021	J31_6	J31_7	120.00	150.0	135.0	0.1443	Open
P5022	J31_6	J32_6	120.00	100.0	140.0	0.1399	Open
P5023	J31_7	J31_8	120.00	100.0	135.0	0.0789	Open
P5024	J31_7	J32_7	120.00	300.0	125.0	0.0919	Open
P5025	J31_8	J31_9	120.00	250.0	135.0	0.0389	Open
P5026	J31_8	J32_8	120.00	100.0	125.0	0.0675	Open
P5027	J31_9	J31_10	120.00	150.0	140.0	0.0330	Open
P5028	J31_9	J32_9	120.00	250.0	125.0	0.1482	Open
P5029	J31_10	J31_11	120.00	450.0	120.0	0.0025	Open
P5030	J31_10	J32_10	120.00	400.0	120.0	0.0119	Open
P5031	J31_11	J31_12	120.00	100.0	140.0	0.0188	Open
P5032	J31_11	J32_11	120.00	200.0	135.0	0.1327	Open
P5033	J31_12	J31_13	120.00	150.0	135.0	0.1045	Open
P5034	J31_12	J32_12	120.00	300.0	125.0	0.1288	Open
P5035	J31_13	J31_14	120.00	100.0	135.0	0.0446	Open
P5036	J31_13	J32_13	120.00	300.0	130.0	0.0789	Open
P5037	J31_14	J31_15	120.00	300.0	140.0	0.1269	Open
P5038	J31_14	J32_14	120.00	300.0	135.0	0.1227	Open
P5039	J31_15	J31_16	120.00	300.0	130.0	0.0508	Open
P5040	J31_15	J32_15	120.00	250.0	125.0	0.0121	Open
P5041	J31_16	J31_17	120.00	100.0	130.0	0.0374	Open
P5042	J31_16	J32_16	120.00	100.0	125.0	0.1290	Open
P5043	J31_17	J31_18	120.00	100.0	135.0	0.0005	Open
P5044	J31_17	J32_17	120.00	300.0	125.0	0.0686	Open
P5045	J31_18	J31_19	120.00	250.0	135.0	0.0276	Open
P5046	J31_18	J32_18	120.00	100.0	135.0	0.1339	Open
P5047	J31_19	J31_20	120.00	300.0	130.0	0.0313	Open
P5048	J31_19	J32_19	120.00	500.0	130.0	0.0498	Open
P5049	J31_20	J31_21	120.00	200.0	125.0	0.0337	Open
P5050	J31_20	J32_20	120.00	300.0	140.0	0.1499	Open
P5051	J31_21	J31_22	120.00	200.0	125.0	0.1343	Open
P5052	J31_21	J32_21	120.00	200.0	140.0	0.0888	Open
P5053	J31_22	J31_23	120.00	100.0	135.0	0.1277	Open
P5054	J31_22	J32_22	120.00	300.0	125.0	0.1041	Open
P5055	J31_23	J31_24	120.00	300.0	130.0	0.0540	Open
P5056	J31_23	J32_23	120.00	250.0	125.0	0.1230	Open
P5057	J31_24	J31_25	120.00	300.0	130.0	0.0533	Open
P5058	J31_24	J32_24	120.00	250.0	135.0	0.1317	Open
P5059	J31_25	J31_26	120.00	100.0	130.0	0.0855	Open
P5060	J31_25	J32_25	120.00	100.0	135.0	0.1435	Open
P5061	J31_26	J31_27	120.00	250.0	135.0	0.0202	Open
P5062	J31_26	J32_26	120.00	200.0	135.0	0.0242	Open
P5063	J31_27	J31_28	120.00	200.0	140.0	0.0569	Open
P5064	J31_27	J32_27	120.00	300.0	125.0	0.0614	Open
P5065	J31_28	J31_29	120.00	400.0	125.0	0.0267	Open
P5066	J31_28	J32_28	120.00	400.0	130.0	0.0117	Open
P5067	J31_29	J31_30	120.00	150.0	125.0	0.0230	Open
P5068	J31_29	J32_29	120.00	250.0	135.0	0.0915	Open
P5069	J31_30	J31_31	120.00	250.0	140.0	0.0256	Open
P5070	J31_30	J32_30	120.00	200.0	125.0	0.0568	Open
P5071	J31_31	J31_32	120.00	100.0	135.0	0.0705	Open
P5072	J31_31	J32_31	120.00	150.0	135.0	0.0772	Open
P5073	J31_32	J31_33	120.00	200.0	135.0	0.1238	Open
P5074	J31_32	J32_32	120.00	300.0	140.0	0.0777	Open
P5075	J31_33	J31_34	120.00	250.0	135.0	0.0475	Open
P5076	J31_33	J32_33	120.00	100.0	140.0	0.1016	Open
P5077	J31_34	J31_35	120.00	100.0	130.0	0.0540	Open
P5078	J31_34	J32_34	120.00	300.0	140.0	0.0035	Open
P5079	J31_35	J31_36	120.00	150.0	125.0	0.0122	Open
P5080	J31_35	J32_35	120.00	300.0	130.0	0.0502	Open
P5081	J31_36	J31_37	120.00	200.0	140.0	0.0257	Open
P5082	J31_36	J32_36	120.00	100.0	135.0	0.1325	Open
P5083	J31_37	J31_38	120.00	400.0	130.0	0.0171	Open
P5084	J31_37	J32_37	120.00	450.0	130.0	0.0120	Open
P5085	J31_38	J31_39	120.00	150.0	135.0	0.0048	Open
P5086	J31_38	J32_38	120.00	250.0	125.0	0.0068	Open
P5087	J31_39	J31_40	120.00	250.0	130.0	0.0441	Open
P5088	J31_39	J32_39	120.00	150.0	125.0	0.0372	Open
P5089	J31_40	J31_41	120.00	150.0	140.0	0.0559	Open
P5090	J31_40	J32_40	120.00	150.0	125.0	0.1494	Open
P5091	J31_41	J31_42	120.00	300.0	135.0	0.0618	Open
P5092	J31_41	J32_41	120.00	250.0	130.0	0.0912	Open
P5093	J31_42	J31_43	120.00	100.0	140.0	0.0447	Open
P5094	J31_42	J32_42	120.00	150.0	125.0	0.1288	Open
P5095	J31_43	J31_44	120.00	100.0	130.0	0.0146	Open
P5096	J31_43	J32_43	120.00	150.0	135.0	0.1237	Open
P5097	J31_44	J31_45	120.00	100.0	130.0	0.0181	Open
P5098	J31_44	J32_44	120.00	300.0	135.0	0.0129	Open
P5099	J31_45	J31_46	120.00	200.0	125.0	0.0171	Open
P5100	J31_45	J32_45	120.00	200.0	140.0	0.0667	Open
P5101	J31_46	J31_47	120.00	500.0	130.0	0.0452	Open
P5102	J31_46	J32_46	120.00	450.0	130.0	0.0069	Open
P5103	J31_47	J31_48	120.00	100.0	135.0	0.0393	Open
P5104	J31_47	J32_47	120.00	200.0	125.0	0.0822	Open
P5105	J31_48	J31_49	120.00	100.0	125.0	0.0083	Open
P5106	J31_48	J32_48	120.00	250.0	130.0	0.1188	Open
P5107	J31_49	J31_50	120.00	200.0	135.0	0.0402	Open
P5108	J31_49	J32_49	120.00	150.0	135.0	0.1193	Open
P5109	J31_50	J31_51	120.00	100.0	135.0	0.0194	Open
P5110	J31_50	J32_50	120.00	250.0	130.0	0.1166	Open
P5111	J31_51	J31_52	120.00	150.0	125.0	0.1373	Open
P5112	J31_51	J32_51	120.00	100.0	140.0	0.1025	Open
P5113	J31_52	J31_53	120.00	250.0	130.0	0.1220	Open
P5114	J31_52	J32_52	120.00	300.0	135.0	0.0548	Open
P5115	J31_53	J31_54	120.00	200.0	125.0	0.0568	Open
P5116	J31_53	J32_53	120.00	100.0	140.0	0.1443	Open
P5117	J31_54	J31_55	120.00	150.0	125.0	0.0720	Open
P5118	J31_54	J32_54	120.00	250.0	140.0	0.1060	Open
P5119	J31_55	J31_56	120.00	350.0	125.0	0.0124	Open
P5120	J31_55	J32_55	120.00	300.0	130.0	0.0475	Open
P5121	J31_56	J31_57	120.00	200.0	125.0	0.1303	Open
P5122	J31_56	J32_56	120.00	150.0	140.0	0.1485	Open
P5123	J31_57	J31_58	120.00	100.0	130.0	0.0113	Open
P5124	J31_57	J32_57	120.00	200.0	135.0	0.0697	Open
P5125	J31_58	J31_59	120.00	100.0	125.0	0.1269	Open
P5126	J31_58	J32_58	120.00	150.0	125.0	0.0862	Open
P5127	J31_59	J31_60	120.00	100.0	135.0	0.1331	Open
P5128	J31_59	J32_59	120.00	300.0	135.0	0.0445	Open
P5129	J31_60	J31_61	120.00	100.0	135.0	0.0929	Open
P5130	J31_60	J32_60	120.00	200.0	140.0	0.0008	Open
P5131	J31_61	J31_62	120.00	100.0	125.0	0.0358	Open
P5132	J31_61	J32_61	120.00	100.0	125.0	0.1058	Open
P5133	J31_62	J31_63	120.00	200.0	140.0	0.1231	Open
P5134	J31_62	J32_62	120.00	200.0	140.0	0.0610	Open
P5135	J31_63	J31_64	120.00	150.0	130.0	0.1329	Open
P5136	J31_63	J32_63	120.00	150.0	140.0	0.1161	Open
P5137	J31_64	J31_65	120.00	450.0	125.0	0.0357	Open
P5138	J31_64	J32_64	120.00	350.0	125.0	0.0065	Open
P5139	J31_65	J31_66	120.00	200.0	135.0	0.0589	Open
P5140	J31_65	J32_65	120.00	250.0	130.0	0.1342	Open
P5141	J31_66	J31_67	120.00	100.0	125.0	0.1313	Open
P5142	J31_66	J32_66	120.00	200.0	130.0	0.0345	Open
P5143	J31_67	J31_68	120.00	100.0	135.0	0.1348	Open
P5144	J31_67	J32_67	120.00	100.0	140.0	0.1362	Open
P5145	J31_68	J31_69	120.00	150.0	140.0	0.1400	Open
P5146	J31_68	J32_68	120.00	150.0	130.0	0.0917	Open
P5147	J31_69	J31_70	120.00	200.0	140.0	0.0979	Open
P5148	J31_69	J32_69	120.00	250.0	140.0	0.0027	Open
P5149	J31_70	J31_71	120.00	250.0	130.0	0.0692	Open
P5150	J31_70	J32_70	120.00	150.0	130.0	0.0610	Open
P5151	J31_71	J31_72	120.00	250.0	130.0	0.1091	Open
P5152	J31_71	J32_71	120.00	150.0	130.0	0.1476	Open
P5153	J31_72	J31_73	120.00	150.0	135.0	0.0434	Open
P5154	J31_72	J32_72	120.00	150.0	125.0	0.1001	Open
P5155	J31_73	J31_74	120.00	400.0	125.0	0.0233	Open
P5156	J31_73	J32_73	120.00	300.0	125.0	0.0023	Open
P5157	J31_74	J31_75	120.00	100.0	135.0	0.1400	Open
P5158	J31_74	J32_74	120.00	200.0	125.0	0.0298	Open
P5159	J31_75	J31_76	120.00	100.0	135.0	0.0941	Open
P5160	J31_75	J32_75	120.00	100.0	130.0	0.1346	Open
P5161	J31_76	J31_77	120.00	250.0	125.0	0.0250	Open
P5162	J31_76	J32_76	120.00	250.0	125.0	0.1448	Open
P5163	J31_77	J31_78	120.00	300.0	125.0	0.1049	Open
P5164	J31_77	J32_77	120.00	100.0	140.0	0.0782	Open
P5165	J31_78	J31_79	120.00	150.0	135.0	0.0230	Open
P5166	J31_78	J32_78	120.00	100.0	135.0	0.1032	Open
P5167	J31_79	J31_80	120.00	100.0	140.0	0.0337	Open
P5168	J31_79	J32_79	120.00	200.0	130.0	0.0792	Open
P5169	J31_80	J31_81	120.00	200.0	135.0	0.0946	Open
P5170	J31_80	J32_80	120.00	250.0	125.0	0.0545	Open
P5171	J31_81	J31_82	120.00	300.0	125.0	0.1100	Open
P5172	J31_81	J32_81	120.00	200.0	140.0	0.0618	Open
P5173	J31_82	J31_83	120.00	400.0	130.0	0.0232	Open
P5174	J31_82	J32_82	120.00	350.0	120.0	0.0005	Open
P5175	J31_83	J31_84	120.00	150.0	130.0	0.0912	Open
P5176	J31_83	J32_83	120.00	200.0	140.0	0.0310	Open
P5177	J31_84	J32_84	120.00	300.0	135.0	0.0774	Open
P5178	J32_1	J32_2	120.00	300.0	120.0	0.0289	Open
P5179	J32_1	J33_1	120.00	350.0	120.0	0.0015	Open
P5180	J32_2	J32_3	120.00	150.0	130.0	0.0126	Open
P5181	J32_2	J33_2	120.00	150.0	130.0	0.1262	Open
P5182	J32_3	J32_4	120.00	300.0	125.0	0.0213	Open
P5183	J32_3	J33_3	120.00	300.0	135.0	0.0182	Open
P5184	J32_4	J32_5	120.00	200.0	125.0	0.1199	Open
P5185	J32_4	J33_4	120.00	300.0	140.0	0.1383	Open
P5186	J32_5	J32_6	120.00	100.0	125.0	0.0977	Open
P5187	J32_5	J33_5	120.00	150.0	140.0	0.0147	Open
P5188	J32_6	J32_7	120.00	100.0	135.0	0.1048	Open
P5189	J32_6	J33_6	120.00	100.0	130.0	0.1160	Open
P5190	J32_7	J32_8	120.00	250.0	135.0	0.0292	Open
P5191	J32_7	J33_7	120.00	250.0	130.0	0.0563	Open
P5192	J32_8	J32_9	120.00	100.0	135.0	0.0711	Open
P5193	J32_8	J33_8	120.00	300.0	135.0	0.1292	Open
P5194	J32_9	J32_10	120.00	100.0	140.0	0.0756	Open
P5195	J32_9	J33_9	120.00	250.0	135.0	0.1383	Open
P5196	J32_10	J32_11	120.00	350.0	130.0	0.0369	Open
P5197	J32_10	J33_10	120.00	500.0	130.0	0.0288	Open
P5198	J32_11	J32_12	120.00	250.0	125.0	0.1255	Open
P5199	J32_11	J33_11	120.00	250.0	130.0	0.0876	Open
P5200	J32_12	J32_13	120.00	100.0	135.0	0.0159	Open
P5201	J32_12	J33_12	120.00	100.0	140.0	0.0124	Open
P5202	J32_13	J32_14	120.00	200.0	135.0	0.0807	Open
P5203	J32_13	J33_13	120.00	100.0	130.0	0.0971	Open
P5204	J32_14	J32_15	120.00	100.0	130.0	0.0297	Open
P5205	J32_14	J33_14	120.00	100.0	140.0	0.1477	Open
P5206	J32_15	J32_16	120.00	100.0	130.0	0.0539	Open
P5207	J32_15	J33_15	120.00	150.0	135.0	0.0107	Open
P5208	J32_16	J32_17	120.00	150.0	135.0	0.0818	Open
P5209	J32_16	J33_16	120.00	200.0	125.0	0.0944	Open
P5210	J32_17	J32_18	120.00	100.0	125.0	0.0193	Open
P5211	J32_17	J33_17	120.00	100.0	130.0	0.0453	Open
P5212	J32_18	J32_19	120.00	150.0	130.0	0.0994	Open
P5213	J32_18	J33_18	120.00	300.0	135.0	0.0373	Open
P5214	J32_19	J32_20	120.00	450.0	120.0	0.0034	Open
P5215	J32_19	J33_19	120.00	450.0	130.0	0.0187	Open
P5216	J32_20	J32_21	120.00	300.0	130.0	0.0683	Open
P5217	J32_20	J33_20	120.00	300.0	125.0	0.0210	Open
P5218	J32_21	J32_22	120.00	250.0	135.0	0.1376	Open
P5219	J32_21	J33_21	120.00	150.0	135.0	0.1305	Open
P5220	J32_22	J32_23	120.00	100.0	130.0	0.1268	Open
P5221	J32_22	J33_22	120.00	300.0	135.0	0.1277	Open
P5222	J32_23	J32_24	120.00	250.0	125.0	0.0782	Open
P5223	J32_23	J33_23	120.00	200.0	140.0	0.1160	Open
P5224	J32_24	J32_25	120.00	200.0	130.0	0.1478	Open
P5225	J32_24	J33_24	120.00	300.0	140.0	0.1001	Open
P5226	J32_25	J32_26	120.00	300.0	130.0	0.0206	Open
P5227	J32_25	J33_25	120.00	150.0	130.0	0.1117	Open
P5228	J32_26	J32_27	120.00	300.0	130.0	0.1273	Open
P5229	J32_26	J33_26	120.00	150.0	135.0	0.0609	Open
P5230	J32_27	J32_28	120.00	200.0	140.0	0.0228	Open
P5231	J32_27	J33_27	120.00	200.0	130.0	0.1239	Open
P5232	J32_28	J32_29	120.00	300.0	120.0	0.0497	Open
P5233	J32_28	J33_28	120.00	500.0	120.0	0.0169	Open
P5234	J32_29	J32_30	120.00	100.0	125.0	0.0551	Open
P5235	J32_29	J33_29	120.00	100.0	125.0	0.0014	Open
P5236	J32_30	J32_31	120.00	150.0	125.0	0.0126	Open
P5237	J32_30	J33_30	120.00	300.0	130.0	0.0113	Open
P5238	J32_31	J32_32	120.00	150.0	140.0	0.0496	Open
P5239	J32_31	J33_31	120.00	200.0	125.0	0.0438	Open
P5240	J32_32	J32_33	120.00	200.0	130.0	0.1476	Open
P5241	J32_32	J33_32	120.00	300.0	140.0	0.0049	Open
P5242	J32_33	J32_34	120.00	100.0	125.0	0.0347	Open
P5243	J32_33	J33_33	120.00	250.0	135.0	0.0557	Open
P5244	J32_34	J32_35	120.00	150.0	125.0	0.0698	Open
P5245	J32_34	J33_34	120.00	250.0	135.0	0.0532	Open
P5246	J32_35	J32_36	120.00	150.0	140.0	0.0882	Open
P5247	J32_35	J33_35	120.00	300.0	130.0	0.0765	Open
P5248	J32_36	J32_37	120.00	250.0	135.0	0.0437	Open
P5249	J32_36	J33_36	120.00	250.0	140.0	0.0840	Open
P5250	J32_37	J32_38	120.00	500.0	130.0	0.0126	Open
P5251	J32_37	J33_37	120.00	500.0	130.0	0.0069	Open
P5252	J32_38	J32_39	120.00	300.0	130.0	0.0507	Open
P5253	J32_38	J33_38	120.00	150.0	130.0	0.1447	Open
P5254	J32_39	J32_40	120.00	300.0	135.0	0.0752	Open
P5255	J32_39	J33_39	120.00	300.0	140.0	0.0258	Open
P5256	J32_40	J32_41	120.00	250.0	125.0	0.1005	Open
P5257	J32_40	J33_40	120.00	300.0	135.0	0.1356	Open
P5258	J32_41	J32_42	120.00	250.0	135.0	0.0678	Open
P5259	J32_41	J33_41	120.00	300.0	130.0	0.0399	Open
P5260	J32_42	J32_43	120.00	250.0	130.0	0.0394	Open
P5261	J32_42	J33_42	120.00	100.0	125.0	0.1078	Open
P5262	J32_43	J32_44	120.00	100.0	125.0	0.0491	Open
P5263	J32_43	J33_43	120.00	200.0	125.0	0.0802	Open
P5264	J32_44	J32_45	120.00	300.0	140.0	0.0264	Open
P5265	J32_44	J33_44	120.00	200.0	125.0	0.0557	Open
P5266	J32_45	J32_46	120.00	300.0	135.0	0.0192	Open
P5267	J32_45	J33_45	120.00	300.0	135.0	0.0162	Open
P5268	J32_46	J32_47	120.00	350.0	130.0	0.0139	Open
P5269	J32_46	J33_46	120.00	600.0	125.0	0.0003	Open
P5270	J32_47	J32_48	120.00	200.0	135.0	0.0950	Open
P5271	J32_47	J33_47	120.00	200.0	130.0	0.0255	Open
P5272	J32_48	J32_49	120.00	100.0	125.0	0.0303	Open
P5273	J32_48	J33_48	120.00	300.0	135.0	0.0339	Open
P5274	J32_49	J32_50	120.00	200.0	135.0	0.0961	Open
P5275	J32_49	J33_49	120.00	150.0	135.0	0.0609	Open
P5276	J32_50	J32_51	120.00	150.0	135.0	0.1339	Open
P5277	J32_50	J33_50	120.00	300.0	135.0	0.0376	Open
P5278	J32_51	J32_52	120.00	250.0	130.0	0.1381	Open
P5279	J32_51	J33_51	120.00	250.0	135.0	0.0936	Open
P5280	J32_52	J32_53	120.00	250.0	125.0	0.1453	Open
P5281	J32_52	J33_52	120.00	250.0	125.0	0.0557	Open
P5282	J32_53	J32_54	120.00	100.0	125.0	0.0200	Open
P5283	J32_53	J33_53	120.00	250.0	130.0	0.0351	Open
P5284	J32_54	J32_55	120.00	100.0	140.0	0.0610	Open
P5285	J32_54	J33_54	120.00	200.0	125.0	0.0859	Open
P5286	J32_55	J32_56	120.00	400.0	120.0	0.0031	Open
P5287	J32_55	J33_55	120.00	600.0	130.0	0.0209	Open
P5288	J32_56	J32_57	120.00	250.0	125.0	0.0707	Open
P5289	J32_56	J33_56	120.00	250.0	135.0	0.1154	Open
P5290	J32_57	J32_58	120.00	200.0	130.0	0.0459	Open
P5291	J32_57	J33_57	120.00	250.0	140.0	0.0098	Open
P5292	J32_58	J32_59	120.00	300.0	130.0	0.0344	Open
P5293	J32_58	J33_58	120.00	150.0	125.0	0.1093	Open
P5294	J32_59	J32_60	120.00	250.0	130.0	0.1421	Open
P5295	J32_59	J33_59	120.00	200.0	140.0	0.0087	Open
P5296	J32_60	J32_61	120.00	150.0	130.0	0.1256	Open
P5297	J32_60	J33_60	120.00	150.0	130.0	0.1076	Open
P5298	J32_61	J32_62	120.00	100.0	125.0	0.0357	Open
P5299	J32_61	J33_61	120.00	250.0	140.0	0.1168	Open
P5300	J32_62	J32_63	120.00	150.0	130.0	0.0470	Open
P5301	J32_62	J33_62	120.00	100.0	140.0	0.0878	Open
P5302	J32_63	J32_64	120.00	150.0	125.0	0.1034	Open
P5303	J32_63	J33_63	120.00	100.0	130.0	0.0556	Open
P5304	J32_64	J32_65	120.00	500.0	120.0	0.0016	Open
P5305	J32_64	J33_64	120.00	450.0	120.0	0.0027	Open
P5306	J32_65	J32_66	120.00	250.0	135.0	0.0726	Open
P5307	J32_65	J33_65	120.00	300.0	125.0	0.0269	Open
P5308	J32_66	J32_67	120.00	150.0	130.0	0.0871	Open
P5309	J32_66	J33_66	120.00	150.0	125.0	0.0753	Open
P5310	J32_67	J32_68	120.00	100.0	135.0	0.1036	Open
P5311	J32_67	J33_67	120.00	250.0	140.0	0.1490	Open
P5312	J32_68	J32_69	120.00	100.0	135.0	0.0031	Open
P5313	J32_68	J33_68	120.00	300.0	140.0	0.0699	Open
P5314	J32_69	J32_70	120.00	200.0	125.0	0.0839	Open
P5315	J32_69	J33_69	120.00	100.0	125.0	0.1337	Open
P5316	J32_70	J32_71	120.00	250.0	125.0	0.1426	Open
P5317	J32_70	J33_70	120.00	100.0	140.0	0.0301	Open
P5318	J32_71	J32_72	120.00	300.0	125.0	0.1341	Open
P5319	J32_71	J33_71	120.00	200.0	140.0	0.1377	Open
P5320	J32_72	J32_73	120.00	100.0	140.0	0.0013	Open
P5321	J32_72	J33_72	120.00	200.0	135.0	0.0881	Open
P5322	J32_73	J32_74	120.00	350.0	130.0	0.0054	Open
P5323	J32_73	J33_73	120.00	300.0	130.0	0.0072	Open
P5324	J32_74	J32_75	120.00	100.0	130.0	0.0007	Open
P5325	J32_74	J33_74	120.00	300.0	125.0	0.0815	Open
P5326	J32_75	J32_76	120.00	200.0	125.0	0.1192	Open
P5327	J32_75	J33_75	120.00	150.0	130.0	0.1416	Open
P5328	J32_76	J32_77	120.00	300.0	125.0	0.0734	Open
P5329	J32_76	J33_76	120.00	250.0	125.0	0.0396	Open
P5330	J32_77	J32_78	120.00	200.0	130.0	0.0899	Open
P5331	J32_77	J33_77	120.00	200.0	125.0	0.1276	Open
P5332	J32_78	J32_79	120.00	100.0	125.0	0.0827	Open
P5333	J32_78	J33_78	120.00	250.0	125.0	0.0922	Open
P5334	J32_79	J32_80	120.00	150.0	130.0	0.0716	Open
P5335	J32_79	J33_79	120.00	250.0	125.0	0.1172	Open
P5336	J32_80	J32_81	120.00	150.0	125.0	0.0207	Open
P5337	J32_80	J33_80	120.00	250.0	135.0	0.0909	Open
P5338	J32_81	J32_82	120.00	300.0	125.0	0.1055	Open
P5339	J32_81	J33_81	120.00	200.0	135.0	0.0893	Open
P5340	J32_82	J32_83	120.00	450.0	125.0	0.0418	Open
P5341	J32_82	J33_82	120.00	400.0	120.0	0.0030	Open
P5342	J32_83	J32_84	120.00	200.0	140.0	0.0523	Open
P5343	J32_83	J33_83	120.00	100.0	125.0	0.1298	Open
P5344	J32_84	J33_84	120.00	150.0	130.0	0.0433	Open
P5345	J33_1	J33_2	120.00	300.0	120.0	0.0021	Open
P5346	J33_1	J34_1	120.00	500.0	130.0	0.0326	Open
P5347	J33_2	J33_3	120.00	300.0	135.0	0.0467	Open
P5348	J33_2	J34_2	120.00	100.0	135.0	0.0075	Open
P5349	J33_3	J33_4	120.00	300.0	125.0	0.0025	Open
P5350	J33_3	J34_3	120.00	200.0	130.0	0.1102	Open
P5351	J33_4	J33_5	120.00	300.0	135.0	0.0347	Open
P5352	J33_4	J34_4	120.00	100.0	125.0	0.0627	Open
P5353	J33_5	J33_6	120.00	200.0	135.0	0.0632	Open
P5354	J33_5	J34_5	120.00	300.0	130.0	0.0639	Open
P5355	J33_6	J33_7	120.00	250.0	135.0	0.1446	Open
P5356	J33_6	J34_6	120.00	300.0	130.0	0.1422	Open
P5357	J33_7	J33_8	120.00	150.0	140.0	0.1274	Open
P5358	J33_7	J34_7	120.00	300.0	125.0	0.1496	Open
P5359	J33_8	J33_9	120.00	250.0	135.0	0.1475	Open
P5360	J33_8	J34_8	120.00	100.0	130.0	0.0596	Open
P5361	J33_9	J33_10	120.00	100.0	130.0	0.1084	Open
P5362	J33_9	J34_9	120.00	200.0	130.0	0.0317	Open
P5363	J33_10	J33_11	120.00	350.0	120.0	0.0173	Open
P5364	J33_10	J34_10	120.00	450.0	125.0	0.0249	Open
P5365	J33_11	J33_12	120.00	200.0	130.0	0.1449	Open
P5366	J33_11	J34_11	120.00	150.0	140.0	0.0350	Open
P5367	J33_12	J33_13	120.00	250.0	135.0	0.0342	Open
P5368	J33_12	J34_12	120.00	300.0	125.0	0.1301	Open
P5369	J33_13	J33_14	120.00	250.0	140.0	0.1321	Open
P5370	J33_13	J34_13	120.00	300.0	130.0	0.0806	Open
P5371	J33_14	J33_15	120.00	100.0	125.0	0.0670	Open
P5372	J33_14	J34_14	120.00	300.0	130.0	0.0671	Open
P5373	J33_15	J33_16	120.00	250.0	140.0	0.0292	Open
P5374	J33_15	J34_15	120.00	300.0	130.0	0.0055	Open
P5375	J33_16	J33_17	120.00	150.0	140.0	0.1087	Open
P5376	J33_16	J34_16	120.00	100.0	140.0	0.1143	Open
P5377	J33_17	J33_18	120.00	300.0	125.0	0.0714	Open
P5378	J33_17	J34_17	120.00	100.0	130.0	0.0586	Open
P5379	J33_18	J33_19	120.00	300.0	130.0	0.1431	Open
P5380	J33_18	J34_18	120.00	250.0	130.0	0.1359	Open
P5381	J33_19	J33_20	120.00	450.0	125.0	0.0430	Open
P5382	J33_19	J34_19	120.00	400.0	125.0	0.0375	Open
P5383	J33_20	J33_21	120.00	250.0	140.0	0.1146	Open
P5384	J33_20	J34_20	120.00	250.0	130.0	0.0479	Open
P5385	J33_21	J33_22	120.00	200.0	130.0	0.0710	Open
P5386	J33_21	J34_21	120.00	200.0	125.0	0.0105	Open
P5387	J33_22	J33_23	120.00	300.0	135.0	0.0966	Open
P5388	J33_22	J34_22	120.00	250.0	135.0	0.0785	Open
P5389	J33_23	J33_24	120.00	200.0	130.0	0.0010	Open
P5390	J33_23	J34_23	120.00	250.0	135.0	0.1120	Open
P5391	J33_24	J33_25	120.00	300.0	125.0	0.0427	Open
P5392	J33_24	J34_24	120.00	300.0	135.0	0.0138	Open
P5393	J33_25	J33_26	120.00	150.0	125.0	0.0060	Open
P5394	J33_25	J34_25	120.00	250.0	130.0	0.0657	Open
P5395	J33_26	J33_27	120.00	250.0	130.0	0.0023	Open
P5396	J33_26	J34_26	120.00	250.0	130.0	0.0906	Open
P5397	J33_27	J33_28	120.00	150.0	140.0	0.0239	Open
P5398	J33_27	J34_27	120.00	250.0	130.0	0.1382	Open
P5399	J33_28	J33_29	120.00	400.0	125.0	0.0036	Open
P5400	J33_28	J34_28	120.00	450.0	130.0	0.0348	Open
P5401	J33_29	J33_30	120.00	250.0	130.0	0.0048	Open
P5402	J33_29	J34_29	120.00	250.0	125.0	0.0398	Open
P5403	J33_30	J33_31	120.00	150.0	135.0	0.1202	Open
P5404	J33_30	J34_30	120.00	200.0	140.0	0.0075	Open
P5405	J33_31	J33_32	120.00	200.0	135.0	0.0427	Open
P5406	J33_31	J34_31	120.00	250.0	140.0	0.0833	Open
P5407	J33_32	J33_33	120.00	300.0	135.0	0.0037	Open
P5408	J33_32	J34_32	120.00	100.0	130.0	0.0977	Open
P5409	J33_33	J33_34	120.00	100.0	140.0	0.0311	Open
P5410	J33_33	J34_33	120.00	200.0	140.0	0.0568	Open
P5411	J33_34	J33_35	120.00	200.0	135.0	0.0560	Open
P5412	J33_34	J34_34	120.00	200.0	135.0	0.0919	Open
P5413	J33_35	J33_36	120.00	150.0	140.0	0.0928	Open
P5414	J33_35	J34_35	120.00	300.0	125.0	0.1021	Open
P5415	J33_36	J33_37	120.00	300.0	125.0	0.0901	Open
P5416	J33_36	J34_36	120.00	200.0	130.0	0.0362	Open
P5417	J33_37	J33_38	120.00	400.0	120.0	0.0371	Open
P5418	J33_37	J34_37	120.00	300.0	125.0	0.0276	Open
P5419	J33_38	J33_39	120.00	200.0	135.0	0.0312	Open
P5420	J33_38	J34_38	120.00	150.0	125.0	0.0291	Open
P5421	J33_39	J33_40	120.00	250.0	140.0	0.1154	Open
P5422	J33_39	J34_39	120.00	200.0	125.0	0.0194	Open
P5423	J33_40	J33_41	120.00	250.0	140.0	0.1379	Open
P5424	J33_40	J34_40	120.00	150.0	135.0	0.0921	Open
P5425	J33_41	J33_42	120.00	150.0	135.0	0.1362	Open
P5426	J33_41	J34_41	120.00	100.0	135.0	0.1020	Open
P5427	J33_42	J33_43	120.00	100.0	125.0	0.0536	Open
P5428	J33_42	J34_42	120.00	300.0	125.0	0.0961	Open
P5429	J33_43	J33_44	120.00	250.0	140.0	0.1159	Open
P5430	J33_43	J34_43	120.00	150.0	140.0	0.1045	Open
P5431	J33_44	J33_45	120.00	100.0	125.0	0.1099	Open
P5432	J33_44	J34_44	120.00	300.0	140.0	0.0146	Open
P5433	J33_45	J33_46	120.00	200.0	140.0	0.1155	Open
P5434	J33_45	J34_45	120.00	100.0	130.0	0.1446	Open
P5435	J33_46	J33_47	120.00	500.0	130.0	0.0461	Open
P5436	J33_46	J34_46	120.00	600.0	125.0	0.0349	Open
P5437	J33_47	J33_48	120.00	150.0	135.0	0.1216	Open
P5438	J33_47	J34_47	120.00	200.0	125.0	0.0422	Open
P5439	J33_48	J33_49	120.00	250.0	140.0	0.1194	Open
P5440	J33_48	J34_48	120.00	150.0	130.0	0.0733	Open
P5441	J33_49	J33_50	120.00	300.0	125.0	0.1355	Open
P5442	J33_49	J34_49	120.00	100.0	125.0	0.1287	Open
P5443	J33_50	J33_51	120.00	200.0	125.0	0.0946	Open
P5444	J33_50	J34_50	120.00	200.0	135.0	0.0339	Open
P5445	J33_51	J33_52	120.00	300.0	140.0	0.1244	Open
P5446	J33_51	J34_51	120.00	200.0	130.0	0.0904	Open
P5447	J33_52	J33_53	120.00	150.0	140.0	0.1250	Open
P5448	J33_52	J34_52	120.00	150.0	130.0	0.0569	Open
P5449	J33_53	J33_54	120.00	150.0	130.0	0.0333	Open
P5450	J33_53	J34_53	120.00	200.0	135.0	0.0610	Open
P5451	J33_54	J33_55	120.00	100.0	125.0	0.1406	Open
P5452	J33_54	J34_54	120.00	150.0	130.0	0.0243	Open
P5453	J33_55	J33_56	120.00	450.0	120.0	0.0180	Open
P5454	J33_55	J34_55	120.00	450.0	130.0	0.0402	Open
P5455	J33_56	J33_57	120.00	100.0	130.0	0.1176	Open
P5456	J33_56	J34_56	120.00	300.0	135.0	0.0060	Open
P5457	J33_57	J33_58	120.00	200.0	125.0	0.0249	Open
P5458	J33_57	J34_57	120.00	300.0	135.0	0.0135	Open
P5459	J33_58	J33_59	120.00	250.0	135.0	0.0630	Open
P5460	J33_58	J34_58	120.00	150.0	140.0	0.0333	Open
P5461	J33_59	J33_60	120.00	300.0	140.0	0.0902	Open
P5462	J33_59	J34_59	120.00	200.0	130.0	0.0550	Open
P5463	J33_60	J33_61	120.00	100.0	130.0	0.0893	Open
P5464	J33_60	J34_60	120.00	150.0	135.0	0.1027	Open
P5465	J33_61	J33_62	120.00	150.0	130.0	0.0214	Open
P5466	J33_61	J34_61	120.00	250.0	125.0	0.0746	Open
P5467	J33_62	J33_63	120.00	200.0	135.0	0.1009	Open
P5468	J33_62	J34_62	120.00	250.0	140.0	0.0500	Open
P5469	J33_63	J33_64	120.00	150.0	130.0	0.1078	Open
P5470	J33_63	J34_63	120.00	250.0	140.0	0.0737	Open
P5471	J33_64	J33_65	120.00	500.0	125.0	0.0138	Open
P5472	J33_64	J34_64	120.00	350.0	125.0	0.0134	Open
P5473	J33_65	J33_66	120.00	300.0	135.0	0.0491	Open
P5474	J33_65	J34_65	120.00	300.0	130.0	0.1110	Open
P5475	J33_66	J33_67	120.00	250.0	130.0	0.1496	Open
P5476	J33_66	J34_66	120.00	300.0	130.0	0.1417	Open
P5477	J33_67	J33_68	120.00	200.0	130.0	0.1023	Open
P5478	J33_67	J34_67	120.00	100.0	135.0	0.0868	Open
P5479	J33_68	J33_69	120.00	250.0	125.0	0.0628	Open
P5480	J33_68	J34_68	120.00	150.0	135.0	0.1325	Open
P5481	J33_69	J33_70	120.00	200.0	135.0	0.0693	Open
P5482	J33_69	J34_69	120.00	300.0	130.0	0.0525	Open
P5483	J33_70	J33_71	120.00	250.0	125.0	0.0309	Open
P5484	J33_70	J34_70	120.00	100.0	130.0	0.0738	Open
P5485	J33_71	J33_72	120.00	150.0	135.0	0.1218	Open
P5486	J33_71	J34_71	120.00	200.0	130.0	0.0171	Open
P5487	J33_72	J33_73	120.00	200.0	125.0	0.1017	Open
P5488	J33_72	J34_72	120.00	300.0	125.0	0.0729	Open
P5489	J33_73	J33_74	120.00	500.0	120.0	0.0458	Open
P5490	J33_73	J34_73	120.00	400.0	125.0	0.0046	Open
P5491	J33_74	J33_75	120.00	150.0	125.0	0.1216	Open
P5492	J33_74	J34_74	120.00	100.0	135.0	0.0214	Open
P5493	J33_75	J33_76	120.00	300.0	130.0	0.0288	Open
P5494	J33_75	J34_75	120.00	250.0	135.0	0.1191	Open
P5495	J33_76	J33_77	120.00	150.0	130.0	0.0293	Open
P5496	J33_76	J34_76	120.00	250.0	130.0	0.1075	Open
P5497	J33_77	J33_78	120.00	150.0	135.0	0.0637	Open
P5498	J33_77	J34_77	120.00	150.0	135.0	0.1120	Open
P5499	J33_78	J33_79	120.00	150.0	130.0	0.1052	Open
P5500	J33_78	J34_78	120.00	100.0	140.0	0.0137	Open
P5501	J33_79	J33_80	120.00	300.0	135.0	0.0644	Open
P5502	J33_79	J34_79	120.00	300.0	140.0	0.0152	Open
P5503	J33_80	J33_81	120.00	250.0	140.0	0.0861	Open
P5504	J33_80	J34_80	120.00	150.0	130.0	0.0965	Open
P5505	J33_81	J33_82	120.00	300.0	140.0	0.1159	Open
P5506	J33_81	J34_81	120.00	150.0	125.0	0.0007	Open
P5507	J33_82	J33_83	120.00	600.0	125.0	0.0281	Open
P5508	J33_82	J34_82	120.00	350.0	125.0	0.0296	Open
P5509	J33_83	J33_84	120.00	250.0	135.0	0.0056	Open
P5510	J33_83	J34_83	120.00	250.0	135.0	0.1373	Open
P5511	J33_84	J34_84	120.00	150.0	125.0	0.0934	Open
P5512	J34_1	J34_2	120.00	450.0	125.0	0.0402	Open
P5513	J34_1	J35_1	120.00	300.0	130.0	0.0478	Open
P5514	J34_2	J34_3	120.00	300.0	130.0	0.0235	Open
P5515	J34_2	J35_2	120.00	150.0	135.0	0.0614	Open
P5516	J34_3	J34_4	120.00	200.0	125.0	0.0857	Open
P5517	J34_3	J35_3	120.00	100.0	135.0	0.1124	Open
P5518	J34_4	J34_5	120.00	100.0	135.0	0.1096	Open
P5519	J34_4	J35_4	120.00	300.0	125.0	0.0608	Open
P5520	J34_5	J34_6	120.00	100.0	125.0	0.0020	Open
P5521	J34_5	J35_5	120.00	300.0	140.0	0.0222	Open
P5522	J34_6	J34_7	120.00	300.0	135.0	0.0382	Open
P5523	J34_6	J35_6	120.00	100.0	140.0	0.0719	Open
P5524	J34_7	J34_8	120.00	300.0	130.0	0.1370	Open
P5525	J34_7	J35_7	120.00	300.0	135.0	0.0657	Open
P5526	J34_8	J34_9	120.00	150.0	135.0	0.1324	Open
P5527	J34_8	J35_8	120.00	250.0	130.0	0.1354	Open
P5528	J34_9	J34_10	120.00	150.0	135.0	0.1271	Open
P5529	J34_9	J35_9	120.00	300.0	130.0	0.0811	Open
P5530	J34_10	J34_11	120.00	450.0	130.0	0.0199	Open
P5531	J34_10	J35_10	120.00	450.0	120.0	0.0406	Open
P5532	J34_11	J34_12	120.00	200.0	130.0	0.0098	Open
P5533	J34_11	J35_11	120.00	250.0	140.0	0.0481	Open
P5534	J34_12	J34_13	120.00	200.0	125.0	0.1343	Open
P5535	J34_12	J35_12	120.00	250.0	140.0	0.0724	Open
P5536	J34_13	J34_14	120.00	200.0	130.0	0.0684	Open
P5537	J34_13	J35_13	120.00	300.0	125.0	0.0359	Open
P5538	J34_14	J34_15	120.00	200.0	125.0	0.1066	Open
P5539	J34_14	J35_14	120.00	250.0	135.0	0.0084	Open
P5540	J34_15	J34_16	120.00	250.0	135.0	0.0998	Open
P5541	J34_15	J35_15	120.00	150.0	140.0	0.0834	Open
P5542	J34_16	J34_17	120.00	200.0	135.0	0.0763	Open
P5543	J34_16	J35_16	120.00	100.0	125.0	0.1092	Open
P5544	J34_17	J34_18	120.00	300.0	130.0	0.0357	Open
P5545	J34_17	J35_17	120.00	200.0	140.0	0.1169	Open
P5546	J34_18	J34_19	120.00	100.0	140.0	0.1382	Open
P5547	J34_18	J35_18	120.00	200.0	130.0	0.1097	Open
P5548	J34_19	J34_20	120.00	600.0	130.0	0.0129	Open
P5549	J34_19	J35_19	120.00	400.0	120.0	0.0395	Open
P5550	J34_20	J34_21	120.00	300.0	125.0	0.0965	Open
P5551	J34_20	J35_20	120.00	150.0	135.0	0.1161	Open
P5552	J34_21	J34_22	120.00	250.0	140.0	0.0587	Open
P5553	J34_21	J35_21	120.00	300.0	130.0	0.0744	Open
P5554	J34_22	J34_23	120.00	100.0	125.0	0.0305	Open
P5555	J34_22	J35_22	120.00	150.0	130.0	0.1244	Open
P5556	J34_23	J34_24	120.00	250.0	140.0	0.0838	Open
P5557	J34_23	J35_23	120.00	300.0	140.0	0.0781	Open
P5558	J34_24	J34_25	120.00	300.0	140.0	0.1120	Open
P5559	J34_24	J35_24	120.00	300.0	125.0	0.0082	Open
P5560	J34_25	J34_26	120.00	300.0	140.0	0.1164	Open
P5561	J34_25	J35_25	120.00	250.0	135.0	0.0769	Open
P5562	J34_26	J34_27	120.00	250.0	140.0	0.0764	Open
P5563	J34_26	J35_26	120.00	300.0	125.0	0.0652	Open
P5564	J34_27	J34_28	120.00	200.0	135.0	0.1028	Open
P5565	J34_27	J35_27	120.00	100.0	135.0	0.1087	Open
P5566	J34_28	J34_29	120.00	300.0	125.0	0.0460	Open
P5567	J34_28	J35_28	120.00	450.0	125.0	0.0085	Open
P5568	J34_29	J34_30	120.00	300.0	125.0	0.0097	Open
P5569	J34_29	J35_29	120.00	300.0	125.0	0.0775	Open
P5570	J34_30	J34_31	120.00	100.0	135.0	0.0139	Open
P5571	J34_30	J35_30	120.00	300.0	135.0	0.1263	Open
P5572	J34_31	J34_32	120.00	300.0	130.0	0.1329	Open
P5573	J34_31	J35_31	120.00	100.0	140.0	0.0467	Open
P5574	J34_32	J34_33	120.00	250.0	140.0	0.1224	Open
P5575	J34_32	J35_32	120.00	250.0	140.0	0.0151	Open
P5576	J34_33	J34_34	120.00	150.0	140.0	0.0732	Open
P5577	J34_33	J35_33	120.00	150.0	130.0	0.0393	Open
P5578	J34_34	J34_35	120.00	300.0	140.0	0.1065	Open
P5579	J34_34	J35_34	120.00	200.0	140.0	0.0119	Open
P5580	J34_35	J34_36	120.00	300.0	130.0	0.1271	Open
P5581	J34_35	J35_35	120.00	300.0	140.0	0.1078	Open
P5582	J34_36	J34_37	120.00	250.0	125.0	0.0702	Open
P5583	J34_36	J35_36	120.00	100.0	130.0	0.1495	Open
P5584	J34_37	J34_38	120.00	350.0	130.0	0.0255	Open
P5585	J34_37	J35_37	120.00	300.0	120.0	0.0465	Open
P5586	J34_38	J34_39	120.00	200.0	130.0	0.0718	Open
P5587	J34_38	J35_38	120.00	250.0	135.0	0.1462	Open
P5588	J34_39	J34_40	120.00	300.0	135.0	0.1026	Open
P5589	J34_39	J35_39	120.00	300.0	125.0	0.0772	Open
P5590	J34_40	J34_41	120.00	250.0	140.0	0.0055	Open
P5591	J34_40	J35_40	120.00	300.0	125.0	0.0410	Open
P5592	J34_41	J34_42	120.00	100.0	140.0	0.0917	Open
P5593	J34_41	J35_41	120.00	200.0	130.0	0.0787	Open
P5594	J34_42	J34_43	120.00	300.0	140.0	0.0220	Open
P5595	J34_42	J35_42	120.00	150.0	135.0	0.1135	Open
P5596	J34_43	J34_44	120.00	150.0	125.0	0.0450	Open
P5597	J34_43	J35_43	120.00	300.0	130.0	0.0193	Open
P5598	J34_44	J34_45	120.00	250.0	125.0	0.0843	Open
P5599	J34_44	J35_44	120.00	200.0	135.0	0.0168	Open
P5600	J34_45	J34_46	120.00	100.0	140.0	0.0172	Open
P5601	J34_45	J35_45	120.00	150.0	125.0	0.1488	Open
P5602	J34_46	J34_47	120.00	300.0	125.0	0.0131	Open
P5603	J34_46	J35_46	120.00	500.0	125.0	0.0252	Open
P5604	J34_47	J34_48	120.00	150.0	140.0	0.1301	Open
P5605	J34_47	J35_47	120.00	300.0	125.0	0.0356	Open
P5606	J34_48	J34_49	120.00	200.0	140.0	0.0693	Open
P5607	J34_48	J35_48	120.00	100.0	125.0	0.0494	Open
P5608	J34_49	J34_50	120.00	100.0	125.0	0.0414	Open
P5609	J34_49	J35_49	120.00	100.0	135.0	0.0046	Open
P5610	J34_50	J34_51	120.00	250.0	140.0	0.0620	Open
P5611	J34_50	J35_50	120.00	200.0	125.0	0.0329	Open
P5612	J34_51	J34_52	120.00	100.0	125.0	0.0477	Open
P5613	J34_51	J35_51	120.00	250.0	125.0	0.0049	Open
P5614	J34_52	J34_53	120.00	300.0	130.0	0.0300	Open
P5615	J34_52	J35_52	120.00	150.0	130.0	0.0424	Open
P5616	J34_53	J34_54	120.00	200.0	125.0	0.0551	Open
P5617	J34_53	J35_53	120.00	250.0	140.0	0.0671	Open
P5618	J34_54	J34_55	120.00	300.0	125.0	0.0079	Open
P5619	J34_54	J35_54	120.00	300.0	130.0	0.0902	Open
P5620	J34_55	J34_56	120.00	300.0	125.0	0.0317	Open
P5621	J34_55	J35_55	120.00	350.0	125.0	0.0379	Open
P5622	J34_56	J34_57	120.00	100.0	130.0	0.1445	Open
P5623	J34_56	J35_56	120.00	200.0	125.0	0.1013	Open
P5624	J34_57	J34_58	120.00	100.0	130.0	0.1083	Open
P5625	J34_57	J35_57	120.00	150.0	125.0	0.0701	Open
P5626	J34_58	J34_59	120.00	100.0	130.0	0.0602	Open
P5627	J34_58	J35_58	120.00	200.0	140.0	0.0732	Open
P5628	J34_59	J34_60	120.00	150.0	125.0	0.0136	Open
P5629	J34_59	J35_59	120.00	100.0	130.0	0.1323	Open
P5630	J34_60	J34_61	120.00	150.0	140.0	0.0503	Open
P5631	J34_60	J35_60	120.00	150.0	125.0	0.0262	Open
P5632	J34_61	J34_62	120.00	300.0	130.0	0.0959	Open
P5633	J34_61	J35_61	120.00	100.0	140.0	0.0698	Open
P5634	J34_62	J34_63	120.00	300.0	130.0	0.1425	Open
P5635	J34_62	J35_62	120.00	250.0	125.0	0.0030	Open
P5636	J34_63	J34_64	120.00	300.0	140.0	0.1422	Open
P5637	J34_63	J35_63	120.00	300.0	125.0	0.1348	Open
P5638	J34_64	J34_65	120.00	300.0	120.0	0.0039	Open
P5639	J34_64	J35_64	120.00	400.0	130.0	0.0005	Open
P5640	J34_65	J34_66	120.00	300.0	130.0	0.0228	Open
P5641	J34_65	J35_65	120.00	250.0	130.0	0.0590	Open
P5642	J34_66	J34_67	120.00	300.0	130.0	0.0899	Open
P5643	J34_66	J35_66	120.00	100.0	125.0	0.1120	Open
P5644	J34_67	J34_68	120.00	100.0	130.0	0.0499	Open
P5645	J34_67	J35_67	120.00	100.0	140.0	0.0627	Open
P5646	J34_68	J34_69	120.00	250.0	135.0	0.1049	Open
P5647	J34_68	J35_68	120.00	250.0	135.0	0.0651	Open
P5648	J34_69	J34_70	120.00	100.0	135.0	0.1269	Open
P5649	J34_69	J35_69	120.00	200.0	140.0	0.1327	Open
P5650	J34_70	J34_71	120.00	100.0	125.0	0.1014	Open
P5651	J34_70	J35_70	120.00	100.0	130.0	0.0497	Open
P5652	J34_71	J34_72	120.00	300.0	130.0	0.0559	Open
P5653	J34_71	J35_71	120.00	250.0	130.0	0.0739	Open
P5654	J34_72	J34_73	120.00	100.0	140.0	0.1088	Open
P5655	J34_72	J35_72	120.00	100.0	125.0	0.1210	Open
P5656	J34_73	J34_74	120.00	400.0	125.0	0.0199	Open
P5657	J34_73	J35_73	120.00	600.0	125.0	0.0373	Open
P5658	J34_74	J34_75	120.00	100.0	125.0	0.1408	Open
P5659	J34_74	J35_74	120.00	100.0	135.0	0.1328	Open
P5660	J34_75	J34_76	120.00	200.0	140.0	0.0173	Open
P5661	J34_75	J35_75	120.00	100.0	135.0	0.0632	Open
P5662	J34_76	J34_77	120.00	150.0	125.0	0.0672	Open
P5663	J34_76	J35_76	120.00	250.0	135.0	0.0479	Open
P5664	J34_77	J34_78	120.00	300.0	125.0	0.0189	Open
P5665	J34_77	J35_77	120.00	200.0	125.0	0.0434	Open
P5666	J34_78	J34_79	120.00	100.0	125.0	0.0770	Open
P5667	J34_78	J35_78	120.00	300.0	130.0	0.0310	Open
P5668	J34_79	J34_80	120.00	200.0	125.0	0.0429	Open
P5669	J34_79	J35_79	120.00	200.0	125.0	0.0052	Open
P5670	J34_80	J34_81	120.00	100.0	125.0	0.0500	Open
P5671	J34_80	J35_80	120.00	100.0	130.0	0.1417	Open
P5672	J34_81	J34_82	120.00	200.0	130.0	0.0126	Open
P5673	J34_81	J35_81	120.00	100.0	135.0	0.0783	Open
P5674	J34_82	J34_83	120.00	600.0	125.0	0.0036	Open
P5675	J34_82	J35_82	120.00	400.0	120.0	0.0355	Open
P5676	J34_83	J34_84	120.00	300.0	125.0	0.0545	Open
P5677	J34_83	J35_83	120.00	250.0	135.0	0.1373	Open
P5678	J34_84	J35_84	120.00	200.0	130.0	0.1071	Open
P5679	J35_1	J35_2	120.00	500.0	120.0	0.0212	Open
P5680	J35_1	J36_1	120.00	350.0	125.0	0.0289	Open
P5681	J35_2	J35_3	120.00	300.0	135.0	0.1241	Open
P5682	J35_2	J36_2	120.00	200.0	125.0	0.0110	Open
P5683	J35_3	J35_4	120.00	250.0	125.0	0.0698	Open
P5684	J35_3	J36_3	120.00	100.0	140.0	0.0130	Open
P5685	J35_4	J35_5	120.00	100.0	140.0	0.0875	Open
P5686	J35_4	J36_4	120.00	300.0	140.0	0.0449	Open
P5687	J35_5	J35_6	120.00	250.0	140.0	0.1102	Open
P5688	J35_5	J36_5	120.00	200.0	135.0	0.0444	Open
P5689	J35_6	J35_7	120.00	100.0	140.0	0.1426	Open
P5690	J35_6	J36_6	120.00	200.0	140.0	0.0446	Open
P5691	J35_7	J35_8	120.00	100.0	135.0	0.1218	Open
P5692	J35_7	J36_7	120.00	250.0	125.0	0.0978	Open
P5693	J35_8	J35_9	120.00	200.0	125.0	0.0562	Open
P5694	J35_8	J36_8	120.00	100.0	130.0	0.1186	Open
P5695	J35_9	J35_10	120.00	300.0	135.0	0.0142	Open
P5696	J35_9	J36_9	120.00	100.0	130.0	0.0851	Open
P5697	J35_10	J35_11	120.00	300.0	120.0	0.0128	Open
P5698	J35_10	J36_10	120.00	500.0	125.0	0.0428	Open
P5699	J35_11	J35_12	120.00	300.0	135.0	0.0718	Open
P5700	J35_11	J36_11	120.00	100.0	135.0	0.1309	Open
P5701	J35_12	J35_13	120.00	150.0	125.0	0.0339	Open
P5702	J35_12	J36_12	120.00	150.0	135.0	0.0178	Open
P5703	J35_13	J35_14	120.00	150.0	135.0	0.0099	Open
P5704	J35_13	J36_13	120.00	150.0	125.0	0.0257	Open
P5705	J35_14	J35_15	120.00	100.0	140.0	0.1462	Open
P5706	J35_14	J36_14	120.00	300.0	125.0	0.0943	Open
P5707	J35_15	J35_16	120.00	200.0	140.0	0.0778	Open
P5708	J35_15	J36_15	120.00	100.0	140.0	0.0368	Open
P5709	J35_16	J35_17	120.00	300.0	140.0	0.1237	Open
P5710	J35_16	J36_16	120.00	100.0	130.0	0.0976	Open
P5711	J35_17	J35_18	120.00	250.0	130.0	0.0448	Open
P5712	J35_17	J36_17	120.00	250.0	140.0	0.0593	Open
P5713	J35_18	J35_19	120.00	200.0	130.0	0.0981	Open
P5714	J35_18	J36_18	120.00	200.0	130.0	0.0271	Open
P5715	J35_19	J35_20	120.00	450.0	125.0	0.0005	Open
P5716	J35_19	J36_19	120.00	600.0	120.0	0.0421	Open
P5717	J35_20	J35_21	120.00	200.0	130.0	0.0531	Open
P5718	J35_20	J36_20	120.00	100.0	140.0	0.1318	Open
P5719	J35_21	J35_22	120.00	150.0	125.0	0.0712	Open
P5720	J35_21	J36_21	120.00	100.0	140.0	0.0340	Open
P5721	J35_22	J35_23	120.00	250.0	125.0	0.1063	Open
P5722	J35_22	J36_22	120.00	200.0	130.0	0.0894	Open
P5723	J35_23	J35_24	120.00	150.0	140.0	0.1031	Open
P5724	J35_23	J36_23	120.00	100.0	130.0	0.1177	Open
P5725	J35_24	J35_25	120.00	150.0	130.0	0.0030	Open
P5726	J35_24	J36_24	120.00	250.0	135.0	0.1079	Open
P5727	J35_25	J35_26	120.00	100.0	135.0	0.0138	Open
P5728	J35_25	J36_25	120.00	200.0	130.0	0.1142	Open
P5729	J35_26	J35_27	120.00	200.0	125.0	0.1261	Open
P5730	J35_26	J36_26	120.00	150.0	135.0	0.0787	Open
P5731	J35_27	J35_28	120.00	200.0	140.0	0.1167	Open
P5732	J35_27	J36_27	120.00	100.0	125.0	0.0272	Open
P5733	J35_28	J35_29	120.00	300.0	125.0	0.0361	Open
P5734	J35_28	J36_28	120.00	400.0	120.0	0.0004	Open
P5735	J35_29	J35_30	120.00	100.0	135.0	0.0732	Open
P5736	J35_29	J36_29	120.00	100.0	130.0	0.0251	Open
P5737	J35_30	J35_31	120.00	250.0	140.0	0.0253	Open
P5738	J35_30	J36_30	120.00	100.0	125.0	0.0923	Open
P5739	J35_31	J35_32	120.00	250.0	135.0	0.0123	Open
P5740	J35_31	J36_31	120.00	100.0	130.0	0.1254	Open
P5741	J35_32	J35_33	120.00	300.0	140.0	0.0678	Open
P5742	J35_32	J36_32	120.00	100.0	130.0	0.0727	Open
P5743	J35_33	J35_34	120.00	250.0	140.0	0.0920	Open
P5744	J35_33	J36_33	120.00	100.0	130.0	0.1163	Open
P5745	J35_34	J35_35	120.00	300.0	130.0	0.0444	Open
P5746	J35_34	J36_34	120.00	250.0	130.0	0.1146	Open
P5747	J35_35	J35_36	120.00	300.0	130.0	0.0533	Open
P5748	J35_35	J36_35	120.00	200.0	130.0	0.0704	Open
P5749	J35_36	J35_37	120.00	250.0	130.0	0.1280	Open
P5750	J35_36	J36_36	120.00	150.0	140.0	0.0991	Open
P5751	J35_37	J35_38	120.00	400.0	120.0	0.0255	Open
P5752	J35_37	J36_37	120.00	500.0	125.0	0.0328	Open
P5753	J35_38	J35_39	120.00	250.0	140.0	0.0183	Open
P5754	J35_38	J36_38	120.00	250.0	125.0	0.0141	Open
P5755	J35_39	J35_40	120.00	100.0	130.0	0.1444	Open
P5756	J35_39	J36_39	120.00	100.0	135.0	0.1457	Open
P5757	J35_40	J35_41	120.00	150.0	125.0	0.0845	Open
P5758	J35_40	J36_40	120.00	250.0	130.0	0.0979	Open
P5759	J35_41	J35_42	120.00	100.0	125.0	0.0931	Open
P5760	J35_41	J36_41	120.00	300.0	125.0	0.1255	Open
P5761	J35_42	J35_43	120.00	250.0	135.0	0.0328	Open
P5762	J35_42	J36_42	120.00	200.0	125.0	0.1173	Open
P5763	J35_43	J35_44	120.00	200.0	135.0	0.0486	Open
P5764	J35_43	J36_43	120.00	150.0	125.0	0.0549	Open
P5765	J35_44	J35_45	120.00	150.0	140.0	0.0756	Open
P5766	J35_44	J36_44	120.00	150.0	140.0	0.1213	Open
P5767	J35_45	J35_46	120.00	100.0	130.0	0.1495	Open
P5768	J35_45	J36_45	120.00	100.0	130.0	0.0762	Open
P5769	J35_46	J35_47	120.00	450.0	130.0	0.0054	Open
P5770	J35_46	J36_46	120.00	500.0	130.0	0.0010	Open
P5771	J35_47	J35_48	120.00	250.0	130.0	0.1118	Open
P5772	J35_47	J36_47	120.00	200.0	130.0	0.1004	Open
P5773	J35_48	J35_49	120.00	250.0	140.0	0.0393	Open
P5774	J35_48	J36_48	120.00	150.0	130.0	0.0494	Open
P5775	J35_49	J35_50	120.00	150.0	135.0	0.1071	Open
P5776	J35_49	J36_49	120.00	150.0	125.0	0.1019	Open
P5777	J35_50	J35_51	120.00	300.0	125.0	0.0718	Open
P5778	J35_50	J36_50	120.00	200.0	135.0	0.0574	Open
P5779	J35_51	J35_52	120.00	250.0	125.0	0.0701	Open
P5780	J35_51	J36_51	120.00	250.0	140.0	0.0508	Open
P5781	J35_52	J35_53	120.00	250.0	125.0	0.0817	Open
P5782	J35_52	J36_52	120.00	100.0	130.0	0.0422	Open
P5783	J35_53	J35_54	120.00	150.0	130.0	0.0341	Open
P5784	J35_53	J36_53	120.00	300.0	135.0	0.1475	Open
P5785	J35_54	J35_55	120.00	100.0	130.0	0.1345	Open
P5786	J35_54	J36_54	120.00	250.0	135.0	0.0420	Open
P5787	J35_55	J35_56	120.00	400.0	125.0	0.0210	Open
P5788	J35_55	J36_55	120.00	600.0	130.0	0.0157	Open
P5789	J35_56	J35_57	120.00	100.0	125.0	0.0062	Open
P5790	J35_56	J36_56	120.00	100.0	125.0	0.0452	Open
P5791	J35_57	J35_58	120.00	200.0	125.0	0.0695	Open
P5792	J35_57	J36_57	120.00	300.0	130.0	0.0332	Open
P5793	J35_58	J35_59	120.00	250.0	125.0	0.0263	Open
P5794	J35_58	J36_58	120.00	100.0	140.0	0.0460	Open
P5795	J35_59	J35_60	120.00	150.0	125.0	0.1282	Open
P5796	J35_59	J36_59	120.00	200.0	135.0	0.1295	Open
P5797	J35_60	J35_61	120.00	300.0	130.0	0.1094	Open
P5798	J35_60	J36_60	120.00	200.0	140.0	0.1134	Open
P5799	J35_61	J35_62	120.00	200.0	125.0	0.0249	Open
P5800	J35_61	J36_61	120.00	200.0	130.0	0.0267	Open
P5801	J35_62	J35_63	120.00	200.0	125.0	0.1385	Open
P5802	J35_62	J36_62	120.00	100.0	140.0	0.0455	Open
P5803	J35_63	J35_64	120.00	250.0	130.0	0.0700	Open
P5804	J35_63	J36_63	120.00	250.0	130.0	0.1364	Open
P5805	J35_64	J35_65	120.00	350.0	125.0	0.0450	Open
P5806	J35_64	J36_64	120.00	450.0	130.0	0.0455	Open
P5807	J35_65	J35_66	120.00	150.0	140.0	0.0510	Open
P5808	J35_65	J36_65	120.00	300.0	135.0	0.0294	Open
P5809	J35_66	J35_67	120.00	200.0	125.0	0.0109	Open
P5810	J35_66	J36_66	120.00	200.0	125.0	0.1007	Open
P5811	J35_67	J35_68	120.00	250.0	125.0	0.0944	Open
P5812	J35_67	J36_67	120.00	150.0	125.0	0.1078	Open
P5813	J35_68	J35_69	120.00	250.0	130.0	0.0794	Open
P5814	J35_68	J36_68	120.00	150.0	140.0	0.0027	Open
P5815	J35_69	J35_70	120.00	150.0	140.0	0.0814	Open
P5816	J35_69	J36_69	120.00	100.0	135.0	0.0058	Open
P5817	J35_70	J35_71	120.00	200.0	125.0	0.0241	Open
P5818	J35_70	J36_70	120.00	100.0	130.0	0.0028	Open
P5819	J35_71	J35_72	120.00	150.0	140.0	0.1099	Open
P5820	J35_71	J36_71	120.00	100.0	130.0	0.0735	Open
P5821	J35_72	J35_73	120.00	250.0	125.0	0.0093	Open
P5822	J35_72	J36_72	120.00	150.0	125.0	0.0900	Open
P5823	J35_73	J35_74	120.00	300.0	120.0	0.0251	Open
P5824	J35_73	J36_73	120.00	500.0	125.0	0.0379	Open
P5825	J35_74	J35_75	120.00	100.0	130.0	0.0853	Open
P5826	J35_74	J36_74	120.00	100.0	135.0	0.1028	Open
P5827	J35_75	J35_76	120.00	150.0	135.0	0.0022	Open
P5828	J35_75	J36_75	120.00	100.0	135.0	0.0559	Open
P5829	J35_76	J35_77	120.00	150.0	125.0	0.0331	Open
P5830	J35_76	J36_76	120.00	250.0	130.0	0.0678	Open
P5831	J35_77	J35_78	120.00	150.0	125.0	0.0440	Open
P5832	J35_77	J36_77	120.00	250.0	125.0	0.0402	Open
P5833	J35_78	J35_79	120.00	250.0	135.0	0.0833	Open
P5834	J35_78	J36_78	120.00	200.0	135.0	0.0521	Open
P5835	J35_79	J35_80	120.00	250.0	135.0	0.1429	Open
P5836	J35_79	J36_79	120.00	250.0	130.0	0.1220	Open
P5837	J35_80	J35_81	120.00	100.0	135.0	0.0136	Open
P5838	J35_80	J36_80	120.00	200.0	135.0	0.1143	Open
P5839	J35_81	J35_82	120.00	200.0	140.0	0.0623	Open
P5840	J35_81	J36_81	120.00	150.0	130.0	0.1472	Open
P5841	J35_82	J35_83	120.00	600.0	120.0	0.0302	Open
P5842	J35_82	J36_82	120.00	500.0	120.0	0.0401	Open
P5843	J35_83	J35_84	120.00	250.0	140.0	0.0677	Open
P5844	J35_83	J36_83	120.00	300.0	125.0	0.0881	Open
P5845	J35_84	J36_84	120.00	300.0	140.0	0.1058	Open
P5846	J36_1	J36_2	120.00	300.0	120.0	0.0168	Open
P5847	J36_1	J37_1	120.00	300.0	130.0	0.0476	Open
P5848	J36_2	J36_3	120.00	250.0	135.0	0.0215	Open
P5849	J36_2	J37_2	120.00	200.0	135.0	0.0457	Open
P5850	J36_3	J36_4	120.00	100.0	135.0	0.0863	Open
P5851	J36_3	J37_3	120.00	100.0	135.0	0.0892	Open
P5852	J36_4	J36_5	120.00	250.0	135.0	0.0582	Open
P5853	J36_4	J37_4	120.00	250.0	130.0	0.1180	Open
P5854	J36_5	J36_6	120.00	200.0	140.0	0.0770	Open
P5855	J36_5	J37_5	120.00	250.0	125.0	0.0275	Open
P5856	J36_6	J36_7	120.00	300.0	135.0	0.0172	Open
P5857	J36_6	J37_6	120.00	300.0	135.0	0.1333	Open
P5858	J36_7	J36_8	120.00	300.0	140.0	0.1295	Open
P5859	J36_7	J37_7	120.00	100.0	130.0	0.0205	Open
P5860	J36_8	J36_9	120.00	250.0	135.0	0.1359	Open
P5861	J36_8	J37_8	120.00	100.0	130.0	0.1169	Open
P5862	J36_9	J36_10	120.00	250.0	135.0	0.0788	Open
P5863	J36_9	J37_9	120.00	250.0	130.0	0.0325	Open
P5864	J36_10	J36_11	120.00	600.0	130.0	0.0495	Open
P5865	J36_10	J37_10	120.00	350.0	130.0	0.0372	Open
P5866	J36_11	J36_12	120.00	100.0	140.0	0.1178	Open
P5867	J36_11	J37_11	120.00	300.0	140.0	0.1305	Open
P5868	J36_12	J36_13	120.00	200.0	135.0	0.0175	Open
P5869	J36_12	J37_12	120.00	250.0	130.0	0.0556	Open
P5870	J36_13	J36_14	120.00	100.0	125.0	0.1039	Open
P5871	J36_13	J37_13	120.00	100.0	135.0	0.0962	Open
P5872	J36_14	J36_15	120.00	250.0	125.0	0.0675	Open
P5873	J36_14	J37_14	120.00	150.0	140.0	0.0307	Open
P5874	J36_15	J36_16	120.00	250.0	135.0	0.0473	Open
P5875	J36_15	J37_15	120.00	300.0	135.0	0.0033	Open
P5876	J36_16	J36_17	120.00	100.0	125.0	0.1162	Open
P5877	J36_16	J37_16	120.00	300.0	135.0	0.0964	Open
P5878	J36_17	J36_18	120.00	100.0	125.0	0.0730	Open
P5879	J36_17	J37_17	120.00	300.0	135.0	0.1493	Open
P5880	J36_18	J36_19	120.00	300.0	135.0	0.0536	Open
P5881	J36_18	J37_18	120.00	150.0	130.0	0.0782	Open
P5882	J36_19	J36_20	120.00	350.0	120.0	0.0102	Open
P5883	J36_19	J37_19	120.00	600.0	130.0	0.0289	Open
P5884	J36_20	J36_21	120.00	150.0	140.0	0.0683	Open
P5885	J36_20	J37_20	120.00	300.0	130.0	0.0555	Open
P5886	J36_21	J36_22	120.00	100.0	125.0	0.0087	Open
P5887	J36_21	J37_21	120.00	250.0	140.0	0.0469	Open
P5888	J36_22	J36_23	120.00	250.0	140.0	0.1391	Open
P5889	J36_22	J37_22	120.00	250.0	135.0	0.1230	Open
P5890	J36_23	J36_24	120.00	150.0	140.0	0.1041	Open
P5891	J36_23	J37_23	120.00	300.0	135.0	0.1389	Open
P5892	J36_24	J36_25	120.00	100.0	130.0	0.0439	Open
P5893	J36_24	J37_24	120.00	300.0	135.0	0.0819	Open
P5894	J36_25	J36_26	120.00	150.0	130.0	0.1358	Open
P5895	J36_25	J37_25	120.00	200.0	140.0	0.0239	Open
P5896	J36_26	J36_27	120.00	300.0	125.0	0.0430	Open
P5897	J36_26	J37_26	120.00	200.0	135.0	0.1332	Open
P5898	J36_27	J36_28	120.00	150.0	135.0	0.0635	Open
P5899	J36_27	J37_27	120.00	150.0	130.0	0.0242	Open
P5900	J36_28	J36_29	120.00	400.0	125.0	0.0370	Open
P5901	J36_28	J37_28	120.00	600.0	120.0	0.0109	Open
P5902	J36_29	J36_30	120.00	200.0	135.0	0.0202	Open
P5903	J36_29	J37_29	120.00	100.0	140.0	0.0263	Open
P5904	J36_30	J36_31	120.00	300.0	130.0	0.1104	Open
P5905	J36_30	J37_30	120.00	250.0	125.0	0.0629	Open
P5906	J36_31	J36_32	120.00	300.0	135.0	0.1224	Open
P5907	J36_31	J37_31	120.00	100.0	125.0	0.1159	Open
P5908	J36_32	J36_33	120.00	200.0	130.0	0.0902	Open
P5909	J36_32	J37_32	120.00	150.0	125.0	0.0711	Open
P5910	J36_33	J36_34	120.00	200.0	140.0	0.1084	Open
P5911	J36_33	J37_33	120.00	300.0	125.0	0.0548	Open
P5912	J36_34	J36_35	120.00	250.0	135.0	0.0996	Open
P5913	J36_34	J37_34	120.00	250.0	140.0	0.1480	Open
P5914	J36_35	J36_36	120.00	300.0	140.0	0.1177	Open
P5915	J36_35	J37_35	120.00	200.0	140.0	0.0460	Open
P5916	J36_36	J36_37	120.00	200.0	130.0	0.0002	Open
P5917	J36_36	J37_36	120.00	250.0	130.0	0.1346	Open
P5918	J36_37	J36_38	120.00	450.0	125.0	0.0247	Open
P5919	J36_37	J37_37	120.00	450.0	125.0	0.0319	Open
P5920	J36_38	J36_39	120.00	150.0	130.0	0.0976	Open
P5921	J36_38	J37_38	120.00	300.0	130.0	0.1368	Open
P5922	J36_39	J36_40	120.00	250.0	125.0	0.0400	Open
P5923	J36_39	J37_39	120.00	250.0	130.0	0.1210	Open
P5924	J36_40	J36_41	120.00	100.0	130.0	0.0902	Open
P5925	J36_40	J37_40	120.00	200.0	130.0	0.0470	Open
P5926	J36_41	J36_42	120.00	250.0	130.0	0.0079	Open
P5927	J36_41	J37_41	120.00	300.0	140.0	0.1265	Open
P5928	J36_42	J36_43	120.00	250.0	125.0	0.1283	Open
P5929	J36_42	J37_42	120.00	200.0	135.0	0.0858	Open
P5930	J36_43	J36_44	120.00	200.0	135.0	0.0823	Open
P5931	J36_43	J37_43	120.00	100.0	140.0	0.1393	Open
P5932	J36_44	J36_45	120.00	200.0	140.0	0.1091	Open
P5933	J36_44	J37_44	120.00	300.0	140.0	0.1327	Open
P5934	J36_45	J36_46	120.00	300.0	140.0	0.1081	Open
P5935	J36_45	J37_45	120.00	300.0	140.0	0.0399	Open
P5936	J36_46	J36_47	120.00	450.0	125.0	0.0068	Open
P5937	J36_46	J37_46	120.00	400.0	125.0	0.0163	Open
P5938	J36_47	J36_48	120.00	200.0	140.0	0.0801	Open
P5939	J36_47	J37_47	120.00	100.0	130.0	0.0615	Open
P5940	J36_48	J36_49	120.00	200.0	130.0	0.0738	Open
P5941	J36_48	J37_48	120.00	100.0	130.0	0.0204	Open
P5942	J36_49	J36_50	120.00	300.0	135.0	0.1219	Open
P5943	J36_49	J37_49	120.00	250.0	130.0	0.1354	Open
P5944	J36_50	J36_51	120.00	300.0	125.0	0.0423	Open
P5945	J36_50	J37_50	120.00	100.0	125.0	0.0104	Open
P5946	J36_51	J36_52	120.00	100.0	125.0	0.1344	Open
P5947	J36_51	J37_51	120.00	300.0	130.0	0.1190	Open
P5948	J36_52	J36_53	120.00	250.0	125.0	0.0671	Open
P5949	J36_52	J37_52	120.00	200.0	125.0	0.0871	Open
P5950	J36_53	J36_54	120.00	200.0	135.0	0.0857	Open
P5951	J36_53	J37_53	120.00	200.0	135.0	0.1332	Open
P5952	J36_54	J36_55	120.00	200.0	125.0	0.0735	Open
P5953	J36_54	J37_54	120.00	200.0	135.0	0.0359	Open
P5954	J36_55	J36_56	120.00	400.0	125.0	0.0093	Open
P5955	J36_55	J37_55	120.00	400.0	125.0	0.0457	Open
P5956	J36_56	J36_57	120.00	300.0	140.0	0.0349	Open
P5957	J36_56	J37_56	120.00	250.0	125.0	0.0426	Open
P5958	J36_57	J36_58	120.00	300.0	130.0	0.0170	Open
P5959	J36_57	J37_57	120.00	150.0	130.0	0.1305	Open
P5960	J36_58	J36_59	120.00	200.0	125.0	0.0531	Open
P5961	J36_58	J37_58	120.00	150.0	125.0	0.0134	Open
P5962	J36_59	J36_60	120.00	150.0	125.0	0.0238	Open
P5963	J36_59	J37_59	120.00	250.0	125.0	0.0225	Open
P5964	J36_60	J36_61	120.00	100.0	125.0	0.1059	Open
P5965	J36_60	J37_60	120.00	200.0	140.0	0.1239	Open
P5966	J36_61	J36_62	120.00	100.0	135.0	0.0516	Open
P5967	J36_61	J37_61	120.00	150.0	140.0	0.1360	Open
P5968	J36_62	J36_63	120.00	250.0	125.0	0.0817	Open
P5969	J36_62	J37_62	120.00	200.0	135.0	0.0407	Open
P5970	J36_63	J36_64	120.00	100.0	130.0	0.0807	Open
P5971	J36_63	J37_63	120.00	200.0	130.0	0.0718	Open
P5972	J36_64	J36_65	120.00	350.0	120.0	0.0083	Open
P5973	J36_64	J37_64	120.00	300.0	130.0	0.0107	Open
P5974	J36_65	J36_66	120.00	250.0	140.0	0.0563	Open
P5975	J36_65	J37_65	120.00	250.0	140.0	0.1289	Open
P5976	J36_66	J36_67	120.00	300.0	140.0	0.1139	Open
P5977	J36_66	J37_66	120.00	150.0	125.0	0.0977	Open
P5978	J36_67	J36_68	120.00	300.0	140.0	0.0321	Open
P5979	J36_67	J37_67	120.00	200.0	130.0	0.0912	Open
P5980	J36_68	J36_69	120.00	250.0	135.0	0.0793	Open
P5981	J36_68	J37_68	120.00	200.0	125.0	0.1466	Open
P5982	J36_69	J36_70	120.00	300.0	135.0	0.0126	Open
P5983	J36_69	J37_69	120.00	200.0	130.0	0.1138	Open
P5984	J36_70	J36_71	120.00	150.0	130.0	0.1018	Open
P5985	J36_70	J37_70	120.00	200.0	130.0	0.0450	Open
P5986	J36_71	J36_72	120.00	200.0	125.0	0.0628	Open
P5987	J36_71	J37_71	120.00	300.0	140.0	0.0389	Open
P5988	J36_72	J36_73	120.00	100.0	135.0	0.0426	Open
P5989	J36_72	J37_72	120.00	150.0	130.0	0.0959	Open
P5990	J36_73	J36_74	120.00	500.0	130.0	0.0289	Open
P5991	J36_73	J37_73	120.00	450.0	130.0	0.0053	Open
P5992	J36_74	J36_75	120.00	200.0	130.0	0.0910	Open
P5993	J36_74	J37_74	120.00	100.0	140.0	0.1209	Open
P5994	J36_75	J36_76	120.00	100.0	135.0	0.0657	Open
P5995	J36_75	J37_75	120.00	100.0	125.0	0.1002	Open
P5996	J36_76	J36_77	120.00	100.0	125.0	0.0518	Open
P5997	J36_76	J37_76	120.00	300.0	135.0	0.0081	Open
P5998	J36_77	J36_78	120.00	150.0	130.0	0.0664	Open
P5999	J36_77	J37_77	120.00	150.0	140.0	0.0615	Open
P6000	J36_78	J36_79	120.00	200.0	130.0	0.0276	Open
P6001	J36_78	J37_78	120.00	150.0	130.0	0.1134	Open
P6002	J36_79	J36_80	120.00	200.0	135.0	0.1404	Open
P6003	J36_79	J37_79	120.00	200.0	125.0	0.0233	Open
P6004	J36_80	J36_81	120.00	200.0	130.0	0.1499	Open
P6005	J36_80	J37_80	120.00	100.0	140.0	0.0619	Open
P6006	J36_81	J36_82	120.00	250.0	130.0	0.0810	Open
P6007	J36_81	J37_81	120.00	250.0	135.0	0.1053	Open
P6008	J36_82	J36_83	120.00	350.0	130.0	0.0497	Open
P6009	J36_82	J37_82	120.00	600.0	130.0	0.0127	Open
P6010	J36_83	J36_84	120.00	250.0	140.0	0.0417	Open
P6011	J36_83	J37_83	120.00	250.0	125.0	0.1475	Open
P6012	J36_84	J37_84	120.00	250.0	125.0	0.1062	Open
P6013	J37_1	J37_2	120.00	350.0	125.0	0.0485	Open
P6014	J37_1	J38_1	120.00	350.0	125.0	0.0256	Open
P6015	J37_2	J37_3	120.00	400.0	120.0	0.0467	Open
P6016	J37_2	J38_2	120.00	450.0	130.0	0.0363	Open
P6017	J37_3	J37_4	120.00	300.0	125.0	0.0406	Open
P6018	J37_3	J38_3	120.00	450.0	130.0	0.0076	Open
P6019	J37_4	J37_5	120.00	350.0	130.0	0.0375	Open
P6020	J37_4	J38_4	120.00	600.0	120.0	0.0149	Open
P6021	J37_5	J37_6	120.00	500.0	130.0	0.0296	Open
P6022	J37_5	J38_5	120.00	400.0	120.0	0.0345	Open
P6023	J37_6	J37_7	120.00	450.0	125.0	0.0408	Open
P6024	J37_6	J38_6	120.00	600.0	125.0	0.0384	Open
P6025	J37_7	J37_8	120.00	300.0	130.0	0.0402	Open
P6026	J37_7	J38_7	120.00	600.0	125.0	0.0033	Open
P6027	J37_8	J37_9	120.00	500.0	125.0	0.0373	Open
P6028	J37_8	J38_8	120.00	400.0	120.0	0.0108	Open
P6029	J37_9	J37_10	120.00	500.0	125.0	0.0155	Open
P6030	J37_9	J38_9	120.00	500.0	125.0	0.0214	Open
P6031	J37_10	J37_11	120.00	350.0	130.0	0.0303	Open
P6032	J37_10	J38_10	120.00	600.0	120.0	0.0022	Open
P6033	J37_11	J37_12	120.00	500.0	130.0	0.0474	Open
P6034	J37_11	J38_11	120.00	600.0	120.0	0.0425	Open
P6035	J37_12	J37_13	120.00	400.0	130.0	0.0234	Open
P6036	J37_12	J38_12	120.00	450.0	130.0	0.0112	Open
P6037	J37_13	J37_14	120.00	300.0	120.0	0.0133	Open
P6038	J37_13	J38_13	120.00	300.0	130.0	0.0201	Open
P6039	J37_14	J37_15	120.00	400.0	125.0	0.0183	Open
P6040	J37_14	J38_14	120.00	500.0	120.0	0.0124	Open
P6041	J37_15	J37_16	120.00	400.0	125.0	0.0009	Open
P6042	J37_15	J38_15	120.00	500.0	130.0	0.0389	Open
P6043	J37_16	J37_17	120.00	300.0	120.0	0.0254	Open
P6044	J37_16	J38_16	120.00	400.0	125.0	0.0186	Open
P6045	J37_17	J37_18	120.00	300.0	120.0	0.0324	Open
P6046	J37_17	J38_17	120.00	500.0	130.0	0.0255	Open
P6047	J37_18	J37_19	120.00	500.0	130.0	0.0045	Open
P6048	J37_18	J38_18	120.00	300.0	125.0	0.0408	Open
P6049	J37_19	J37_20	120.00	450.0	120.0	0.0132	Open
P6050	J37_19	J38_19	120.00	500.0	130.0	0.0342	Open
P6051	J37_20	J37_21	120.00	500.0	130.0	0.0183	Open
P6052	J37_20	J38_20	120.00	350.0	125.0	0.0364	Open
P6053	J37_21	J37_22	120.00	350.0	130.0	0.0225	Open
P6054	J37_21	J38_21	120.00	400.0	130.0	0.0316	Open
P6055	J37_22	J37_23	120.00	500.0	125.0	0.0285	Open
P6056	J37_22	J38_22	120.00	500.0	125.0	0.0170	Open
P6057	J37_23	J37_24	120.00	400.0	125.0	0.0175	Open
P6058	J37_23	J38_23	120.00	350.0	130.0	0.0492	Open
P6059	J37_24	J37_25	120.00	500.0	130.0	0.0040	Open
P6060	J37_24	J38_24	120.00	450.0	125.0	0.0413	Open
P6061	J37_25	J37_26	120.00	600.0	130.0	0.0314	Open
P6062	J37_25	J38_25	120.00	450.0	130.0	0.0120	Open
P6063	J37_26	J37_27	120.00	600.0	130.0	0.0453	Open
P6064	J37_26	J38_26	120.00	350.0	130.0	0.0333	Open
P6065	J37_27	J37_28	120.00	450.0	130.0	0.0114	Open
P6066	J37_27	J38_27	120.00	300.0	130.0	0.0161	Open
P6067	J37_28	J37_29	120.00	600.0	130.0	0.0332	Open
P6068	J37_28	J38_28	120.00	400.0	130.0	0.0142	Open
P6069	J37_29	J37_30	120.00	350.0	120.0	0.0168	Open
P6070	J37_29	J38_29	120.00	450.0	120.0	0.0125	Open
P6071	J37_30	J37_31	120.00	350.0	125.0	0.0221	Open
P6072	J37_30	J38_30	120.00	500.0	125.0	0.0421	Open
P6073	J37_31	J37_32	120.00	400.0	120.0	0.0267	Open
P6074	J37_31	J38_31	120.00	350.0	125.0	0.0043	Open
P6075	J37_32	J37_33	120.00	300.0	130.0	0.0376	Open
P6076	J37_32	J38_32	120.00	300.0	125.0	0.0084	Open
P6077	J37_33	J37_34	120.00	300.0	130.0	0.0457	Open
P6078	J37_33	J38_33	120.00	450.0	130.0	0.0190	Open
P6079	J37_34	J37_35	120.00	400.0	120.0	0.0040	Open
P6080	J37_34	J38_34	120.00	300.0	130.0	0.0430	Open
P6081	J37_35	J37_36	120.00	400.0	120.0	0.0495	Open
P6082	J37_35	J38_35	120.00	300.0	130.0	0.0035	Open
P6083	J37_36	J37_37	120.00	350.0	120.0	0.0355	Open
P6084	J37_36	J38_36	120.00	450.0	130.0	0.0478	Open
P6085	J37_37	J37_38	120.00	450.0	120.0	0.0124	Open
P6086	J37_37	J38_37	120.00	300.0	130.0	0.0287	Open
P6087	J37_38	J37_39	120.00	500.0	120.0	0.0408	Open
P6088	J37_38	J38_38	120.00	600.0	125.0	0.0111	Open
P6089	J37_39	J37_40	120.00	400.0	125.0	0.0085	Open
P6090	J37_39	J38_39	120.00	500.0	125.0	0.0283	Open
P6091	J37_40	J37_41	120.00	300.0	120.0	0.0110	Open
P6092	J37_40	J38_40	120.00	500.0	120.0	0.0069	Open
P6093	J37_41	J37_42	120.00	400.0	120.0	0.0386	Open
P6094	J37_41	J38_41	120.00	500.0	125.0	0.0092	Open
P6095	J37_42	J37_43	120.00	450.0	125.0	0.0192	Open
P6096	J37_42	J38_42	120.00	300.0	120.0	0.0360	Open
P6097	J37_43	J37_44	120.00	300.0	120.0	0.0326	Open
P6098	J37_43	J38_43	120.00	300.0	130.0	0.0295	Open
P6099	J37_44	J37_45	120.00	600.0	120.0	0.0327	Open
P6100	J37_44	J38_44	120.00	300.0	120.0	0.0123	Open
P6101	J37_45	J37_46	120.00	450.0	125.0	0.0403	Open
P6102	J37_45	J38_45	120.00	450.0	130.0	0.0220	Open
P6103	J37_46	J37_47	120.00	450.0	130.0	0.0404	Open
P6104	J37_46	J38_46	120.00	400.0	125.0	0.0190	Open
P6105	J37_47	J37_48	120.00	400.0	120.0	0.0401	Open
P6106	J37_47	J38_47	120.00	500.0	125.0	0.0351	Open
P6107	J37_48	J37_49	120.00	450.0	130.0	0.0188	Open
P6108	J37_48	J38_48	120.00	500.0	120.0	0.0434	Open
P6109	J37_49	J37_50	120.00	500.0	125.0	0.0135	Open
P6110	J37_49	J38_49	120.00	350.0	125.0	0.0144	Open
P6111	J37_50	J37_51	120.00	450.0	130.0	0.0001	Open
P6112	J37_50	J38_50	120.00	300.0	130.0	0.0054	Open
P6113	J37_51	J37_52	120.00	500.0	125.0	0.0462	Open
P6114	J37_51	J38_51	120.00	350.0	130.0	0.0450	Open
P6115	J37_52	J37_53	120.00	300.0	125.0	0.0254	Open
P6116	J37_52	J38_52	120.00	500.0	125.0	0.0460	Open
P6117	J37_53	J37_54	120.00	500.0	130.0	0.0409	Open
P6118	J37_53	J38_53	120.00	500.0	120.0	0.0149	Open
P6119	J37_54	J37_55	120.00	500.0	125.0	0.0107	Open
P6120	J37_54	J38_54	120.00	600.0	125.0	0.0112	Open
P6121	J37_55	J37_56	120.00	450.0	120.0	0.0277	Open
P6122	J37_55	J38_55	120.00	600.0	125.0	0.0122	Open
P6123	J37_56	J37_57	120.00	600.0	120.0	0.0292	Open
P6124	J37_56	J38_56	120.00	350.0	125.0	0.0114	Open
P6125	J37_57	J37_58	120.00	350.0	125.0	0.0186	Open
P6126	J37_57	J38_57	120.00	600.0	130.0	0.0240	Open
P6127	J37_58	J37_59	120.00	350.0	130.0	0.0004	Open
P6128	J37_58	J38_58	120.00	450.0	130.0	0.0107	Open
P6129	J37_59	J37_60	120.00	600.0	125.0	0.0161	Open
P6130	J37_59	J38_59	120.00	400.0	125.0	0.0476	Open
P6131	J37_60	J37_61	120.00	600.0	125.0	0.0026	Open
P6132	J37_60	J38_60	120.00	600.0	130.0	0.0213	Open
P6133	J37_61	J37_62	120.00	350.0	120.0	0.0209	Open
P6134	J37_61	J38_61	120.00	350.0	125.0	0.0294	Open
P6135	J37_62	J37_63	120.00	400.0	120.0	0.0047	Open
P6136	J37_62	J38_62	120.00	350.0	130.0	0.0376	Open
P6137	J37_63	J37_64	120.00	300.0	125.0	0.0075	Open
P6138	J37_63	J38_63	120.00	350.0	130.0	0.0221	Open
P6139	J37_64	J37_65	120.00	300.0	125.0	0.0069	Open
P6140	J37_64	J38_64	120.00	450.0	125.0	0.0402	Open
P6141	J37_65	J37_66	120.00	350.0	130.0	0.0005	Open
P6142	J37_65	J38_65	120.00	600.0	125.0	0.0198	Open
P6143	J37_66	J37_67	120.00	450.0	120.0	0.0060	Open
P6144	J37_66	J38_66	120.00	450.0	120.0	0.0244	Open
P6145	J37_67	J37_68	120.00	450.0	125.0	0.0415	Open
P6146	J37_67	J38_67	120.00	450.0	130.0	0.0166	Open
P6147	J37_68	J37_69	120.00	600.0	120.0	0.0134	Open
P6148	J37_68	J38_68	120.00	450.0	130.0	0.0175	Open
P6149	J37_69	J37_70	120.00	300.0	130.0	0.0313	Open
P6150	J37_69	J38_69	120.00	600.0	125.0	0.0069	Open
P6151	J37_70	J37_71	120.00	350.0	120.0	0.0170	Open
P6152	J37_70	J38_70	120.00	400.0	130.0	0.0356	Open
P6153	J37_71	J37_72	120.00	300.0	130.0	0.0361	Open
P6154	J37_71	J38_71	120.00	500.0	130.0	0.0183	Open
P6155	J37_72	J37_73	120.00	350.0	120.0	0.0398	Open
P6156	J37_72	J38_72	120.00	300.0	130.0	0.0309	Open
P6157	J37_73	J37_74	120.00	500.0	130.0	0.0308	Open
P6158	J37_73	J38_73	120.00	300.0	125.0	0.0458	Open
P6159	J37_74	J37_75	120.00	300.0	120.0	0.0302	Open
P6160	J37_74	J38_74	120.00	600.0	125.0	0.0020	Open
P6161	J37_75	J37_76	120.00	600.0	120.0	0.0213	Open
P6162	J37_75	J38_75	120.00	500.0	130.0	0.0157	Open
P6163	J37_76	J37_77	120.00	300.0	125.0	0.0052	Open
P6164	J37_76	J38_76	120.00	400.0	130.0	0.0229	Open
P6165	J37_77	J37_78	120.00	500.0	125.0	0.0309	Open
P6166	J37_77	J38_77	120.00	400.0	125.0	0.0463	Open
P6167	J37_78	J37_79	120.00	450.0	130.0	0.0025	Open
P6168	J37_78	J38_78	120.00	600.0	120.0	0.0003	Open
P6169	J37_79	J37_80	120.00	600.0	125.0	0.0449	Open
P6170	J37_79	J38_79	120.00	350.0	120.0	0.0259	Open
P6171	J37_80	J37_81	120.00	450.0	120.0	0.0434	Open
P6172	J37_80	J38_80	120.00	300.0	130.0	0.0190	Open
P6173	J37_81	J37_82	120.00	600.0	120.0	0.0045	Open
P6174	J37_81	J38_81	120.00	450.0	125.0	0.0319	Open
P6175	J37_82	J37_83	120.00	350.0	120.0	0.0355	Open
P6176	J37_82	J38_82	120.00	500.0	120.0	0.0009	Open
P6177	J37_83	J37_84	120.00	350.0	125.0	0.0464	Open
P6178	J37_83	J38_83	120.00	300.0	130.0	0.0130	Open
P6179	J37_84	J38_84	120.00	350.0	130.0	0.0158	Open
P6180	J38_1	J38_2	120.00	350.0	130.0	0.0134	Open
P6181	J38_1	J39_1	120.00	500.0	120.0	0.0366	Open
P6182	J38_2	J38_3	120.00	300.0	130.0	0.0875	Open
P6183	J38_2	J39_2	120.00	100.0	130.0	0.0050	Open
P6184	J38_3	J38_4	120.00	200.0	140.0	0.1238	Open
P6185	J38_3	J39_3	120.00	200.0	125.0	0.0016	Open
P6186	J38_4	J38_5	120.00	300.0	135.0	0.0703	Open
P6187	J38_4	J39_4	120.00	100.0	125.0	0.0377	Open
P6188	J38_5	J38_6	120.00	150.0	125.0	0.1372	Open
P6189	J38_5	J39_5	120.00	300.0	125.0	0.1407	Open
P6190	J38_6	J38_7	120.00	300.0	130.0	0.0470	Open
P6191	J38_6	J39_6	120.00	250.0	140.0	0.0596	Open
P6192	J38_7	J38_8	120.00	200.0	130.0	0.0835	Open
P6193	J38_7	J39_7	120.00	100.0	135.0	0.1374	Open
P6194	J38_8	J38_9	120.00	300.0	135.0	0.0049	Open
P6195	J38_8	J39_8	120.00	200.0	130.0	0.1240	Open
P6196	J38_9	J38_10	120.00	100.0	135.0	0.0844	Open
P6197	J38_9	J39_9	120.00	200.0	135.0	0.1387	Open
P6198	J38_10	J38_11	120.00	300.0	120.0	0.0347	Open
P6199	J38_10	J39_10	120.00	600.0	120.0	0.0296	Open
P6200	J38_11	J38_12	120.00	300.0	125.0	0.0758	Open
P6201	J38_11	J39_11	120.00	250.0	125.0	0.0040	Open
P6202	J38_12	J38_13	120.00	300.0	140.0	0.0486	Open
P6203	J38_12	J39_12	120.00	200.0	130.0	0.0218	Open
P6204	J38_13	J38_14	120.00	100.0	130.0	0.0893	Open
P6205	J38_13	J39_13	120.00	200.0	130.0	0.0798	Open
P6206	J38_14	J38_15	120.00	100.0	140.0	0.0260	Open
P6207	J38_14	J39_14	120.00	150.0	125.0	0.1480	Open
P6208	J38_15	J38_16	120.00	150.0	130.0	0.0359	Open
P6209	J38_15	J39_15	120.00	150.0	125.0	0.0822	Open
P6210	J38_16	J38_17	120.00	200.0	125.0	0.0993	Open
P6211	J38_16	J39_16	120.00	200.0	135.0	0.0481	Open
P6212	J38_17	J38_18	120.00	300.0	125.0	0.1221	Open
P6213	J38_17	J39_17	120.00	100.0	135.0	0.0028	Open
P6214	J38_18	J38_19	120.00	100.0	130.0	0.1235	Open
P6215	J38_18	J39_18	120.00	250.0	125.0	0.1209	Open
P6216	J38_19	J38_20	120.00	600.0	125.0	0.0074	Open
P6217	J38_19	J39_19	120.00	450.0	130.0	0.0356	Open
P6218	J38_20	J38_21	120.00	300.0	140.0	0.1218	Open
P6219	J38_20	J39_20	120.00	200.0	130.0	0.0045	Open
P6220	J38_21	J38_22	120.00	150.0	135.0	0.0316	Open
P6221	J38_21	J39_21	120.00	300.0	140.0	0.1276	Open
P6222	J38_22	J38_23	120.00	200.0	125.0	0.0877	Open
P6223	J38_22	J39_22	120.00	250.0	130.0	0.0128	Open
P6224	J38_23	J38_24	120.00	250.0	125.0	0.1272	Open
P6225	J38_23	J39_23	120.00	250.0	125.0	0.0586	Open
P6226	J38_24	J38_25	120.00	300.0	130.0	0.0626	Open
P6227	J38_24	J39_24	120.00	200.0	125.0	0.0644	Open
P6228	J38_25	J38_26	120.00	200.0	125.0	0.0574	Open
P6229	J38_25	J39_25	120.00	150.0	130.0	0.0984	Open
P6230	J38_26	J38_27	120.00	250.0	130.0	0.1066	Open
P6231	J38_26	J39_26	120.00	150.0	130.0	0.0834	Open
P6232	J38_27	J38_28	120.00	100.0	135.0	0.0229	Open
P6233	J38_27	J39_27	120.00	300.0	130.0	0.0335	Open
P6234	J38_28	J38_29	120.00	500.0	125.0	0.0408	Open
P6235	J38_28	J39_28	120.00	500.0	120.0	0.0146	Open
P6236	J38_29	J38_30	120.00	250.0	125.0	0.0831	Open
P6237	J38_29	J39_29	120.00	250.0	125.0	0.0961	Open
P6238	J38_30	J38_31	120.00	150.0	140.0	0.0428	Open
P6239	J38_30	J39_30	120.00	100.0	130.0	0.0142	Open
P6240	J38_31	J38_32	120.00	100.0	130.0	0.0360	Open
P6241	J38_31	J39_31	120.00	200.0	140.0	0.0833	Open
P6242	J38_32	J38_33	120.00	300.0	125.0	0.0637	Open
P6243	J38_32	J39_32	120.00	100.0	140.0	0.1367	Open
P6244	J38_33	J38_34	120.00	150.0	140.0	0.0016	Open
P6245	J38_33	J39_33	120.00	150.0	125.0	0.0045	Open
P6246	J38_34	J38_35	120.00	300.0	130.0	0.1447	Open
P6247	J38_34	J39_34	120.00	100.0	125.0	0.1397	Open
P6248	J38_35	J38_36	120.00	250.0	130.0	0.1317	Open
P6249	J38_35	J39_35	120.00	150.0	125.0	0.0605	Open
P6250	J38_36	J38_37	120.00	200.0	135.0	0.0925	Open
P6251	J38_36	J39_36	120.00	250.0	130.0	0.0313	Open
P6252	J38_37	J38_38	120.00	450.0	130.0	0.0109	Open
P6253	J38_37	J39_37	120.00	300.0	130.0	0.0454	Open
P6254	J38_38	J38_39	120.00	300.0	135.0	0.0617	Open
P6255	J38_38	J39_38	120.00	300.0	130.0	0.0800	Open
P6256	J38_39	J38_40	120.00	100.0	130.0	0.0244	Open
P6257	J38_39	J39_39	120.00	200.0	125.0	0.0297	Open
P6258	J38_40	J38_41	120.00	300.0	140.0	0.0622	Open
P6259	J38_40	J39_40	120.00	200.0	125.0	0.1145	Open
P6260	J38_41	J38_42	120.00	200.0	135.0	0.0481	Open
P6261	J38_41	J39_41	120.00	150.0	135.0	0.0983	Open
P6262	J38_42	J38_43	120.00	100.0	135.0	0.0291	Open
P6263	J38_42	J39_42	120.00	300.0	140.0	0.1441	Open
P6264	J38_43	J38_44	120.00	250.0	140.0	0.0411	Open
P6265	J38_43	J39_43	120.00	300.0	130.0	0.0963	Open
P6266	J38_44	J38_45	120.00	150.0	135.0	0.1445	Open
P6267	J38_44	J39_44	120.00	150.0	130.0	0.0573	Open
P6268	J38_45	J38_46	120.00	100.0	130.0	0.0569	Open
P6269	J38_45	J39_45	120.00	100.0	140.0	0.1460	Open
P6270	J38_46	J38_47	120.00	350.0	125.0	0.0022	Open
P6271	J38_46	J39_46	120.00	300.0	130.0	0.0016	Open
P6272	J38_47	J38_48	120.00	200.0	130.0	0.1095	Open
P6273	J38_47	J39_47	120.00	300.0	130.0	0.0887	Open
P6274	J38_48	J38_49	120.00	150.0	125.0	0.1198	Open
P6275	J38_48	J39_48	120.00	100.0	140.0	0.0756	Open
P6276	J38_49	J38_50	120.00	300.0	135.0	0.0403	Open
P6277	J38_49	J39_49	120.00	100.0	125.0	0.1132	Open
P6278	J38_50	J38_51	120.00	200.0	125.0	0.0537	Open
P6279	J38_50	J39_50	120.00	200.0	135.0	0.1124	Open
P6280	J38_51	J38_52	120.00	200.0	125.0	0.0303	Open
P6281	J38_51	J39_51	120.00	200.0	135.0	0.0532	Open
P6282	J38_52	J38_53	120.00	200.0	125.0	0.0393	Open
P6283	J38_52	J39_52	120.00	100.0	125.0	0.0599	Open
P6284	J38_53	J38_54	120.00	150.0	125.0	0.0902	Open
P6285	J38_53	J39_53	120.00	300.0	130.0	0.0777	Open
P6286	J38_54	J38_55	120.00	100.0	140.0	0.0454	Open
P6287	J38_54	J39_54	120.00	150.0	135.0	0.1024	Open
P6288	J38_55	J38_56	120.00	300.0	120.0	0.0010	Open
P6289	J38_55	J39_55	120.00	350.0	125.0	0.0091	Open
P6290	J38_56	J38_57	120.00	100.0	135.0	0.0691	Open
P6291	J38_56	J39_56	120.00	100.0	140.0	0.0332	Open
P6292	J38_57	J38_58	120.00	200.0	130.0	0.0569	Open
P6293	J38_57	J39_57	120.00	150.0	140.0	0.0642	Open
P6294	J38_58	J38_59	120.00	300.0	130.0	0.0284	Open
P6295	J38_58	J39_58	120.00	150.0	130.0	0.1277	Open
P6296	J38_59	J38_60	120.00	250.0	140.0	0.0262	Open
P6297	J38_59	J39_59	120.00	150.0	140.0	0.0453	Open
P6298	J38_60	J38_61	120.00	100.0	125.0	0.0315	Open
P6299	J38_60	J39_60	120.00	250.0	140.0	0.1313	Open
P6300	J38_61	J38_62	120.00	100.0	130.0	0.1329	Open
P6301	J38_61	J39_61	120.00	100.0	125.0	0.1004	Open
P6302	J38_62	J38_63	120.00	200.0	125.0	0.0153	Open
P6303	J38_62	J39_62	120.00	200.0	140.0	0.0941	Open
P6304	J38_63	J38_64	120.00	200.0	125.0	0.0469	Open
P6305	J38_63	J39_63	120.00	300.0	140.0	0.0698	Open
P6306	J38_64	J38_65	120.00	500.0	120.0	0.0313	Open
P6307	J38_64	J39_64	120.00	600.0	130.0	0.0313	Open
P6308	J38_65	J38_66	120.00	300.0	140.0	0.1188	Open
P6309	J38_65	J39_65	120.00	150.0	125.0	0.0379	Open
P6310	J38_66	J38_67	120.00	100.0	135.0	0.0268	Open
P6311	J38_66	J39_66	120.00	150.0	125.0	0.0073	Open
P6312	J38_67	J38_68	120.00	250.0	135.0	0.1223	Open
P6313	J38_67	J39_67	120.00	150.0	125.0	0.0977	Open
P6314	J38_68	J38_69	120.00	150.0	130.0	0.0654	Open
P6315	J38_68	J39_68	120.00	250.0	130.0	0.0847	Open
P6316	J38_69	J38_70	120.00	150.0	125.0	0.1306	Open
P6317	J38_69	J39_69	120.00	150.0	140.0	0.0325	Open
P6318	J38_70	J38_71	120.00	200.0	125.0	0.0250	Open
P6319	J38_70	J39_70	120.00	250.0	125.0	0.1439	Open
P6320	J38_71	J38_72	120.00	100.0	135.0	0.0330	Open
P6321	J38_71	J39_71	120.00	250.0	140.0	0.0807	Open
P6322	J38_72	J38_73	120.00	150.0	140.0	0.0633	Open
P6323	J38_72	J39_72	120.00	100.0	130.0	0.0868	Open
P6324	J38_73	J38_74	120.00	350.0	120.0	0.0078	Open
P6325	J38_73	J39_73	120.00	400.0	120.0	0.0472	Open
P6326	J38_74	J38_75	120.00	150.0	125.0	0.1478	Open
P6327	J38_74	J39_74	120.00	300.0	125.0	0.0179	Open
P6328	J38_75	J38_76	120.00	250.0	135.0	0.0800	Open
P6329	J38_75	J39_75	120.00	200.0	130.0	0.0186	Open
P6330	J38_76	J38_77	120.00	150.0	135.0	0.1274	Open
P6331	J38_76	J39_76	120.00	250.0	130.0	0.0997	Open
P6332	J38_77	J38_78	120.00	100.0	125.0	0.0873	Open
P6333	J38_77	J39_77	120.00	250.0	130.0	0.0740	Open
P6334	J38_78	J38_79	120.00	200.0	135.0	0.1461	Open
P6335	J38_78	J39_78	120.00	250.0	140.0	0.1055	Open
P6336	J38_79	J38_80	120.00	300.0	135.0	0.0690	Open
P6337	J38_79	J39_79	120.00	200.0	135.0	0.0198	Open
P6338	J38_80	J38_81	120.00	200.0	135.0	0.0919	Open
P6339	J38_80	J39_80	120.00	250.0	140.0	0.0450	Open
P6340	J38_81	J38_82	120.00	150.0	140.0	0.1031	Open
P6341	J38_81	J39_81	120.00	300.0	130.0	0.0795	Open
P6342	J38_82	J38_83	120.00	600.0	130.0	0.0374	Open
P6343	J38_82	J39_82	120.00	400.0	125.0	0.0421	Open
P6344	J38_83	J38_84	120.00	150.0	140.0	0.0152	Open
P6345	J38_83	J39_83	120.00	200.0	130.0	0.0713	Open
P6346	J38_84	J39_84	120.00	300.0	125.0	0.0225	Open
P6347	J39_1	J39_2	120.00	400.0	120.0	0.0031	Open
P6348	J39_1	J40_1	120.00	400.0	120.0	0.0138	Open
P6349	J39_2	J39_3	120.00	200.0	125.0	0.1139	Open
P6350	J39_2	J40_2	120.00	100.0	140.0	0.1233	Open
P6351	J39_3	J39_4	120.00	150.0	130.0	0.0847	Open
P6352	J39_3	J40_3	120.00	150.0	140.0	0.0852	Open
P6353	J39_4	J39_5	120.00	100.0	130.0	0.0007	Open
P6354	J39_4	J40_4	120.00	100.0	125.0	0.0548	Open
P6355	J39_5	J39_6	120.00	250.0	130.0	0.0196	Open
P6356	J39_5	J40_5	120.00	200.0	130.0	0.0934	Open
P6357	J39_6	J39_7	120.00	150.0	130.0	0.0928	Open
P6358	J39_6	J40_6	120.00	150.0	130.0	0.0981	Open
P6359	J39_7	J39_8	120.00	200.0	125.0	0.1302	Open
P6360	J39_7	J40_7	120.00	250.0	140.0	0.0728	Open
P6361	J39_8	J39_9	120.00	100.0	130.0	0.0406	Open
P6362	J39_8	J40_8	120.00	300.0	130.0	0.0798	Open
P6363	J39_9	J39_10	120.00	150.0	130.0	0.0675	Open
P6364	J39_9	J40_9	120.00	200.0	140.0	0.0093	Open
P6365	J39_10	J39_11	120.00	400.0	130.0	0.0147	Open
P6366	J39_10	J40_10	120.00	500.0	125.0	0.0396	Open
P6367	J39_11	J39_12	120.00	300.0	130.0	0.0701	Open
P6368	J39_11	J40_11	120.00	150.0	130.0	0.0137	Open
P6369	J39_12	J39_13	120.00	250.0	135.0	0.0488	Open
P6370	J39_12	J40_12	120.00	100.0	130.0	0.0676	Open
P6371	J39_13	J39_14	120.00	150.0	140.0	0.1152	Open
P6372	J39_13	J40_13	120.00	200.0	130.0	0.1081	Open
P6373	J39_14	J39_15	120.00	200.0	135.0	0.1411	Open
P6374	J39_14	J40_14	120.00	200.0	130.0	0.1080	Open
P6375	J39_15	J39_16	120.00	200.0	130.0	0.0284	Open
P6376	J39_15	J40_15	120.00	150.0	125.0	0.1156	Open
P6377	J39_16	J39_17	120.00	250.0	140.0	0.0370	Open
P6378	J39_16	J40_16	120.00	200.0	125.0	0.1024	Open
P6379	J39_17	J39_18	120.00	150.0	125.0	0.0999	Open
P6380	J39_17	J40_17	120.00	250.0	140.0	0.0505	Open
P6381	J39_18	J39_19	120.00	200.0	130.0	0.0978	Open
P6382	J39_18	J40_18	120.00	250.0	135.0	0.0181	Open
P6383	J39_19	J39_20	120.00	600.0	125.0	0.0408	Open
P6384	J39_19	J40_19	120.00	600.0	125.0	0.0485	Open
P6385	J39_20	J39_21	120.00	200.0	135.0	0.1130	Open
P6386	J39_20	J40_20	120.00	200.0	140.0	0.0859	Open
P6387	J39_21	J39_22	120.00	250.0	130.0	0.1268	Open
P6388	J39_21	J40_21	120.00	300.0	130.0	0.1342	Open
P6389	J39_22	J39_23	120.00	250.0	130.0	0.0071	Open
P6390	J39_22	J40_22	120.00	300.0	125.0	0.0057	Open
P6391	J39_23	J39_24	120.00	100.0	130.0	0.0346	Open
P6392	J39_23	J40_23	120.00	200.0	125.0	0.0701	Open
P6393	J39_24	J39_25	120.00	300.0	130.0	0.0526	Open
P6394	J39_24	J40_24	120.00	300.0	135.0	0.1093	Open
P6395	J39_25	J39_26	120.00	150.0	140.0	0.0101	Open
P6396	J39_25	J40_25	120.00	200.0	140.0	0.0450	Open
P6397	J39_26	J39_27	120.00	150.0	125.0	0.1208	Open
P6398	J39_26	J40_26	120.00	100.0	135.0	0.0609	Open
P6399	J39_27	J39_28	120.00	200.0	140.0	0.0794	Open
P6400	J39_27	J40_27	120.00	150.0	140.0	0.0076	Open
P6401	J39_28	J39_29	120.00	500.0	120.0	0.0350	Open
P6402	J39_28	J40_28	120.00	500.0	130.0	0.0210	Open
P6403	J39_29	J39_30	120.00	300.0	125.0	0.0949	Open
P6404	J39_29	J40_29	120.00	300.0	130.0	0.1044	Open
P6405	J39_30	J39_31	120.00	200.0	125.0	0.0203	Open
P6406	J39_30	J40_30	120.00	300.0	135.0	0.0498	Open
P6407	J39_31	J39_32	120.00	250.0	125.0	0.0227	Open
P6408	J39_31	J40_31	120.00	150.0	140.0	0.0378	Open
P6409	J39_32	J39_33	120.00	300.0	140.0	0.0484	Open
P6410	J39_32	J40_32	120.00	150.0	130.0	0.0337	Open
P6411	J39_33	J39_34	120.00	200.0	125.0	0.1412	Open
P6412	J39_33	J40_33	120.00	250.0	130.0	0.0997	Open
P6413	J39_34	J39_35	120.00	300.0	135.0	0.0016	Open
P6414	J39_34	J40_34	120.00	100.0	140.0	0.0984	Open
P6415	J39_35	J39_36	120.00	200.0	135.0	0.0296	Open
P6416	J39_35	J40_35	120.00	200.0	140.0	0.0618	Open
P6417	J39_36	J39_37	120.00	300.0	140.0	0.0916	Open
P6418	J39_36	J40_36	120.00	100.0	125.0	0.1461	Open
P6419	J39_37	J39_38	120.00	400.0	130.0	0.0226	Open
P6420	J39_37	J40_37	120.00	500.0	130.0	0.0373	Open
P6421	J39_38	J39_39	120.00	300.0	140.0	0.0380	Open
P6422	J39_38	J40_38	120.00	250.0	125.0	0.1427	Open
P6423	J39_39	J39_40	120.00	100.0	130.0	0.1407	Open
P6424	J39_39	J40_39	120.00	150.0	125.0	0.0499	Open
P6425	J39_40	J39_41	120.00	200.0	140.0	0.0371	Open
P6426	J39_40	J40_40	120.00	250.0	135.0	0.1453	Open
P6427	J39_41	J39_42	120.00	150.0	125.0	0.0524	Open
P6428	J39_41	J40_41	120.00	150.0	140.0	0.1004	Open
P6429	J39_42	J39_43	120.00	200.0	130.0	0.0785	Open
P6430	J39_42	J40_42	120.00	250.0	140.0	0.0668	Open
P6431	J39_43	J39_44	120.00	100.0	140.0	0.0496	Open
P6432	J39_43	J40_43	120.00	200.0	135.0	0.0472	Open
P6433	J39_44	J39_45	120.00	100.0	130.0	0.0002	Open
P6434	J39_44	J40_44	120.00	250.0	135.0	0.0479	Open
P6435	J39_45	J39_46	120.00	200.0	135.0	0.0622	Open
P6436	J39_45	J40_45	120.00	200.0	130.0	0.1443	Open
P6437	J39_46	J39_47	120.00	450.0	130.0	0.0478	Open
P6438	J39_46	J40_46	120.00	300.0	125.0	0.0259	Open
P6439	J39_47	J39_48	120.00	250.0	125.0	0.1026	Open
P6440	J39_47	J40_47	120.00	100.0	125.0	0.0967	Open
P6441	J39_48	J39_49	120.00	250.0	135.0	0.0162	Open
P6442	J39_48	J40_48	120.00	300.0	140.0	0.1089	Open
P6443	J39_49	J39_50	120.00	300.0	135.0	0.0316	Open
P6444	J39_49	J40_49	120.00	100.0	130.0	0.0808	Open
P6445	J39_50	J39_51	120.00	150.0	130.0	0.1034	Open
P6446	J39_50	J40_50	120.00	100.0	140.0	0.0543	Open
P6447	J39_51	J39_52	120.00	200.0	130.0	0.0956	Open
P6448	J39_51	J40_51	120.00	100.0	130.0	0.1377	Open
P6449	J39_52	J39_53	120.00	150.0	130.0	0.0452	Open
P6450	J39_52	J40_52	120.00	100.0	140.0	0.0695	Open
P6451	J39_53	J39_54	120.00	100.0	140.0	0.0230	Open
P6452	J39_53	J40_53	120.00	300.0	125.0	0.1476	Open
P6453	J39_54	J39_55	120.00	150.0	135.0	0.0164	Open
P6454	J39_54	J40_54	120.00	300.0	135.0	0.0980	Open
P6455	J39_55	J39_56	120.00	450.0	125.0	0.0118	Open
P6456	J39_55	J40_55	120.00	450.0	120.0	0.0138	Open
P6457	J39_56	J39_57	120.00	100.0	125.0	0.0037	Open
P6458	J39_56	J40_56	120.00	250.0	135.0	0.0962	Open
P6459	J39_57	J39_58	120.00	300.0	130.0	0.1380	Open
P6460	J39_57	J40_57	120.00	100.0	135.0	0.0011	Open
P6461	J39_58	J39_59	120.00	250.0	130.0	0.0843	Open
P6462	J39_58	J40_58	120.00	150.0	140.0	0.0652	Open
P6463	J39_59	J39_60	120.00	200.0	135.0	0.1210	Open
P6464	J39_59	J40_59	120.00	300.0	135.0	0.0184	Open
P6465	J39_60	J39_61	120.00	100.0	140.0	0.0983	Open
P6466	J39_60	J40_60	120.00	100.0	135.0	0.0038	Open
P6467	J39_61	J39_62	120.00	250.0	135.0	0.1389	Open
P6468	J39_61	J40_61	120.00	200.0	140.0	0.0956	Open
P6469	J39_62	J39_63	120.00	250.0	130.0	0.0406	Open
P6470	J39_62	J40_62	120.00	200.0	130.0	0.0339	Open
P6471	J39_63	J39_64	120.00	100.0	130.0	0.1160	Open
P6472	J39_63	J40_63	120.00	250.0	130.0	0.1468	Open
P6473	J39_64	J39_65	120.00	500.0	120.0	0.0384	Open
P6474	J39_64	J40_64	120.00	350.0	120.0	0.0264	Open
P6475	J39_65	J39_66	120.00	100.0	125.0	0.0501	Open
P6476	J39_65	J40_65	120.00	200.0	125.0	0.1418	Open
P6477	J39_66	J39_67	120.00	150.0	130.0	0.0193	Open
P6478	J39_66	J40_66	120.00	150.0	140.0	0.0083	Open
P6479	J39_67	J39_68	120.00	150.0	135.0	0.1331	Open
P6480	J39_67	J40_67	120.00	250.0	125.0	0.0890	Open
P6481	J39_68	J39_69	120.00	250.0	125.0	0.1262	Open
P6482	J39_68	J40_68	120.00	250.0	135.0	0.0938	Open
P6483	J39_69	J39_70	120.00	100.0	130.0	0.0357	Open
P6484	J39_69	J40_69	120.00	100.0	130.0	0.0645	Open
P6485	J39_70	J39_71	120.00	250.0	125.0	0.0040	Open
P6486	J39_70	J40_70	120.00	100.0	125.0	0.1417	Open
P6487	J39_71	J39_72	120.00	200.0	140.0	0.0328	Open
P6488	J39_71	J40_71	120.00	100.0	140.0	0.0034	Open
P6489	J39_72	J39_73	120.00	150.0	140.0	0.1491	Open
P6490	J39_72	J40_72	120.00	100.0	135.0	0.0171	Open
P6491	J39_73	J39_74	120.00	350.0	130.0	0.0023	Open
P6492	J39_73	J40_73	120.00	400.0	130.0	0.0205	Open
P6493	J39_74	J39_75	120.00	100.0	135.0	0.0635	Open
P6494	J39_74	J40_74	120.00	200.0	130.0	0.1088	Open
P6495	J39_75	J39_76	120.00	150.0	125.0	0.1182	Open
P6496	J39_75	J40_75	120.00	200.0	135.0	0.0596	Open
P6497	J39_76	J39_77	120.00	300.0	130.0	0.1264	Open
P6498	J39_76	J40_76	120.00	200.0	135.0	0.0370	Open
P6499	J39_77	J39_78	120.00	300.0	140.0	0.0733	Open
P6500	J39_77	J40_77	120.00	300.0	130.0	0.1176	Open
P6501	J39_78	J39_79	120.00	150.0	140.0	0.0822	Open
P6502	J39_78	J40_78	120.00	150.0	130.0	0.1411	Open
P6503	J39_79	J39_80	120.00	150.0	135.0	0.1081	Open
P6504	J39_79	J40_79	120.00	300.0	135.0	0.0947	Open
P6505	J39_80	J39_81	120.00	100.0	130.0	0.0097	Open
P6506	J39_80	J40_80	120.00	100.0	130.0	0.1085	Open
P6507	J39_81	J39_82	120.00	150.0	135.0	0.0460	Open
P6508	J39_81	J40_81	120.00	250.0	125.0	0.0845	Open
P6509	J39_82	J39_83	120.00	600.0	125.0	0.0415	Open
P6510	J39_82	J40_82	120.00	500.0	125.0	0.0089	Open
P6511	J39_83	J39_84	120.00	250.0	140.0	0.0908	Open
P6512	J39_83	J40_83	120.00	300.0	130.0	0.1014	Open
P6513	J39_84	J40_84	120.00	200.0	130.0	0.0212	Open
P6514	J40_1	J40_2	120.00	350.0	120.0	0.0062	Open
P6515	J40_1	J41_1	120.00	300.0	125.0	0.0105	Open
P6516	J40_2	J40_3	120.00	150.0	140.0	0.1029	Open
P6517	J40_2	J41_2	120.00	300.0	140.0	0.0256	Open
P6518	J40_3	J40_4	120.00	300.0	130.0	0.0138	Open
P6519	J40_3	J41_3	120.00	250.0	125.0	0.1072	Open
P6520	J40_4	J40_5	120.00	200.0	125.0	0.1319	Open
P6521	J40_4	J41_4	120.00	300.0	125.0	0.1302	Open
P6522	J40_5	J40_6	120.00	300.0	140.0	0.0720	Open
P6523	J40_5	J41_5	120.00	150.0	135.0	0.0886	Open
P6524	J40_6	J40_7	120.00	200.0	125.0	0.0586	Open
P6525	J40_6	J41_6	120.00	250.0	135.0	0.0746	Open
P6526	J40_7	J40_8	120.00	150.0	135.0	0.0825	Open
P6527	J40_7	J41_7	120.00	100.0	135.0	0.0315	Open
P6528	J40_8	J40_9	120.00	250.0	125.0	0.0263	Open
P6529	J40_8	J41_8	120.00	200.0	130.0	0.0896	Open
P6530	J40_9	J40_10	120.00	100.0	135.0	0.0672	Open
P6531	J40_9	J41_9	120.00	250.0	125.0	0.0624	Open
P6532	J40_10	J40_11	120.00	450.0	120.0	0.0286	Open
P6533	J40_10	J41_10	120.00	500.0	125.0	0.0065	Open
P6534	J40_11	J40_12	120.00	250.0	140.0	0.1114	Open
P6535	J40_11	J41_11	120.00	200.0	135.0	0.1421	Open
P6536	J40_12	J40_13	120.00	100.0	125.0	0.0954	Open
P6537	J40_12	J41_12	120.00	150.0	125.0	0.0653	Open
P6538	J40_13	J40_14	120.00	300.0	130.0	0.0002	Open
P6539	J40_13	J41_13	120.00	300.0	125.0	0.0999	Open
P6540	J40_14	J40_15	120.00	250.0	125.0	0.0077	Open
P6541	J40_14	J41_14	120.00	200.0	140.0	0.0977	Open
P6542	J40_15	J40_16	120.00	100.0	125.0	0.0424	Open
P6543	J40_15	J41_15	120.00	250.0	135.0	0.0281	Open
P6544	J40_16	J40_17	120.00	150.0	135.0	0.0460	Open
P6545	J40_16	J41_16	120.00	150.0	130.0	0.1023	Open
P6546	J40_17	J40_18	120.00	250.0	140.0	0.1453	Open
P6547	J40_17	J41_17	120.00	100.0	135.0	0.0934	Open
P6548	J40_18	J40_19	120.00	300.0	140.0	0.0328	Open
P6549	J40_18	J41_18	120.00	250.0	140.0	0.0240	Open
P6550	J40_19	J40_20	120.00	300.0	120.0	0.0190	Open
P6551	J40_19	J41_19	120.00	600.0	120.0	0.0054	Open
P6552	J40_20	J40_21	120.00	250.0	140.0	0.0167	Open
P6553	J40_20	J41_20	120.00	100.0	125.0	0.0899	Open
P6554	J40_21	J40_22	120.00	250.0	125.0	0.1332	Open
P6555	J40_21	J41_21	120.00	300.0	125.0	0.1258	Open
P6556	J40_22	J40_23	120.00	200.0	125.0	0.0011	Open
P6557	J40_22	J41_22	120.00	150.0	125.0	0.0864	Open
P6558	J40_23	J40_24	120.00	200.0	140.0	0.0004	Open
P6559	J40_23	J41_23	120.00	200.0	135.0	0.0486	Open
P6560	J40_24	J40_25	120.00	250.0	130.0	0.0880	Open
P6561	J40_24	J41_24	120.00	300.0	135.0	0.0472	Open
P6562	J40_25	J40_26	120.00	100.0	135.0	0.0095	Open
P6563	J40_25	J41_25	120.00	150.0	125.0	0.1382	Open
P6564	J40_26	J40_27	120.00	100.0	125.0	0.1062	Open
P6565	J40_26	J41_26	120.00	200.0	135.0	0.1430	Open
P6566	J40_27	J40_28	120.00	300.0	125.0	0.1388	Open
P6567	J40_27	J41_27	120.00	200.0	140.0	0.1003	Open
P6568	J40_28	J40_29	120.00	300.0	125.0	0.0304	Open
P6569	J40_28	J41_28	120.00	400.0	120.0	0.0429	Open
P6570	J40_29	J40_30	120.00	150.0	125.0	0.1203	Open
P6571	J40_29	J41_29	120.00	200.0	140.0	0.0083	Open
P6572	J40_30	J40_31	120.00	300.0	130.0	0.0973	Open
P6573	J40_30	J41_30	120.00	300.0	125.0	0.0735	Open
P6574	J40_31	J40_32	120.00	200.0	135.0	0.0543	Open
P6575	J40_31	J41_31	120.00	200.0	135.0	0.0509	Open
P6576	J40_32	J40_33	120.00	250.0	140.0	0.0977	Open
P6577	J40_32	J41_32	120.00	250.0	130.0	0.0373	Open
P6578	J40_33	J40_34	120.00	100.0	130.0	0.0877	Open
P6579	J40_33	J41_33	120.00	150.0	125.0	0.1454	Open
P6580	J40_34	J40_35	120.00	100.0	125.0	0.0052	Open
P6581	J40_34	J41_34	120.00	200.0	140.0	0.0569	Open
P6582	J40_35	J40_36	120.00	300.0	125.0	0.0049	Open
P6583	J40_35	J41_35	120.00	100.0	135.0	0.0718	Open
P6584	J40_36	J40_37	120.00	200.0	130.0	0.0252	Open
P6585	J40_36	J41_36	120.00	150.0	135.0	0.0978	Open
P6586	J40_37	J40_38	120.00	450.0	130.0	0.0002	Open
P6587	J40_37	J41_37	120.00	500.0	130.0	0.0479	Open
P6588	J40_38	J40_39	120.00	300.0	125.0	0.1265	Open
P6589	J40_38	J41_38	120.00	100.0	125.0	0.0355	Open
P6590	J40_39	J40_40	120.00	200.0	140.0	0.0440	Open
P6591	J40_39	J41_39	120.00	100.0	140.0	0.1417	Open
P6592	J40_40	J40_41	120.00	300.0	130.0	0.0976	Open
P6593	J40_40	J41_40	120.00	200.0	140.0	0.1056	Open
P6594	J40_41	J40_42	120.00	150.0	135.0	0.0718	Open
P6595	J40_41	J41_41	120.00	100.0	140.0	0.1064	Open
P6596	J40_42	J40_43	120.00	200.0	140.0	0.0824	Open
P6597	J40_42	J41_42	120.00	250.0	130.0	0.0641	Open
P6598	J40_43	J40_44	120.00	150.0	125.0	0.0224	Open
P6599	J40_43	J41_43	120.00	300.0	135.0	0.0320	Open
P6600	J40_44	J40_45	120.00	150.0	130.0	0.0120	Open
P6601	J40_44	J41_44	120.00	250.0	140.0	0.0878	Open
P6602	J40_45	J40_46	120.00	250.0	135.0	0.1454	Open
P6603	J40_45	J41_45	120.00	200.0	125.0	0.1046	Open
P6604	J40_46	J40_47	120.00	400.0	130.0	0.0307	Open
P6605	J40_46	J41_46	120.00	350.0	130.0	0.0151	Open
P6606	J40_47	J40_48	120.00	250.0	135.0	0.1185	Open
P6607	J40_47	J41_47	120.00	100.0	130.0	0.0439	Open
P6608	J40_48	J40_49	120.00	250.0	125.0	0.0453	Open
P6609	J40_48	J41_48	120.00	250.0	130.0	0.0206	Open
P6610	J40_49	J40_50	120.00	100.0	140.0	0.0969	Open
P6611	J40_49	J41_49	120.00	200.0	130.0	0.0552	Open
P6612	J40_50	J40_51	120.00	300.0	130.0	0.0922	Open
P6613	J40_50	J41_50	120.00	300.0	140.0	0.0943	Open
P6614	J40_51	J40_52	120.00	200.0	140.0	0.0677	Open
P6615	J40_51	J41_51	120.00	200.0	125.0	0.0068	Open
P6616	J40_52	J40_53	120.00	150.0	135.0	0.0862	Open
P6617	J40_52	J41_52	120.00	250.0	140.0	0.0650	Open
P6618	J40_53	J40_54	120.00	300.0	125.0	0.1276	Open
P6619	J40_53	J41_53	120.00	300.0	125.0	0.0555	Open
P6620	J40_54	J40_55	120.00	100.0	140.0	0.0453	Open
P6621	J40_54	J41_54	120.00	250.0	125.0	0.1029	Open
P6622	J40_55	J40_56	120.00	300.0	130.0	0.0494	Open
P6623	J40_55	J41_55	120.00	450.0	125.0	0.0424	Open
P6624	J40_56	J40_57	120.00	250.0	135.0	0.0690	Open
P6625	J40_56	J41_56	120.00	250.0	125.0	0.1357	Open
P6626	J40_57	J40_58	120.00	100.0	135.0	0.0299	Open
P6627	J40_57	J41_57	120.00	100.0	135.0	0.1280	Open
P6628	J40_58	J40_59	120.00	200.0	130.0	0.0481	Open
P6629	J40_58	J41_58	120.00	150.0	130.0	0.0154	Open
P6630	J40_59	J40_60	120.00	100.0	125.0	0.0724	Open
P6631	J40_59	J41_59	120.00	150.0	130.0	0.1482	Open
P6632	J40_60	J40_61	120.00	250.0	130.0	0.0430	Open
P6633	J40_60	J41_60	120.00	150.0	140.0	0.0770	Open
P6634	J40_61	J40_62	120.00	150.0	130.0	0.0282	Open
P6635	J40_61	J41_61	120.00	250.0	140.0	0.0204	Open
P6636	J40_62	J40_63	120.00	150.0	130.0	0.1459	Open
P6637	J40_62	J41_62	120.00	100.0	135.0	0.0128	Open
P6638	J40_63	J40_64	120.00	200.0	135.0	0.0037	Open
P6639	J40_63	J41_63	120.00	250.0	140.0	0.0543	Open
P6640	J40_64	J40_65	120.00	400.0	130.0	0.0369	Open
P6641	J40_64	J41_64	120.00	350.0	120.0	0.0333	Open
P6642	J40_65	J40_66	120.00	250.0	135.0	0.0045	Open
P6643	J40_65	J41_65	120.00	100.0	130.0	0.0434	Open
P6644	J40_66	J40_67	120.00	100.0	125.0	0.1080	Open
P6645	J40_66	J41_66	120.00	200.0	140.0	0.0419	Open
P6646	J40_67	J40_68	120.00	100.0	125.0	0.1181	Open
P6647	J40_67	J41_67	120.00	300.0	130.0	0.0594	Open
P6648	J40_68	J40_69	120.00	100.0	135.0	0.0747	Open
P6649	J40_68	J41_68	120.00	150.0	135.0	0.1487	Open
P6650	J40_69	J40_70	120.00	100.0	140.0	0.1125	Open
P6651	J40_69	J41_69	120.00	200.0	125.0	0.1065	Open
P6652	J40_70	J40_71	120.00	200.0	125.0	0.0991	Open
P6653	J40_70	J41_70	120.00	150.0	140.0	0.1144	Open
P6654	J40_71	J40_72	120.00	100.0	135.0	0.0326	Open
P6655	J40_71	J41_71	120.00	200.0	135.0	0.0638	Open
P6656	J40_72	J40_73	120.00	200.0	130.0	0.0013	Open
P6657	J40_72	J41_72	120.00	200.0	140.0	0.0961	Open
P6658	J40_73	J40_74	120.00	400.0	130.0	0.0008	Open
P6659	J40_73	J41_73	120.00	300.0	125.0	0.0355	Open
P6660	J40_74	J40_75	120.00	150.0	130.0	0.1043	Open
P6661	J40_74	J41_74	120.00	150.0	130.0	0.0283	Open
P6662	J40_75	J40_76	120.00	150.0	130.0	0.0770	Open
P6663	J40_75	J41_75	120.00	150.0	125.0	0.0414	Open
P6664	J40_76	J40_77	120.00	200.0	130.0	0.1062	Open
P6665	J40_76	J41_76	120.00	100.0	125.0	0.0391	Open
P6666	J40_77	J40_78	120.00	150.0	130.0	0.0220	Open
P6667	J40_77	J41_77	120.00	300.0	140.0	0.0054	Open
P6668	J40_78	J40_79	120.00	200.0	140.0	0.0436	Open
P6669	J40_78	J41_78	120.00	150.0	135.0	0.0987	Open
P6670	J40_79	J40_80	120.00	150.0	130.0	0.0866	Open
P6671	J40_79	J41_79	120.00	100.0	125.0	0.0843	Open
P6672	J40_80	J40_81	120.00	300.0	140.0	0.0385	Open
P6673	J40_80	J41_80	120.00	200.0	130.0	0.0915	Open
P6674	J40_81	J40_82	120.00	150.0	130.0	0.0451	Open
P6675	J40_81	J41_81	120.00	150.0	135.0	0.1257	Open
P6676	J40_82	J40_83	120.00	500.0	130.0	0.0026	Open
P6677	J40_82	J41_82	120.00	300.0	120.0	0.0163	Open
P6678	J40_83	J40_84	120.00	250.0	135.0	0.1198	Open
P6679	J40_83	J41_83	120.00	300.0	130.0	0.0712	Open
P6680	J40_84	J41_84	120.00	250.0	140.0	0.1305	Open
P6681	J41_1	J41_2	120.00	300.0	125.0	0.0210	Open
P6682	J41_1	J42_1	120.00	450.0	120.0	0.0473	Open
P6683	J41_2	J41_3	120.00	250.0	130.0	0.0269	Open
P6684	J41_2	J42_2	120.00	100.0	130.0	0.1321	Open
P6685	J41_3	J41_4	120.00	250.0	135.0	0.0851	Open
P6686	J41_3	J42_3	120.00	200.0	140.0	0.0551	Open
P6687	J41_4	J41_5	120.00	250.0	125.0	0.0093	Open
P6688	J41_4	J42_4	120.00	100.0	135.0	0.0446	Open
P6689	J41_5	J41_6	120.00	200.0	140.0	0.1482	Open
P6690	J41_5	J42_5	120.00	150.0	125.0	0.0699	Open
P6691	J41_6	J41_7	120.00	200.0	135.0	0.1239	Open
P6692	J41_6	J42_6	120.00	100.0	135.0	0.1312	Open
P6693	J41_7	J41_8	120.00	150.0	125.0	0.1411	Open
P6694	J41_7	J42_7	120.00	150.0	125.0	0.0174	Open
P6695	J41_8	J41_9	120.00	300.0	135.0	0.0123	Open
P6696	J41_8	J42_8	120.00	100.0	135.0	0.0866	Open
P6697	J41_9	J41_10	120.00	200.0	135.0	0.1411	Open
P6698	J41_9	J42_9	120.00	300.0	125.0	0.0048	Open
P6699	J41_10	J41_11	120.00	500.0	125.0	0.0385	Open
P6700	J41_10	J42_10	120.00	300.0	120.0	0.0499	Open
P6701	J41_11	J41_12	120.00	200.0	135.0	0.1298	Open
P6702	J41_11	J42_11	120.00	100.0	135.0	0.1142	Open
P6703	J41_12	J41_13	120.00	250.0	130.0	0.1214	Open
P6704	J41_12	J42_12	120.00	300.0	125.0	0.0976	Open
P6705	J41_13	J41_14	120.00	200.0	130.0	0.1122	Open
P6706	J41_13	J42_13	120.00	150.0	130.0	0.1025	Open
P6707	J41_14	J41_15	120.00	150.0	130.0	0.0758	Open
P6708	J41_14	J42_14	120.00	200.0	135.0	0.0993	Open
P6709	J41_15	J41_16	120.00	200.0	130.0	0.1389	Open
P6710	J41_15	J42_15	120.00	200.0	130.0	0.0376	Open
P6711	J41_16	J41_17	120.00	300.0	140.0	0.1290	Open
P6712	J41_16	J42_16	120.00	200.0	130.0	0.0404	Open
P6713	J41_17	J41_18	120.00	200.0	125.0	0.0215	Open
P6714	J41_17	J42_17	120.00	150.0	130.0	0.0436	Open
P6715	J41_18	J41_19	120.00	200.0	125.0	0.1112	Open
P6716	J41_18	J42_18	120.00	200.0	140.0	0.1171	Open
P6717	J41_19	J41_20	120.00	600.0	125.0	0.0480	Open
P6718	J41_19	J42_19	120.00	600.0	125.0	0.0225	Open
P6719	J41_20	J41_21	120.00	250.0	130.0	0.1385	Open
P6720	J41_20	J42_20	120.00	300.0	125.0	0.0075	Open
P6721	J41_21	J41_22	120.00	150.0	140.0	0.1169	Open
P6722	J41_21	J42_21	120.00	300.0	140.0	0.1098	Open
P6723	J41_22	J41_23	120.00	250.0	140.0	0.1472	Open
P6724	J41_22	J42_22	120.00	100.0	125.0	0.1500	Open
P6725	J41_23	J41_24	120.00	100.0	130.0	0.1326	Open
P6726	J41_23	J42_23	120.00	300.0	140.0	0.0848	Open
P6727	J41_24	J41_25	120.00	250.0	130.0	0.1267	Open
P6728	J41_24	J42_24	120.00	150.0	125.0	0.0575	Open
P6729	J41_25	J41_26	120.00	250.0	125.0	0.1486	Open
P6730	J41_25	J42_25	120.00	200.0	130.0	0.1268	Open
P6731	J41_26	J41_27	120.00	250.0	135.0	0.1202	Open
P6732	J41_26	J42_26	120.00	150.0	125.0	0.1476	Open
P6733	J41_27	J41_28	120.00	250.0	140.0	0.0310	Open
P6734	J41_27	J42_27	120.00	250.0	140.0	0.0950	Open
P6735	J41_28	J41_29	120.00	500.0	125.0	0.0049	Open
P6736	J41_28	J42_28	120.00	400.0	120.0	0.0468	Open
P6737	J41_29	J41_30	120.00	150.0	130.0	0.1179	Open
P6738	J41_29	J42_29	120.00	200.0	135.0	0.1463	Open
P6739	J41_30	J41_31	120.00	300.0	135.0	0.1075	Open
P6740	J41_30	J42_30	120.00	200.0	130.0	0.1466	Open
P6741	J41_31	J41_32	120.00	100.0	140.0	0.1425	Open
P6742	J41_31	J42_31	120.00	100.0	130.0	0.0431	Open
P6743	J41_32	J41_33	120.00	100.0	130.0	0.0727	Open
P6744	J41_32	J42_32	120.00	100.0	125.0	0.0351	Open
P6745	J41_33	J41_34	120.00	300.0	125.0	0.0791	Open
P6746	J41_33	J42_33	120.00	100.0	130.0	0.0022	Open
P6747	J41_34	J41_35	120.00	300.0	135.0	0.0018	Open
P6748	J41_34	J42_34	120.00	100.0	140.0	0.0280	Open
P6749	J41_35	J41_36	120.00	150.0	140.0	0.0393	Open
P6750	J41_35	J42_35	120.00	200.0	130.0	0.0752	Open
P6751	J41_36	J41_37	120.00	300.0	125.0	0.0323	Open
P6752	J41_36	J42_36	120.00	200.0	140.0	0.0349	Open
P6753	J41_37	J41_38	120.00	600.0	120.0	0.0236	Open
P6754	J41_37	J42_37	120.00	450.0	120.0	0.0314	Open
P6755	J41_38	J41_39	120.00	250.0	140.0	0.1476	Open
P6756	J41_38	J42_38	120.00	250.0	130.0	0.0553	Open
P6757	J41_39	J41_40	120.00	200.0	140.0	0.0853	Open
P6758	J41_39	J42_39	120.00	100.0	135.0	0.0953	Open
P6759	J41_40	J41_41	120.00	100.0	130.0	0.0059	Open
P6760	J41_40	J42_40	120.00	300.0	125.0	0.0563	Open
P6761	J41_41	J41_42	120.00	150.0	135.0	0.0480	Open
P6762	J41_41	J42_41	120.00	300.0	135.0	0.1417	Open
P6763	J41_42	J41_43	120.00	300.0	125.0	0.0346	Open
P6764	J41_42	J42_42	120.00	300.0	140.0	0.1053	Open
P6765	J41_43	J41_44	120.00	200.0	135.0	0.0607	Open
P6766	J41_43	J42_43	120.00	100.0	135.0	0.0606	Open
P6767	J41_44	J41_45	120.00	300.0	130.0	0.0022	Open
P6768	J41_44	J42_44	120.00	300.0	135.0	0.0425	Open
P6769	J41_45	J41_46	120.00	250.0	140.0	0.0388	Open
P6770	J41_45	J42_45	120.00	200.0	130.0	0.1179	Open
P6771	J41_46	J41_47	120.00	300.0	130.0	0.0380	Open
P6772	J41_46	J42_46	120.00	500.0	120.0	0.0205	Open
P6773	J41_47	J41_48	120.00	300.0	130.0	0.0098	Open
P6774	J41_47	J42_47	120.00	100.0	125.0	0.0107	Open
P6775	J41_48	J41_49	120.00	250.0	125.0	0.0369	Open
P6776	J41_48	J42_48	120.00	250.0	130.0	0.0661	Open
P6777	J41_49	J41_50	120.00	200.0	130.0	0.1197	Open
P6778	J41_49	J42_49	120.00	200.0	135.0	0.0243	Open
P6779	J41_50	J41_51	120.00	300.0	130.0	0.1299	Open
P6780	J41_50	J42_50	120.00	150.0	125.0	0.0821	Open
P6781	J41_51	J41_52	120.00	300.0	140.0	0.0207	Open
P6782	J41_51	J42_51	120.00	100.0	140.0	0.0544	Open
P6783	J41_52	J41_53	120.00	100.0	130.0	0.1218	Open
P6784	J41_52	J42_52	120.00	200.0	130.0	0.1102	Open
P6785	J41_53	J41_54	120.00	100.0	140.0	0.0950	Open
P6786	J41_53	J42_53	120.00	200.0	140.0	0.0817	Open
P6787	J41_54	J41_55	120.00	100.0	125.0	0.0706	Open
P6788	J41_54	J42_54	120.00	250.0	125.0	0.1407	Open
P6789	J41_55	J41_56	120.00	450.0	120.0	0.0258	Open
P6790	J41_55	J42_55	120.00	500.0	120.0	0.0071	Open
P6791	J41_56	J41_57	120.00	150.0	135.0	0.0234	Open
P6792	J41_56	J42_56	120.00	150.0	135.0	0.0420	Open
P6793	J41_57	J41_58	120.00	100.0	140.0	0.0968	Open
P6794	J41_57	J42_57	120.00	250.0	140.0	0.1249	Open
P6795	J41_58	J41_59	120.00	300.0	125.0	0.1203	Open
P6796	J41_58	J42_58	120.00	100.0	140.0	0.0766	Open
P6797	J41_59	J41_60	120.00	250.0	125.0	0.1030	Open
P6798	J41_59	J42_59	120.00	250.0	130.0	0.1409	Open
P6799	J41_60	J41_61	120.00	100.0	135.0	0.1260	Open
P6800	J41_60	J42_60	120.00	250.0	125.0	0.0913	Open
P6801	J41_61	J41_62	120.00	200.0	125.0	0.1441	Open
P6802	J41_61	J42_61	120.00	250.0	135.0	0.0157	Open
P6803	J41_62	J41_63	120.00	300.0	130.0	0.1200	Open
P6804	J41_62	J42_62	120.00	200.0	135.0	0.0224	Open
P6805	J41_63	J41_64	120.00	150.0	125.0	0.1121	Open
P6806	J41_63	J42_63	120.00	300.0	130.0	0.0811	Open
P6807	J41_64	J41_65	120.00	500.0	125.0	0.0029	Open
P6808	J41_64	J42_64	120.00	600.0	130.0	0.0359	Open
P6809	J41_65	J41_66	120.00	150.0	135.0	0.0781	Open
P6810	J41_65	J42_65	120.00	250.0	125.0	0.0643	Open
P6811	J41_66	J41_67	120.00	200.0	140.0	0.1080	Open
P6812	J41_66	J42_66	120.00	150.0	130.0	0.1001	Open
P6813	J41_67	J41_68	120.00	300.0	135.0	0.0168	Open
P6814	J41_67	J42_67	120.00	200.0	125.0	0.0339	Open
P6815	J41_68	J41_69	120.00	150.0	140.0	0.1476	Open
P6816	J41_68	J42_68	120.00	100.0	135.0	0.0728	Open
P6817	J41_69	J41_70	120.00	300.0	135.0	0.0728	Open
P6818	J41_69	J42_69	120.00	100.0	135.0	0.0333	Open
P6819	J41_70	J41_71	120.00	250.0	135.0	0.0303	Open
P6820	J41_70	J42_70	120.00	300.0	135.0	0.0903	Open
P6821	J41_71	J41_72	120.00	250.0	125.0	0.0697	Open
P6822	J41_71	J42_71	120.00	250.0	130.0	0.0211	Open
P6823	J41_72	J41_73	120.00	200.0	130.0	0.1369	Open
P6824	J41_72	J42_72	120.00	200.0	125.0	0.1349	Open
P6825	J41_73	J41_74	120.00	300.0	130.0	0.0160	Open
P6826	J41_73	J42_73	120.00	400.0	120.0	0.0075	Open
P6827	J41_74	J41_75	120.00	200.0	125.0	0.0779	Open
P6828	J41_74	J42_74	120.00	200.0	130.0	0.0849	Open
P6829	J41_75	J41_76	120.00	250.0	125.0	0.1428	Open
P6830	J41_75	J42_75	120.00	250.0	125.0	0.1076	Open
P6831	J41_76	J41_77	120.00	100.0	135.0	0.0562	Open
P6832	J41_76	J42_76	120.00	300.0	140.0	0.1038	Open
P6833	J41_77	J41_78	120.00	250.0	130.0	0.1022	Open
P6834	J41_77	J42_77	120.00	100.0	125.0	0.0178	Open
P6835	J41_78	J41_79	120.00	250.0	140.0	0.0051	Open
P6836	J41_78	J42_78	120.00	100.0	125.0	0.0782	Open
P6837	J41_79	J41_80	120.00	300.0	140.0	0.0094	Open
P6838	J41_79	J42_79	120.00	300.0	135.0	0.1249	Open
P6839	J41_80	J41_81	120.00	200.0	135.0	0.1436	Open
P6840	J41_80	J42_80	120.00	300.0	125.0	0.0131	Open
P6841	J41_81	J41_82	120.00	100.0	135.0	0.0508	Open
P6842	J41_81	J42_81	120.00	200.0	140.0	0.0828	Open
P6843	J41_82	J41_83	120.00	600.0	120.0	0.0452	Open
P6844	J41_82	J42_82	120.00	350.0	120.0	0.0271	Open
P6845	J41_83	J41_84	120.00	100.0	140.0	0.1158	Open
P6846	J41_83	J42_83	120.00	200.0	130.0	0.0933	Open
P6847	J41_84	J42_84	120.00	150.0	130.0	0.1305	Open
P6848	J42_1	J42_2	120.00	450.0	120.0	0.0120	Open
P6849	J42_1	J43_1	120.00	600.0	125.0	0.0331	Open
P6850	J42_2	J42_3	120.00	250.0	140.0	0.0914	Open
P6851	J42_2	J43_2	120.00	200.0	135.0	0.1280	Open
P6852	J42_3	J42_4	120.00	150.0	125.0	0.1154	Open
P6853	J42_3	J43_3	120.00	200.0	125.0	0.0629	Open
P6854	J42_4	J42_5	120.00	150.0	140.0	0.0598	Open
P6855	J42_4	J43_4	120.00	150.0	135.0	0.0488	Open
P6856	J42_5	J42_6	120.00	300.0	135.0	0.0748	Open
P6857	J42_5	J43_5	120.00	200.0	130.0	0.1036	Open
P6858	J42_6	J42_7	120.00	250.0	125.0	0.0601	Open
P6859	J42_6	J43_6	120.00	150.0	125.0	0.1283	Open
P6860	J42_7	J42_8	120.00	250.0	140.0	0.1422	Open
P6861	J42_7	J43_7	120.00	200.0	130.0	0.0198	Open
P6862	J42_8	J42_9	120.00	100.0	135.0	0.1429	Open
P6863	J42_8	J43_8	120.00	250.0	135.0	0.0251	Open
P6864	J42_9	J42_10	120.00	150.0	135.0	0.1003	Open
P6865	J42_9	J43_9	120.00	250.0	135.0	0.0989	Open
P6866	J42_10	J42_11	120.00	500.0	120.0	0.0228	Open
P6867	J42_10	J43_10	120.00	600.0	120.0	0.0156	Open
P6868	J42_11	J42_12	120.00	100.0	140.0	0.0574	Open
P6869	J42_11	J43_11	120.00	200.0	125.0	0.1403	Open
P6870	J42_12	J42_13	120.00	200.0	135.0	0.0276	Open
P6871	J42_12	J43_12	120.00	300.0	140.0	0.0955	Open
P6872	J42_13	J42_14	120.00	300.0	125.0	0.0081	Open
P6873	J42_13	J43_13	120.00	150.0	125.0	0.0146	Open
P6874	J42_14	J42_15	120.00	200.0	125.0	0.1056	Open
P6875	J42_14	J43_14	120.00	250.0	125.0	0.0347	Open
P6876	J42_15	J42_16	120.00	300.0	125.0	0.0370	Open
P6877	J42_15	J43_15	120.00	300.0	135.0	0.0909	Open
P6878	J42_16	J42_17	120.00	200.0	130.0	0.0913	Open
P6879	J42_16	J43_16	120.00	250.0	135.0	0.0181	Open
P6880	J42_17	J42_18	120.00	200.0	135.0	0.1082	Open
P6881	J42_17	J43_17	120.00	200.0	130.0	0.0575	Open
P6882	J42_18	J42_19	120.00	200.0	125.0	0.0028	Open
P6883	J42_18	J43_18	120.00	300.0	125.0	0.0812	Open
P6884	J42_19	J42_20	120.00	450.0	120.0	0.0374	Open
P6885	J42_19	J43_19	120.00	300.0	120.0	0.0321	Open
P6886	J42_20	J42_21	120.00	300.0	125.0	0.0071	Open
P6887	J42_20	J43_20	120.00	150.0	125.0	0.0391	Open
P6888	J42_21	J42_22	120.00	100.0	125.0	0.0155	Open
P6889	J42_21	J43_21	120.00	250.0	135.0	0.1252	Open
P6890	J42_22	J42_23	120.00	100.0	130.0	0.0614	Open
P6891	J42_22	J43_22	120.00	200.0	130.0	0.0213	Open
P6892	J42_23	J42_24	120.00	100.0	125.0	0.0113	Open
P6893	J42_23	J43_23	120.00	250.0	125.0	0.0629	Open
P6894	J42_24	J42_25	120.00	300.0	140.0	0.0771	Open
P6895	J42_24	J43_24	120.00	250.0	125.0	0.0109	Open
P6896	J42_25	J42_26	120.00	200.0	130.0	0.0037	Open
P6897	J42_25	J43_25	120.00	250.0	125.0	0.0878	Open
P6898	J42_26	J42_27	120.00	100.0	125.0	0.0587	Open
P6899	J42_26	J43_26	120.00	300.0	135.0	0.0604	Open
P6900	J42_27	J42_28	120.00	150.0	135.0	0.1271	Open
P6901	J42_27	J43_27	120.00	150.0	125.0	0.1205	Open
P6902	J42_28	J42_29	120.00	450.0	120.0	0.0179	Open
P6903	J42_28	J43_28	120.00	300.0	120.0	0.0162	Open
P6904	J42_29	J42_30	120.00	200.0	135.0	0.0301	Open
P6905	J42_29	J43_29	120.00	100.0	125.0	0.0262	Open
P6906	J42_30	J42_31	120.00	200.0	125.0	0.0556	Open
P6907	J42_30	J43_30	120.00	150.0	125.0	0.1233	Open
P6908	J42_31	J42_32	120.00	150.0	125.0	0.1336	Open
P6909	J42_31	J43_31	120.00	250.0	140.0	0.0401	Open
P6910	J42_32	J42_33	120.00	250.0	135.0	0.0095	Open
P6911	J42_32	J43_32	120.00	250.0	140.0	0.0105	Open
P6912	J42_33	J42_34	120.00	200.0	125.0	0.0475	Open
P6913	J42_33	J43_33	120.00	100.0	135.0	0.1103	Open
P6914	J42_34	J42_35	120.00	100.0	130.0	0.0345	Open
P6915	J42_34	J43_34	120.00	300.0	140.0	0.0595	Open
P6916	J42_35	J42_36	120.00	250.0	125.0	0.0208	Open
P6917	J42_35	J43_35	120.00	200.0	125.0	0.0771	Open
P6918	J42_36	J42_37	120.00	300.0	125.0	0.0816	Open
P6919	J42_36	J43_36	120.00	200.0	140.0	0.1093	Open
P6920	J42_37	J42_38	120.00	300.0	125.0	0.0305	Open
P6921	J42_37	J43_37	120.00	500.0	130.0	0.0043	Open
P6922	J42_38	J42_39	120.00	200.0	130.0	0.0437	Open
P6923	J42_38	J43_38	120.00	250.0	125.0	0.1314	Open
P6924	J42_39	J42_40	120.00	150.0	135.0	0.0636	Open
P6925	J42_39	J43_39	120.00	100.0	125.0	0.0930	Open
P6926	J42_40	J42_41	120.00	250.0	135.0	0.1088	Open
P6927	J42_40	J43_40	120.00	200.0	140.0	0.0103	Open
P6928	J42_41	J42_42	120.00	200.0	135.0	0.0741	Open
P6929	J42_41	J43_41	120.00	250.0	140.0	0.0226	Open
P6930	J42_42	J42_43	120.00	150.0	125.0	0.0401	Open
P6931	J42_42	J43_42	120.00	200.0	135.0	0.0698	Open
P6932	J42_43	J42_44	120.00	200.0	140.0	0.1485	Open
P6933	J42_43	J43_43	120.00	250.0	130.0	0.0022	Open
P6934	J42_44	J42_45	120.00	200.0	135.0	0.1106	Open
P6935	J42_44	J43_44	120.00	100.0	135.0	0.1035	Open
P6936	J42_45	J42_46	120.00	100.0	140.0	0.0658	Open
P6937	J42_45	J43_45	120.00	250.0	135.0	0.0828	Open
P6938	J42_46	J42_47	120.00	350.0	125.0	0.0205	Open
P6939	J42_46	J43_46	120.00	600.0	130.0	0.0083	Open
P6940	J42_47	J42_48	120.00	200.0	125.0	0.1389	Open
P6941	J42_47	J43_47	120.00	150.0	135.0	0.0065	Open
P6942	J42_48	J42_49	120.00	200.0	140.0	0.0806	Open
P6943	J42_48	J43_48	120.00	100.0	130.0	0.0067	Open
P6944	J42_49	J42_50	120.00	300.0	135.0	0.1398	Open
P6945	J42_49	J43_49	120.00	300.0	135.0	0.0031	Open
P6946	J42_50	J42_51	120.00	150.0	130.0	0.0016	Open
P6947	J42_50	J43_50	120.00	200.0	140.0	0.0749	Open
P6948	J42_51	J42_52	120.00	200.0	135.0	0.0663	Open
P6949	J42_51	J43_51	120.00	250.0	140.0	0.0582	Open
P6950	J42_52	J42_53	120.00	100.0	130.0	0.0964	Open
P6951	J42_52	J43_52	120.00	300.0	125.0	0.0993	Open
P6952	J42_53	J42_54	120.00	300.0	130.0	0.1291	Open
P6953	J42_53	J43_53	120.00	200.0	140.0	0.0215	Open
P6954	J42_54	J42_55	120.00	300.0	125.0	0.1360	Open
P6955	J42_54	J43_54	120.00	250.0	135.0	0.0010	Open
P6956	J42_55	J42_56	120.00	450.0	120.0	0.0104	Open
P6957	J42_55	J43_55	120.00	450.0	130.0	0.0467	Open
P6958	J42_56	J42_57	120.00	150.0	130.0	0.0127	Open
P6959	J42_56	J43_56	120.00	200.0	135.0	0.0467	Open
P6960	J42_57	J42_58	120.00	150.0	130.0	0.0063	Open
P6961	J42_57	J43_57	120.00	150.0	125.0	0.0728	Open
P6962	J42_58	J42_59	120.00	150.0	140.0	0.0175	Open
P6963	J42_58	J43_58	120.00	200.0	140.0	0.1139	Open
P6964	J42_59	J42_60	120.00	150.0	130.0	0.1288	Open
P6965	J42_59	J43_59	120.00	300.0	125.0	0.0792	Open
P6966	J42_60	J42_61	120.00	300.0	125.0	0.0787	Open
P6967	J42_60	J43_60	120.00	150.0	135.0	0.0907	Open
P6968	J42_61	J42_62	120.00	200.0	140.0	0.1224	Open
P6969	J42_61	J43_61	120.00	150.0	130.0	0.0918	Open
P6970	J42_62	J42_63	120.00	150.0	130.0	0.1315	Open
P6971	J42_62	J43_62	120.00	300.0	125.0	0.0049	Open
P6972	J42_63	J42_64	120.00	150.0	130.0	0.0336	Open
P6973	J42_63	J43_63	120.00	100.0	140.0	0.1229	Open
P6974	J42_64	J42_65	120.00	300.0	130.0	0.0038	Open
P6975	J42_64	J43_64	120.00	300.0	125.0	0.0426	Open
P6976	J42_65	J42_66	120.00	200.0	130.0	0.0047	Open
P6977	J42_65	J43_65	120.00	150.0	125.0	0.0399	Open
P6978	J42_66	J42_67	120.00	250.0	125.0	0.0010	Open
P6979	J42_66	J43_66	120.00	100.0	125.0	0.0801	Open
P6980	J42_67	J42_68	120.00	150.0	125.0	0.0536	Open
P6981	J42_67	J43_67	120.00	150.0	125.0	0.0368	Open
P6982	J42_68	J42_69	120.00	250.0	135.0	0.0295	Open
P6983	J42_68	J43_68	120.00	200.0	130.0	0.0875	Open
P6984	J42_69	J42_70	120.00	100.0	130.0	0.0531	Open
P6985	J42_69	J43_69	120.00	250.0	125.0	0.0105	Open
P6986	J42_70	J42_71	120.00	300.0	125.0	0.0336	Open
P6987	J42_70	J43_70	120.00	100.0	140.0	0.1192	Open
P6988	J42_71	J42_72	120.00	150.0	125.0	0.1327	Open
P6989	J42_71	J43_71	120.00	200.0	125.0	0.0043	Open
P6990	J42_72	J42_73	120.00	250.0	130.0	0.0653	Open
P6991	J42_72	J43_72	120.00	150.0	140.0	0.0971	Open
P6992	J42_73	J42_74	120.00	450.0	130.0	0.0356	Open
P6993	J42_73	J43_73	120.00	400.0	130.0	0.0474	Open
P6994	J42_74	J42_75	120.00	250.0	125.0	0.0378	Open
P6995	J42_74	J43_74	120.00	100.0	135.0	0.0087	Open
P6996	J42_75	J42_76	120.00	300.0	125.0	0.0392	Open
P6997	J42_75	J43_75	120.00	150.0	130.0	0.0877	Open
P6998	J42_76	J42_77	120.00	100.0	135.0	0.0536	Open
P6999	J42_76	J43_76	120.00	150.0	125.0	0.1136	Open
P7000	J42_77	J42_78	120.00	300.0	125.0	0.0872	Open
P7001	J42_77	J43_77	120.00	300.0	135.0	0.1325	Open
P7002	J42_78	J42_79	120.00	100.0	135.0	0.1282	Open
P7003	J42_78	J43_78	120.00	150.0	140.0	0.1070	Open
P7004	J42_79	J42_80	120.00	150.0	130.0	0.1114	Open
P7005	J42_79	J43_79	120.00	100.0	135.0	0.0744	Open
P7006	J42_80	J42_81	120.00	200.0	140.0	0.0894	Open
P7007	J42_80	J43_80	120.00	250.0	135.0	0.0844	Open
P7008	J42_81	J42_82	120.00	300.0	125.0	0.1039	Open
P7009	J42_81	J43_81	120.00	250.0	135.0	0.1053	Open
P7010	J42_82	J42_83	120.00	500.0	125.0	0.0088	Open
P7011	J42_82	J43_82	120.00	300.0	125.0	0.0145	Open
P7012	J42_83	J42_84	120.00	200.0	140.0	0.1243	Open
P7013	J42_83	J43_83	120.00	200.0	135.0	0.0181	Open
P7014	J42_84	J43_84	120.00	100.0	135.0	0.0907	Open
P7015	J43_1	J43_2	120.00	600.0	125.0	0.0151	Open
P7016	J43_1	J44_1	120.00	500.0	125.0	0.0367	Open
P7017	J43_2	J43_3	120.00	300.0	140.0	0.1329	Open
P7018	J43_2	J44_2	120.00	100.0	135.0	0.1397	Open
P7019	J43_3	J43_4	120.00	300.0	140.0	0.1113	Open
P7020	J43_3	J44_3	120.00	150.0	135.0	0.1397	Open
P7021	J43_4	J43_5	120.00	300.0	140.0	0.1100	Open
P7022	J43_4	J44_4	120.00	250.0	135.0	0.1359	Open
P7023	J43_5	J43_6	120.00	100.0	130.0	0.1101	Open
P7024	J43_5	J44_5	120.00	300.0	130.0	0.0173	Open
P7025	J43_6	J43_7	120.00	100.0	135.0	0.1126	Open
P7026	J43_6	J44_6	120.00	300.0	135.0	0.0540	Open
P7027	J43_7	J43_8	120.00	300.0	130.0	0.1356	Open
P7028	J43_7	J44_7	120.00	100.0	130.0	0.0888	Open
P7029	J43_8	J43_9	120.00	100.0	140.0	0.0066	Open
P7030	J43_8	J44_8	120.00	150.0	140.0	0.1263	Open
P7031	J43_9	J43_10	120.00	200.0	140.0	0.0760	Open
P7032	J43_9	J44_9	120.00	300.0	125.0	0.1278	Open
P7033	J43_10	J43_11	120.00	500.0	130.0	0.0144	Open
P7034	J43_10	J44_10	120.00	350.0	130.0	0.0287	Open
P7035	J43_11	J43_12	120.00	300.0	130.0	0.1063	Open
P7036	J43_11	J44_11	120.00	300.0	140.0	0.1229	Open
P7037	J43_12	J43_13	120.00	250.0	140.0	0.0127	Open
P7038	J43_12	J44_12	120.00	150.0	125.0	0.1268	Open
P7039	J43_13	J43_14	120.00	200.0	140.0	0.0704	Open
P7040	J43_13	J44_13	120.00	200.0	135.0	0.1422	Open
P7041	J43_14	J43_15	120.00	150.0	125.0	0.0163	Open
P7042	J43_14	J44_14	120.00	150.0	125.0	0.0949	Open
P7043	J43_15	J43_16	120.00	100.0	130.0	0.0794	Open
P7044	J43_15	J44_15	120.00	300.0	125.0	0.0646	Open
P7045	J43_16	J43_17	120.00	200.0	135.0	0.1454	Open
P7046	J43_16	J44_16	120.00	200.0	130.0	0.1291	Open
P7047	J43_17	J43_18	120.00	300.0	140.0	0.0999	Open
P7048	J43_17	J44_17	120.00	250.0	130.0	0.0469	Open
P7049	J43_18	J43_19	120.00	150.0	135.0	0.0044	Open
P7050	J43_18	J44_18	120.00	100.0	130.0	0.1110	Open
P7051	J43_19	J43_20	120.00	400.0	120.0	0.0363	Open
P7052	J43_19	J44_19	120.00	500.0	130.0	0.0463	Open
P7053	J43_20	J43_21	120.00	100.0	140.0	0.0418	Open
P7054	J43_20	J44_20	120.00	150.0	125.0	0.0340	Open
P7055	J43_21	J43_22	120.00	250.0	125.0	0.1454	Open
P7056	J43_21	J44_21	120.00	200.0	125.0	0.0177	Open
P7057	J43_22	J43_23	120.00	150.0	140.0	0.0624	Open
P7058	J43_22	J44_22	120.00	300.0	140.0	0.1424	Open
P7059	J43_23	J43_24	120.00	100.0	125.0	0.1207	Open
P7060	J43_23	J44_23	120.00	250.0	125.0	0.1449	Open
P7061	J43_24	J43_25	120.00	250.0	125.0	0.0553	Open
P7062	J43_24	J44_24	120.00	150.0	130.0	0.0419	Open
P7063	J43_25	J43_26	120.00	150.0	140.0	0.0678	Open
P7064	J43_25	J44_25	120.00	250.0	130.0	0.0338	Open
P7065	J43_26	J43_27	120.00	300.0	130.0	0.0496	Open
P7066	J43_26	J44_26	120.00	100.0	130.0	0.1187	Open
P7067	J43_27	J43_28	120.00	250.0	135.0	0.0962	Open
P7068	J43_27	J44_27	120.00	100.0	130.0	0.1242	Open
P7069	J43_28	J43_29	120.00	600.0	120.0	0.0021	Open
P7070	J43_28	J44_28	120.00	450.0	120.0	0.0263	Open
P7071	J43_29	J43_30	120.00	200.0	135.0	0.0742	Open
P7072	J43_29	J44_29	120.00	150.0	125.0	0.1072	Open
P7073	J43_30	J43_31	120.00	150.0	135.0	0.0020	Open
P7074	J43_30	J44_30	120.00	200.0	125.0	0.0497	Open
P7075	J43_31	J43_32	120.00	300.0	135.0	0.0843	Open
P7076	J43_31	J44_31	120.00	150.0	140.0	0.0560	Open
P7077	J43_32	J43_33	120.00	150.0	125.0	0.1203	Open
P7078	J43_32	J44_32	120.00	300.0	125.0	0.0912	Open
P7079	J43_33	J43_34	120.00	200.0	135.0	0.0609	Open
P7080	J43_33	J44_33	120.00	250.0	140.0	0.1376	Open
P7081	J43_34	J43_35	120.00	300.0	140.0	0.1427	Open
P7082	J43_34	J44_34	120.00	200.0	130.0	0.0638	Open
P7083	J43_35	J43_36	120.00	100.0	130.0	0.0570	Open
P7084	J43_35	J44_35	120.00	250.0	125.0	0.0418	Open
P7085	J43_36	J43_37	120.00	100.0	130.0	0.0770	Open
P7086	J43_36	J44_36	120.00	100.0	125.0	0.0533	Open
P7087	J43_37	J43_38	120.00	450.0	130.0	0.0257	Open
P7088	J43_37	J44_37	120.00	400.0	130.0	0.0150	Open
P7089	J43_38	J43_39	120.00	150.0	125.0	0.1390	Open
P7090	J43_38	J44_38	120.00	150.0	140.0	0.0596	Open
P7091	J43_39	J43_40	120.00	300.0	130.0	0.0249	Open
P7092	J43_39	J44_39	120.00	100.0	130.0	0.1100	Open
P7093	J43_40	J43_41	120.00	250.0	130.0	0.0847	Open
P7094	J43_40	J44_40	120.00	200.0	140.0	0.0653	Open
P7095	J43_41	J43_42	120.00	100.0	140.0	0.0574	Open
P7096	J43_41	J44_41	120.00	250.0	140.0	0.0724	Open
P7097	J43_42	J43_43	120.00	100.0	140.0	0.1034	Open
P7098	J43_42	J44_42	120.00	100.0	130.0	0.1194	Open
P7099	J43_43	J43_44	120.00	150.0	125.0	0.0966	Open
P7100	J43_43	J44_43	120.00	250.0	135.0	0.0270	Open
P7101	J43_44	J43_45	120.00	250.0	140.0	0.0766	Open
P7102	J43_44	J44_44	120.00	250.0	125.0	0.0089	Open
P7103	J43_45	J43_46	120.00	200.0	140.0	0.0797	Open
P7104	J43_45	J44_45	120.00	300.0	135.0	0.0100	Open
P7105	J43_46	J43_47	120.00	450.0	120.0	0.0083	Open
P7106	J43_46	J44_46	120.00	600.0	130.0	0.0496	Open
P7107	J43_47	J43_48	120.00	300.0	125.0	0.0463	Open
P7108	J43_47	J44_47	120.00	100.0	130.0	0.1169	Open
P7109	J43_48	J43_49	120.00	150.0	125.0	0.0121	Open
P7110	J43_48	J44_48	120.00	250.0	135.0	0.1291	Open
P7111	J43_49	J43_50	120.00	250.0	130.0	0.0259	Open
P7112	J43_49	J44_49	120.00	200.0	135.0	0.0703	Open
P7113	J43_50	J43_51	120.00	250.0	140.0	0.1073	Open
P7114	J43_50	J44_50	120.00	100.0	125.0	0.0505	Open
P7115	J43_51	J43_52	120.00	300.0	135.0	0.0228	Open
P7116	J43_51	J44_51	120.00	100.0	140.0	0.0393	Open
P7117	J43_52	J43_53	120.00	250.0	125.0	0.1393	Open
P7118	J43_52	J44_52	120.00	100.0	135.0	0.0139	Open
P7119	J43_53	J43_54	120.00	200.0	135.0	0.0139	Open
P7120	J43_53	J44_53	120.00	250.0	135.0	0.0700	Open
P7121	J43_54	J43_55	120.00	200.0	125.0	0.0564	Open
P7122	J43_54	J44_54	120.00	250.0	140.0	0.0702	Open
P7123	J43_55	J43_56	120.00	400.0	120.0	0.0327	Open
P7124	J43_55	J44_55	120.00	300.0	120.0	0.0108	Open
P7125	J43_56	J43_57	120.00	250.0	135.0	0.1384	Open
P7126	J43_56	J44_56	120.00	100.0	140.0	0.1001	Open
P7127	J43_57	J43_58	120.00	100.0	135.0	0.0068	Open
P7128	J43_57	J44_57	120.00	100.0	135.0	0.0549	Open
P7129	J43_58	J43_59	120.00	250.0	130.0	0.1479	Open
P7130	J43_58	J44_58	120.00	100.0	130.0	0.0089	Open
P7131	J43_59	J43_60	120.00	100.0	135.0	0.1343	Open
P7132	J43_59	J44_59	120.00	300.0	135.0	0.1186	Open
P7133	J43_60	J43_61	120.00	300.0	135.0	0.1389	Open
P7134	J43_60	J44_60	120.00	300.0	130.0	0.1237	Open
P7135	J43_61	J43_62	120.00	300.0	135.0	0.1028	Open
P7136	J43_61	J44_61	120.00	150.0	125.0	0.0709	Open
P7137	J43_62	J43_63	120.00	150.0	125.0	0.0344	Open
P7138	J43_62	J44_62	120.00	250.0	130.0	0.1287	Open
P7139	J43_63	J43_64	120.00	150.0	140.0	0.0136	Open
P7140	J43_63	J44_63	120.00	300.0	140.0	0.0501	Open
P7141	J43_64	J43_65	120.00	300.0	125.0	0.0222	Open
P7142	J43_64	J44_64	120.00	400.0	130.0	0.0165	Open
P7143	J43_65	J43_66	120.00	100.0	135.0	0.0441	Open
P7144	J43_65	J44_65	120.00	100.0	135.0	0.0287	Open
P7145	J43_66	J43_67	120.00	100.0	130.0	0.0671	Open
P7146	J43_66	J44_66	120.00	300.0	130.0	0.1230	Open
P7147	J43_67	J43_68	120.00	150.0	125.0	0.0937	Open
P7148	J43_67	J44_67	120.00	150.0	135.0	0.0120	Open
P7149	J43_68	J43_69	120.00	150.0	130.0	0.0742	Open
P7150	J43_68	J44_68	120.00	100.0	130.0	0.0362	Open
P7151	J43_69	J43_70	120.00	100.0	135.0	0.1321	Open
P7152	J43_69	J44_69	120.00	100.0	135.0	0.0949	Open
P7153	J43_70	J43_71	120.00	200.0	130.0	0.0241	Open
P7154	J43_70	J44_70	120.00	250.0	130.0	0.1337	Open
P7155	J43_71	J43_72	120.00	100.0	125.0	0.0216	Open
P7156	J43_71	J44_71	120.00	300.0	135.0	0.0554	Open
P7157	J43_72	J43_73	120.00	250.0	140.0	0.1026	Open
P7158	J43_72	J44_72	120.00	300.0	130.0	0.0650	Open
P7159	J43_73	J43_74	120.00	500.0	120.0	0.0051	Open
P7160	J43_73	J44_73	120.00	300.0	120.0	0.0338	Open
P7161	J43_74	J43_75	120.00	250.0	130.0	0.1404	Open
P7162	J43_74	J44_74	120.00	150.0	125.0	0.0689	Open
P7163	J43_75	J43_76	120.00	150.0	130.0	0.0273	Open
P7164	J43_75	J44_75	120.00	200.0	130.0	0.0609	Open
P7165	J43_76	J43_77	120.00	150.0	135.0	0.0338	Open
P7166	J43_76	J44_76	120.00	300.0	130.0	0.1140	Open
P7167	J43_77	J43_78	120.00	200.0	125.0	0.0376	Open
P7168	J43_77	J44_77	120.00	150.0	130.0	0.0966	Open
P7169	J43_78	J43_79	120.00	250.0	135.0	0.0991	Open
P7170	J43_78	J44_78	120.00	300.0	130.0	0.1273	Open
P7171	J43_79	J43_80	120.00	150.0	140.0	0.0883	Open
P7172	J43_79	J44_79	120.00	200.0	130.0	0.0670	Open
P7173	J43_80	J43_81	120.00	250.0	130.0	0.0116	Open
P7174	J43_80	J44_80	120.00	200.0	140.0	0.0950	Open
P7175	J43_81	J43_82	120.00	250.0	135.0	0.0844	Open
P7176	J43_81	J44_81	120.00	100.0	140.0	0.1221	Open
P7177	J43_82	J43_83	120.00	350.0	125.0	0.0041	Open
P7178	J43_82	J44_82	120.00	300.0	130.0	0.0456	Open
P7179	J43_83	J43_84	120.00	200.0	130.0	0.1035	Open
P7180	J43_83	J44_83	120.00	300.0	125.0	0.1177	Open
P7181	J43_84	J44_84	120.00	200.0	140.0	0.1024	Open
P7182	J44_1	J44_2	120.00	300.0	125.0	0.0226	Open
P7183	J44_1	J45_1	120.00	500.0	120.0	0.0274	Open
P7184	J44_2	J44_3	120.00	200.0	125.0	0.1399	Open
P7185	J44_2	J45_2	120.00	300.0	130.0	0.0381	Open
P7186	J44_3	J44_4	120.00	100.0	130.0	0.0883	Open
P7187	J44_3	J45_3	120.00	200.0	135.0	0.0300	Open
P7188	J44_4	J44_5	120.00	150.0	125.0	0.0009	Open
P7189	J44_4	J45_4	120.00	150.0	135.0	0.0142	Open
P7190	J44_5	J44_6	120.00	150.0	130.0	0.0098	Open
P7191	J44_5	J45_5	120.00	300.0	125.0	0.0400	Open
P7192	J44_6	J44_7	120.00	200.0	140.0	0.0975	Open
P7193	J44_6	J45_6	120.00	300.0	135.0	0.0864	Open
P7194	J44_7	J44_8	120.00	100.0	140.0	0.0059	Open
P7195	J44_7	J45_7	120.00	250.0	140.0	0.0992	Open
P7196	J44_8	J44_9	120.00	100.0	130.0	0.1422	Open
P7197	J44_8	J45_8	120.00	300.0	125.0	0.1301	Open
P7198	J44_9	J44_10	120.00	250.0	130.0	0.0999	Open
P7199	J44_9	J45_9	120.00	200.0	135.0	0.0725	Open
P7200	J44_10	J44_11	120.00	600.0	120.0	0.0023	Open
P7201	J44_10	J45_10	120.00	300.0	120.0	0.0151	Open
P7202	J44_11	J44_12	120.00	200.0	140.0	0.0858	Open
P7203	J44_11	J45_11	120.00	250.0	135.0	0.0667	Open
P7204	J44_12	J44_13	120.00	150.0	140.0	0.0149	Open
P7205	J44_12	J45_12	120.00	200.0	140.0	0.0417	Open
P7206	J44_13	J44_14	120.00	100.0	135.0	0.1060	Open
P7207	J44_13	J45_13	120.00	250.0	140.0	0.1185	Open
P7208	J44_14	J44_15	120.00	150.0	125.0	0.1028	Open
P7209	J44_14	J45_14	120.00	250.0	135.0	0.1462	Open
P7210	J44_15	J44_16	120.00	200.0	125.0	0.1387	Open
P7211	J44_15	J45_15	120.00	300.0	125.0	0.0946	Open
P7212	J44_16	J44_17	120.00	200.0	125.0	0.0639	Open
P7213	J44_16	J45_16	120.00	200.0	135.0	0.0079	Open
P7214	J44_17	J44_18	120.00	250.0	125.0	0.0035	Open
P7215	J44_17	J45_17	120.00	300.0	135.0	0.1093	Open
P7216	J44_18	J44_19	120.00	150.0	135.0	0.1272	Open
P7217	J44_18	J45_18	120.00	300.0	140.0	0.0982	Open
P7218	J44_19	J44_20	120.00	350.0	125.0	0.0233	Open
P7219	J44_19	J45_19	120.00	400.0	130.0	0.0198	Open
P7220	J44_20	J44_21	120.00	100.0	125.0	0.1408	Open
P7221	J44_20	J45_20	120.00	200.0	125.0	0.1139	Open
P7222	J44_21	J44_22	120.00	300.0	140.0	0.1287	Open
P7223	J44_21	J45_21	120.00	200.0	140.0	0.0366	Open
P7224	J44_22	J44_23	120.00	300.0	140.0	0.1029	Open
P7225	J44_22	J45_22	120.00	200.0	135.0	0.0754	Open
P7226	J44_23	J44_24	120.00	200.0	140.0	0.0043	Open
P7227	J44_23	J45_23	120.00	100.0	135.0	0.1384	Open
P7228	J44_24	J44_25	120.00	150.0	125.0	0.0981	Open
P7229	J44_24	J45_24	120.00	250.0	135.0	0.1363	Open
P7230	J44_25	J44_26	120.00	300.0	130.0	0.1114	Open
P7231	J44_25	J45_25	120.00	250.0	130.0	0.0761	Open
P7232	J44_26	J44_27	120.00	100.0	125.0	0.1078	Open
P7233	J44_26	J45_26	120.00	300.0	135.0	0.0590	Open
P7234	J44_27	J44_28	120.00	150.0	125.0	0.0522	Open
P7235	J44_27	J45_27	120.00	250.0	130.0	0.0109	Open
P7236	J44_28	J44_29	120.00	500.0	130.0	0.0393	Open
P7237	J44_28	J45_28	120.00	350.0	125.0	0.0121	Open
P7238	J44_29	J44_30	120.00	250.0	125.0	0.0187	Open
P7239	J44_29	J45_29	120.00	200.0	130.0	0.0399	Open
P7240	J44_30	J44_31	120.00	100.0	125.0	0.0435	Open
P7241	J44_30	J45_30	120.00	100.0	140.0	0.0729	Open
P7242	J44_31	J44_32	120.00	150.0	125.0	0.0132	Open
P7243	J44_31	J45_31	120.00	100.0	135.0	0.1130	Open
P7244	J44_32	J44_33	120.00	100.0	135.0	0.1330	Open
P7245	J44_32	J45_32	120.00	100.0	135.0	0.0688	Open
P7246	J44_33	J44_34	120.00	100.0	135.0	0.0535	Open
P7247	J44_33	J45_33	120.00	300.0	130.0	0.0982	Open
P7248	J44_34	J44_35	120.00	250.0	140.0	0.0865	Open
P7249	J44_34	J45_34	120.00	200.0	125.0	0.1170	Open
P7250	J44_35	J44_36	120.00	150.0	125.0	0.0274	Open
P7251	J44_35	J45_35	120.00	100.0	125.0	0.0678	Open
P7252	J44_36	J44_37	120.00	100.0	135.0	0.1257	Open
P7253	J44_36	J45_36	120.00	100.0	140.0	0.0391	Open
P7254	J44_37	J44_38	120.00	300.0	125.0	0.0297	Open
P7255	J44_37	J45_37	120.00	500.0	120.0	0.0146	Open
P7256	J44_38	J44_39	120.00	300.0	135.0	0.0281	Open
P7257	J44_38	J45_38	120.00	100.0	135.0	0.0655	Open
P7258	J44_39	J44_40	120.00	250.0	125.0	0.0126	Open
P7259	J44_39	J45_39	120.00	300.0	140.0	0.0426	Open
P7260	J44_40	J44_41	120.00	150.0	125.0	0.0252	Open
P7261	J44_40	J45_40	120.00	100.0	140.0	0.0775	Open
P7262	J44_41	J44_42	120.00	300.0	125.0	0.0252	Open
P7263	J44_41	J45_41	120.00	150.0	135.0	0.1414	Open
P7264	J44_42	J44_43	120.00	300.0	135.0	0.0608	Open
P7265	J44_42	J45_42	120.00	250.0	140.0	0.0369	Open
P7266	J44_43	J44_44	120.00	100.0	130.0	0.0224	Open
P7267	J44_43	J45_43	120.00	200.0	130.0	0.0706	Open
P7268	J44_44	J44_45	120.00	250.0	125.0	0.1301	Open
P7269	J44_44	J45_44	120.00	250.0	130.0	0.0665	Open
P7270	J44_45	J44_46	120.00	200.0	140.0	0.0553	Open
P7271	J44_45	J45_45	120.00	100.0	135.0	0.1227	Open
P7272	J44_46	J44_47	120.00	600.0	130.0	0.0174	Open
P7273	J44_46	J45_46	120.00	350.0	125.0	0.0314	Open
P7274	J44_47	J44_48	120.00	300.0	125.0	0.1063	Open
P7275	J44_47	J45_47	120.00	200.0	125.0	0.1397	Open
P7276	J44_48	J44_49	120.00	250.0	130.0	0.1150	Open
P7277	J44_48	J45_48	120.00	250.0	125.0	0.1131	Open
P7278	J44_49	J44_50	120.00	100.0	130.0	0.0320	Open
P7279	J44_49	J45_49	120.00	250.0	130.0	0.0198	Open
P7280	J44_50	J44_51	120.00	250.0	130.0	0.0966	Open
P7281	J44_50	J45_50	120.00	200.0	140.0	0.1174	Open
P7282	J44_51	J44_52	120.00	200.0	125.0	0.0134	Open
P7283	J44_51	J45_51	120.00	200.0	135.0	0.1297	Open
P7284	J44_52	J44_53	120.00	100.0	135.0	0.1246	Open
P7285	J44_52	J45_52	120.00	250.0	125.0	0.1374	Open
P7286	J44_53	J44_54	120.00	250.0	140.0	0.1138	Open
P7287	J44_53	J45_53	120.00	150.0	135.0	0.0763	Open
P7288	J44_54	J44_55	120.00	200.0	130.0	0.0729	Open
P7289	J44_54	J45_54	120.00	300.0	125.0	0.0836	Open
P7290	J44_55	J44_56	120.00	350.0	125.0	0.0444	Open
P7291	J44_55	J45_55	120.00	300.0	130.0	0.0086	Open
P7292	J44_56	J44_57	120.00	250.0	140.0	0.0489	Open
P7293	J44_56	J45_56	120.00	200.0	135.0	0.0605	Open
P7294	J44_57	J44_58	120.00	100.0	125.0	0.1443	Open
P7295	J44_57	J45_57	120.00	300.0	125.0	0.0719	Open
P7296	J44_58	J44_59	120.00	100.0	135.0	0.0612	Open
P7297	J44_58	J45_58	120.00	100.0	125.0	0.1265	Open
P7298	J44_59	J44_60	120.00	250.0	135.0	0.1250	Open
P7299	J44_59	J45_59	120.00	150.0	135.0	0.0327	Open
P7300	J44_60	J44_61	120.00	300.0	130.0	0.0163	Open
P7301	J44_60	J45_60	120.00	300.0	130.0	0.0365	Open
P7302	J44_61	J44_62	120.00	100.0	135.0	0.0949	Open
P7303	J44_61	J45_61	120.00	300.0	125.0	0.1311	Open
P7304	J44_62	J44_63	120.00	150.0	135.0	0.1016	Open
P7305	J44_62	J45_62	120.00	100.0	125.0	0.1481	Open
P7306	J44_63	J44_64	120.00	300.0	135.0	0.0575	Open
P7307	J44_63	J45_63	120.00	200.0	130.0	0.1371	Open
P7308	J44_64	J44_65	120.00	500.0	125.0	0.0112	Open
P7309	J44_64	J45_64	120.00	450.0	125.0	0.0033	Open
P7310	J44_65	J44_66	120.00	150.0	140.0	0.1493	Open
P7311	J44_65	J45_65	120.00	150.0	130.0	0.1117	Open
P7312	J44_66	J44_67	120.00	150.0	140.0	0.0563	Open
P7313	J44_66	J45_66	120.00	250.0	140.0	0.1185	Open
P7314	J44_67	J44_68	120.00	150.0	140.0	0.0327	Open
P7315	J44_67	J45_67	120.00	300.0	130.0	0.0877	Open
P7316	J44_68	J44_69	120.00	100.0	125.0	0.0749	Open
P7317	J44_68	J45_68	120.00	250.0	125.0	0.0308	Open
P7318	J44_69	J44_70	120.00	250.0	135.0	0.0619	Open
P7319	J44_69	J45_69	120.00	300.0	135.0	0.0996	Open
P7320	J44_70	J44_71	120.00	300.0	125.0	0.0681	Open
P7321	J44_70	J45_70	120.00	100.0	130.0	0.1392	Open
P7322	J44_71	J44_72	120.00	200.0	130.0	0.0090	Open
P7323	J44_71	J45_71	120.00	150.0	135.0	0.0887	Open
P7324	J44_72	J44_73	120.00	200.0	130.0	0.0068	Open
P7325	J44_72	J45_72	120.00	200.0	130.0	0.0625	Open
P7326	J44_73	J44_74	120.00	450.0	125.0	0.0246	Open
P7327	J44_73	J45_73	120.00	300.0	125.0	0.0092	Open
P7328	J44_74	J44_75	120.00	250.0	125.0	0.0593	Open
P7329	J44_74	J45_74	120.00	100.0	125.0	0.0598	Open
P7330	J44_75	J44_76	120.00	250.0	135.0	0.0803	Open
P7331	J44_75	J45_75	120.00	100.0	125.0	0.0461	Open
P7332	J44_76	J44_77	120.00	150.0	130.0	0.1436	Open
P7333	J44_76	J45_76	120.00	100.0	135.0	0.0137	Open
P7334	J44_77	J44_78	120.00	100.0	140.0	0.1082	Open
P7335	J44_77	J45_77	120.00	250.0	135.0	0.0814	Open
P7336	J44_78	J44_79	120.00	250.0	140.0	0.0606	Open
P7337	J44_78	J45_78	120.00	200.0	130.0	0.1092	Open
P7338	J44_79	J44_80	120.00	300.0	130.0	0.1272	Open
P7339	J44_79	J45_79	120.00	100.0	140.0	0.0443	Open
P7340	J44_80	J44_81	120.00	200.0	135.0	0.0553	Open
P7341	J44_80	J45_80	120.00	300.0	135.0	0.1440	Open
P7342	J44_81	J44_82	120.00	300.0	125.0	0.0875	Open
P7343	J44_81	J45_81	120.00	150.0	135.0	0.0225	Open
P7344	J44_82	J44_83	120.00	400.0	130.0	0.0277	Open
P7345	J44_82	J45_82	120.00	450.0	120.0	0.0150	Open
P7346	J44_83	J44_84	120.00	300.0	130.0	0.0791	Open
P7347	J44_83	J45_83	120.00	300.0	140.0	0.0306	Open
P7348	J44_84	J45_84	120.00	250.0	140.0	0.1460	Open
P7349	J45_1	J45_2	120.00	350.0	125.0	0.0321	Open
P7350	J45_1	J46_1	120.00	400.0	120.0	0.0233	Open
P7351	J45_2	J45_3	120.00	100.0	125.0	0.1120	Open
P7352	J45_2	J46_2	120.00	300.0	130.0	0.0508	Open
P7353	J45_3	J45_4	120.00	200.0	125.0	0.0712	Open
P7354	J45_3	J46_3	120.00	200.0	140.0	0.1440	Open
P7355	J45_4	J45_5	120.00	200.0	140.0	0.0979	Open
P7356	J45_4	J46_4	120.00	200.0	140.0	0.1038	Open
P7357	J45_5	J45_6	120.00	250.0	135.0	0.0409	Open
P7358	J45_5	J46_5	120.00	300.0	130.0	0.0832	Open
P7359	J45_6	J45_7	120.00	100.0	140.0	0.0644	Open
P7360	J45_6	J46_6	120.00	200.0	125.0	0.0127	Open
P7361	J45_7	J45_8	120.00	150.0	125.0	0.0474	Open
P7362	J45_7	J46_7	120.00	200.0	130.0	0.0037	Open
P7363	J45_8	J45_9	120.00	200.0	130.0	0.1099	Open
P7364	J45_8	J46_8	120.00	250.0	140.0	0.0537	Open
P7365	J45_9	J45_10	120.00	150.0	130.0	0.1109	Open
P7366	J45_9	J46_9	120.00	150.0	130.0	0.1259	Open
P7367	J45_10	J45_11	120.00	500.0	120.0	0.0170	Open
P7368	J45_10	J46_10	120.00	500.0	130.0	0.0046	Open
P7369	J45_11	J45_12	120.00	150.0	135.0	0.1287	Open
P7370	J45_11	J46_11	120.00	250.0	135.0	0.1099	Open
P7371	J45_12	J45_13	120.00	150.0	135.0	0.0158	Open
P7372	J45_12	J46_12	120.00	100.0	135.0	0.0273	Open
P7373	J45_13	J45_14	120.00	200.0	125.0	0.0791	Open
P7374	J45_13	J46_13	120.00	250.0	125.0	0.0931	Open
P7375	J45_14	J45_15	120.00	300.0	125.0	0.0879	Open
P7376	J45_14	J46_14	120.00	100.0	135.0	0.0959	Open
P7377	J45_15	J45_16	120.00	100.0	140.0	0.0144	Open
P7378	J45_15	J46_15	120.00	150.0	135.0	0.0779	Open
P7379	J45_16	J45_17	120.00	250.0	135.0	0.0435	Open
P7380	J45_16	J46_16	120.00	150.0	125.0	0.1370	Open
P7381	J45_17	J45_18	120.00	200.0	140.0	0.0260	Open
P7382	J45_17	J46_17	120.00	200.0	125.0	0.0934	Open
P7383	J45_18	J45_19	120.00	200.0	135.0	0.0219	Open
P7384	J45_18	J46_18	120.00	300.0	125.0	0.1005	Open
P7385	J45_19	J45_20	120.00	400.0	125.0	0.0152	Open
P7386	J45_19	J46_19	120.00	450.0	120.0	0.0179	Open
P7387	J45_20	J45_21	120.00	200.0	125.0	0.0185	Open
P7388	J45_20	J46_20	120.00	300.0	140.0	0.0075	Open
P7389	J45_21	J45_22	120.00	150.0	130.0	0.0758	Open
P7390	J45_21	J46_21	120.00	100.0	140.0	0.1275	Open
P7391	J45_22	J45_23	120.00	250.0	135.0	0.0829	Open
P7392	J45_22	J46_22	120.00	150.0	125.0	0.0619	Open
P7393	J45_23	J45_24	120.00	250.0	125.0	0.0013	Open
P7394	J45_23	J46_23	120.00	250.0	140.0	0.0193	Open
P7395	J45_24	J45_25	120.00	250.0	130.0	0.1090	Open
P7396	J45_24	J46_24	120.00	150.0	125.0	0.1117	Open
P7397	J45_25	J45_26	120.00	150.0	140.0	0.0795	Open
P7398	J45_25	J46_25	120.00	150.0	125.0	0.1359	Open
P7399	J45_26	J45_27	120.00	100.0	135.0	0.1252	Open
P7400	J45_26	J46_26	120.00	300.0	130.0	0.1103	Open
P7401	J45_27	J45_28	120.00	150.0	135.0	0.0460	Open
P7402	J45_27	J46_27	120.00	200.0	130.0	0.0737	Open
P7403	J45_28	J45_29	120.00	350.0	130.0	0.0004	Open
P7404	J45_28	J46_28	120.00	600.0	120.0	0.0051	Open
P7405	J45_29	J45_30	120.00	150.0	125.0	0.0854	Open
P7406	J45_29	J46_29	120.00	150.0	140.0	0.0014	Open
P7407	J45_30	J45_31	120.00	300.0	125.0	0.0143	Open
P7408	J45_30	J46_30	120.00	250.0	130.0	0.0533	Open
P7409	J45_31	J45_32	120.00	300.0	140.0	0.0606	Open
P7410	J45_31	J46_31	120.00	250.0	130.0	0.1003	Open
P7411	J45_32	J45_33	120.00	200.0	125.0	0.0070	Open
P7412	J45_32	J46_32	120.00	300.0	130.0	0.0423	Open
P7413	J45_33	J45_34	120.00	250.0	125.0	0.0103	Open
P7414	J45_33	J46_33	120.00	200.0	125.0	0.0044	Open
P7415	J45_34	J45_35	120.00	200.0	140.0	0.0964	Open
P7416	J45_34	J46_34	120.00	300.0	135.0	0.0206	Open
P7417	J45_35	J45_36	120.00	200.0	135.0	0.0587	Open
P7418	J45_35	J46_35	120.00	250.0	140.0	0.0529	Open
P7419	J45_36	J45_37	120.00	200.0	140.0	0.1021	Open
P7420	J45_36	J46_36	120.00	300.0	135.0	0.0608	Open
P7421	J45_37	J45_38	120.00	400.0	120.0	0.0432	Open
P7422	J45_37	J46_37	120.00	450.0	130.0	0.0147	Open
P7423	J45_38	J45_39	120.00	100.0	130.0	0.0913	Open
P7424	J45_38	J46_38	120.00	150.0	130.0	0.0942	Open
P7425	J45_39	J45_40	120.00	150.0	135.0	0.0555	Open
P7426	J45_39	J46_39	120.00	300.0	130.0	0.0152	Open
P7427	J45_40	J45_41	120.00	200.0	130.0	0.0967	Open
P7428	J45_40	J46_40	120.00	100.0	135.0	0.1001	Open
P7429	J45_41	J45_42	120.00	250.0	140.0	0.0949	Open
P7430	J45_41	J46_41	120.00	100.0	135.0	0.0802	Open
P7431	J45_42	J45_43	120.00	300.0	135.0	0.0038	Open
P7432	J45_42	J46_42	120.00	100.0	125.0	0.0111	Open
P7433	J45_43	J45_44	120.00	250.0	135.0	0.0336	Open
P7434	J45_43	J46_43	120.00	100.0	140.0	0.1405	Open
P7435	J45_44	J45_45	120.00	250.0	130.0	0.1287	Open
P7436	J45_44	J46_44	120.00	250.0	140.0	0.1271	Open
P7437	J45_45	J45_46	120.00	150.0	140.0	0.0086	Open
P7438	J45_45	J46_45	120.00	200.0	130.0	0.1186	Open
P7439	J45_46	J45_47	120.00	300.0	120.0	0.0003	Open
P7440	J45_46	J46_46	120.00	600.0	120.0	0.0212	Open
P7441	J45_47	J45_48	120.00	250.0	140.0	0.0166	Open
P7442	J45_47	J46_47	120.00	300.0	125.0	0.0168	Open
P7443	J45_48	J45_49	120.00	200.0	130.0	0.0768	Open
P7444	J45_48	J46_48	120.00	300.0	135.0	0.1357	Open
P7445	J45_49	J45_50	120.00	100.0	130.0	0.1345	Open
P7446	J45_49	J46_49	120.00	100.0	125.0	0.0031	Open
P7447	J45_50	J45_51	120.00	300.0	125.0	0.0704	Open
P7448	J45_50	J46_50	120.00	250.0	130.0	0.0762	Open
P7449	J45_51	J45_52	120.00	250.0	140.0	0.1224	Open
P7450	J45_51	J46_51	120.00	150.0	140.0	0.0347	Open
P7451	J45_52	J45_53	120.00	100.0	125.0	0.0458	Open
P7452	J45_52	J46_52	120.00	250.0	140.0	0.0529	Open
P7453	J45_53	J45_54	120.00	300.0	130.0	0.1179	Open
P7454	J45_53	J46_53	120.00	200.0	130.0	0.0312	Open
P7455	J45_54	J45_55	120.00	300.0	125.0	0.0044	Open
P7456	J45_54	J46_54	120.00	200.0	125.0	0.0473	Open
P7457	J45_55	J45_56	120.00	350.0	125.0	0.0052	Open
P7458	J45_55	J46_55	120.00	350.0	125.0	0.0031	Open
P7459	J45_56	J45_57	120.00	300.0	135.0	0.1075	Open
P7460	J45_56	J46_56	120.00	200.0	125.0	0.0106	Open
P7461	J45_57	J45_58	120.00	300.0	130.0	0.0479	Open
P7462	J45_57	J46_57	120.00	150.0	140.0	0.1489	Open
P7463	J45_58	J45_59	120.00	150.0	140.0	0.0109	Open
P7464	J45_58	J46_58	120.00	200.0	130.0	0.0519	Open
P7465	J45_59	J45_60	120.00	100.0	140.0	0.0928	Open
P7466	J45_59	J46_59	120.00	200.0	125.0	0.1380	Open
P7467	J45_60	J45_61	120.00	150.0	125.0	0.0396	Open
P7468	J45_60	J46_60	120.00	300.0	130.0	0.0368	Open
P7469	J45_61	J45_62	120.00	300.0	140.0	0.0034	Open
P7470	J45_61	J46_61	120.00	300.0	125.0	0.0349	Open
P7471	J45_62	J45_63	120.00	250.0	140.0	0.0697	Open
P7472	J45_62	J46_62	120.00	250.0	125.0	0.1280	Open
P7473	J45_63	J45_64	120.00	100.0	130.0	0.1018	Open
P7474	J45_63	J46_63	120.00	150.0	125.0	0.0977	Open
P7475	J45_64	J45_65	120.00	500.0	125.0	0.0391	Open
P7476	J45_64	J46_64	120.00	500.0	125.0	0.0019	Open
P7477	J45_65	J45_66	120.00	300.0	130.0	0.0889	Open
P7478	J45_65	J46_65	120.00	150.0	140.0	0.0228	Open
P7479	J45_66	J45_67	120.00	250.0	125.0	0.1177	Open
P7480	J45_66	J46_66	120.00	200.0	125.0	0.1419	Open
P7481	J45_67	J45_68	120.00	100.0	140.0	0.0022	Open
P7482	J45_67	J46_67	120.00	250.0	125.0	0.1462	Open
P7483	J45_68	J45_69	120.00	100.0	130.0	0.0970	Open
P7484	J45_68	J46_68	120.00	200.0	135.0	0.0636	Open
P7485	J45_69	J45_70	120.00	200.0	130.0	0.0410	Open
P7486	J45_69	J46_69	120.00	100.0	130.0	0.0514	Open
P7487	J45_70	J45_71	120.00	250.0	130.0	0.0310	Open
P7488	J45_70	J46_70	120.00	200.0	130.0	0.1307	Open
P7489	J45_71	J45_72	120.00	150.0	130.0	0.0167	Open
P7490	J45_71	J46_71	120.00	150.0	130.0	0.1207	Open
P7491	J45_72	J45_73	120.00	100.0	140.0	0.1310	Open
P7492	J45_72	J46_72	120.00	150.0	140.0	0.0501	Open
P7493	J45_73	J45_74	120.00	500.0	125.0	0.0003	Open
P7494	J45_73	J46_73	120.00	350.0	130.0	0.0431	Open
P7495	J45_74	J45_75	120.00	100.0	140.0	0.0035	Open
P7496	J45_74	J46_74	120.00	250.0	130.0	0.0795	Open
P7497	J45_75	J45_76	120.00	200.0	140.0	0.0813	Open
P7498	J45_75	J46_75	120.00	250.0	130.0	0.1392	Open
P7499	J45_76	J45_77	120.00	150.0	125.0	0.0773	Open
P7500	J45_76	J46_76	120.00	200.0	125.0	0.1287	Open
P7501	J45_77	J45_78	120.00	150.0	125.0	0.0255	Open
P7502	J45_77	J46_77	120.00	100.0	125.0	0.0577	Open
P7503	J45_78	J45_79	120.00	300.0	140.0	0.0835	Open
P7504	J45_78	J46_78	120.00	100.0	135.0	0.0261	Open
P7505	J45_79	J45_80	120.00	100.0	140.0	0.0911	Open
P7506	J45_79	J46_79	120.00	100.0	135.0	0.1062	Open
P7507	J45_80	J45_81	120.00	300.0	135.0	0.0277	Open
P7508	J45_80	J46_80	120.00	100.0	130.0	0.0068	Open
P7509	J45_81	J45_82	120.00	300.0	130.0	0.0756	Open
P7510	J45_81	J46_81	120.00	300.0	130.0	0.0631	Open
P7511	J45_82	J45_83	120.00	350.0	125.0	0.0291	Open
P7512	J45_82	J46_82	120.00	600.0	120.0	0.0108	Open
P7513	J45_83	J45_84	120.00	200.0	125.0	0.0818	Open
P7514	J45_83	J46_83	120.00	250.0	125.0	0.0563	Open
P7515	J45_84	J46_84	120.00	250.0	135.0	0.0833	Open
P7516	J46_1	J46_2	120.00	450.0	120.0	0.0134	Open
P7517	J46_1	J47_1	120.00	300.0	125.0	0.0069	Open
P7518	J46_2	J46_3	120.00	600.0	120.0	0.0231	Open
P7519	J46_2	J47_2	120.00	400.0	125.0	0.0446	Open
P7520	J46_3	J46_4	120.00	350.0	120.0	0.0497	Open
P7521	J46_3	J47_3	120.00	300.0	120.0	0.0081	Open
P7522	J46_4	J46_5	120.00	450.0	120.0	0.0437	Open
P7523	J46_4	J47_4	120.00	500.0	130.0	0.0073	Open
P7524	J46_5	J46_6	120.00	400.0	125.0	0.0477	Open
P7525	J46_5	J47_5	120.00	450.0	125.0	0.0314	Open
P7526	J46_6	J46_7	120.00	300.0	130.0	0.0249	Open
P7527	J46_6	J47_6	120.00	350.0	120.0	0.0129	Open
P7528	J46_7	J46_8	120.00	350.0	125.0	0.0348	Open
P7529	J46_7	J47_7	120.00	450.0	125.0	0.0145	Open
P7530	J46_8	J46_9	120.00	500.0	125.0	0.0488	Open
P7531	J46_8	J47_8	120.00	600.0	125.0	0.0354	Open
P7532	J46_9	J46_10	120.00	350.0	130.0	0.0066	Open
P7533	J46_9	J47_9	120.00	400.0	130.0	0.0239	Open
P7534	J46_10	J46_11	120.00	350.0	125.0	0.0173	Open
P7535	J46_10	J47_10	120.00	500.0	130.0	0.0405	Open
P7536	J46_11	J46_12	120.00	400.0	125.0	0.0307	Open
P7537	J46_11	J47_11	120.00	600.0	120.0	0.0387	Open
P7538	J46_12	J46_13	120.00	450.0	130.0	0.0114	Open
P7539	J46_12	J47_12	120.00	400.0	130.0	0.0168	Open
P7540	J46_13	J46_14	120.00	450.0	120.0	0.0493	Open
P7541	J46_13	J47_13	120.00	450.0	120.0	0.0163	Open
P7542	J46_14	J46_15	120.00	400.0	120.0	0.0035	Open
P7543	J46_14	J47_14	120.00	500.0	120.0	0.0285	Open
P7544	J46_15	J46_16	120.00	500.0	125.0	0.0358	Open
P7545	J46_15	J47_15	120.00	300.0	125.0	0.0201	Open
P7546	J46_16	J46_17	120.00	450.0	130.0	0.0287	Open
P7547	J46_16	J47_16	120.00	450.0	130.0	0.0160	Open
P7548	J46_17	J46_18	120.00	300.0	125.0	0.0097	Open
P7549	J46_17	J47_17	120.00	450.0	120.0	0.0263	Open
P7550	J46_18	J46_19	120.00	300.0	130.0	0.0136	Open
P7551	J46_18	J47_18	120.00	450.0	130.0	0.0314	Open
P7552	J46_19	J46_20	120.00	400.0	120.0	0.0434	Open
P7553	J46_19	J47_19	120.00	600.0	125.0	0.0453	Open
P7554	J46_20	J46_21	120.00	350.0	130.0	0.0085	Open
P7555	J46_20	J47_20	120.00	600.0	120.0	0.0062	Open
P7556	J46_21	J46_22	120.00	300.0	125.0	0.0075	Open
P7557	J46_21	J47_21	120.00	600.0	125.0	0.0405	Open
P7558	J46_22	J46_23	120.00	400.0	130.0	0.0065	Open
P7559	J46_22	J47_22	120.00	500.0	120.0	0.0487	Open
P7560	J46_23	J46_24	120.00	300.0	130.0	0.0003	Open
P7561	J46_23	J47_23	120.00	300.0	120.0	0.0390	Open
P7562	J46_24	J46_25	120.00	500.0	120.0	0.0323	Open
P7563	J46_24	J47_24	120.00	350.0	120.0	0.0017	Open
P7564	J46_25	J46_26	120.00	350.0	120.0	0.0449	Open
P7565	J46_25	J47_25	120.00	600.0	130.0	0.0463	Open
P7566	J46_26	J46_27	120.00	350.0	130.0	0.0005	Open
P7567	J46_26	J47_26	120.00	300.0	120.0	0.0308	Open
P7568	J46_27	J46_28	120.00	300.0	120.0	0.0428	Open
P7569	J46_27	J47_27	120.00	300.0	120.0	0.0458	Open
P7570	J46_28	J46_29	120.00	350.0	120.0	0.0343	Open
P7571	J46_28	J47_28	120.00	600.0	125.0	0.0170	Open
P7572	J46_29	J46_30	120.00	400.0	120.0	0.0336	Open
P7573	J46_29	J47_29	120.00	400.0	125.0	0.0277	Open
P7574	J46_30	J46_31	120.00	600.0	130.0	0.0451	Open
P7575	J46_30	J47_30	120.00	450.0	130.0	0.0062	Open
P7576	J46_31	J46_32	120.00	450.0	130.0	0.0052	Open
P7577	J46_31	J47_31	120.00	300.0	120.0	0.0300	Open
P7578	J46_32	J46_33	120.00	500.0	130.0	0.0305	Open
P7579	J46_32	J47_32	120.00	350.0	130.0	0.0109	Open
P7580	J46_33	J46_34	120.00	300.0	125.0	0.0347	Open
P7581	J46_33	J47_33	120.00	400.0	125.0	0.0314	Open
P7582	J46_34	J46_35	120.00	300.0	130.0	0.0412	Open
P7583	J46_34	J47_34	120.00	600.0	125.0	0.0032	Open
P7584	J46_35	J46_36	120.00	450.0	125.0	0.0335	Open
P7585	J46_35	J47_35	120.00	600.0	120.0	0.0240	Open
P7586	J46_36	J46_37	120.00	600.0	120.0	0.0166	Open
P7587	J46_36	J47_36	120.00	500.0	125.0	0.0089	Open
P7588	J46_37	J46_38	120.00	350.0	130.0	0.0228	Open
P7589	J46_37	J47_37	120.00	300.0	120.0	0.0105	Open
P7590	J46_38	J46_39	120.00	600.0	130.0	0.0319	Open
P7591	J46_38	J47_38	120.00	450.0	125.0	0.0275	Open
P7592	J46_39	J46_40	120.00	600.0	120.0	0.0330	Open
P7593	J46_39	J47_39	120.00	350.0	120.0	0.0379	Open
P7594	J46_40	J46_41	120.00	450.0	125.0	0.0027	Open
P7595	J46_40	J47_40	120.00	400.0	120.0	0.0194	Open
P7596	J46_41	J46_42	120.00	500.0	125.0	0.0173	Open
P7597	J46_41	J47_41	120.00	600.0	130.0	0.0029	Open
P7598	J46_42	J46_43	120.00	300.0	130.0	0.0175	Open
P7599	J46_42	J47_42	120.00	500.0	130.0	0.0120	Open
P7600	J46_43	J46_44	120.00	400.0	130.0	0.0309	Open
P7601	J46_43	J47_43	120.00	450.0	130.0	0.0205	Open
P7602	J46_44	J46_45	120.00	300.0	120.0	0.0049	Open
P7603	J46_44	J47_44	120.00	350.0	120.0	0.0280	Open
P7604	J46_45	J46_46	120.00	400.0	120.0	0.0242	Open
P7605	J46_45	J47_45	120.00	450.0	125.0	0.0423	Open
P7606	J46_46	J46_47	120.00	500.0	130.0	0.0218	Open
P7607	J46_46	J47_46	120.00	500.0	125.0	0.0116	Open
P7608	J46_47	J46_48	120.00	500.0	125.0	0.0448	Open
P7609	J46_47	J47_47	120.00	350.0	125.0	0.0010	Open
P7610	J46_48	J46_49	120.00	450.0	120.0	0.0398	Open
P7611	J46_48	J47_48	120.00	350.0	120.0	0.0480	Open
P7612	J46_49	J46_50	120.00	600.0	130.0	0.0359	Open
P7613	J46_49	J47_49	120.00	300.0	120.0	0.0145	Open
P7614	J46_50	J46_51	120.00	600.0	120.0	0.0001	Open
P7615	J46_50	J47_50	120.00	500.0	120.0	0.0131	Open
P7616	J46_51	J46_52	120.00	450.0	130.0	0.0483	Open
P7617	J46_51	J47_51	120.00	600.0	120.0	0.0433	Open
P7618	J46_52	J46_53	120.00	400.0	120.0	0.0341	Open
P7619	J46_52	J47_52	120.00	300.0	120.0	0.0207	Open
P7620	J46_53	J46_54	120.00	450.0	125.0	0.0100	Open
P7621	J46_53	J47_53	120.00	350.0	120.0	0.0198	Open
P7622	J46_54	J46_55	120.00	300.0	125.0	0.0405	Open
P7623	J46_54	J47_54	120.00	600.0	125.0	0.0008	Open
P7624	J46_55	J46_56	120.00	600.0	130.0	0.0357	Open
P7625	J46_55	J47_55	120.00	600.0	120.0	0.0454	Open
P7626	J46_56	J46_57	120.00	300.0	120.0	0.0136	Open
P7627	J46_56	J47_56	120.00	350.0	130.0	0.0132	Open
P7628	J46_57	J46_58	120.00	300.0	125.0	0.0120	Open
P7629	J46_57	J47_57	120.00	450.0	120.0	0.0358	Open
P7630	J46_58	J46_59	120.00	350.0	125.0	0.0192	Open
P7631	J46_58	J47_58	120.00	500.0	125.0	0.0210	Open
P7632	J46_59	J46_60	120.00	350.0	125.0	0.0481	Open
P7633	J46_59	J47_59	120.00	600.0	130.0	0.0404	Open
P7634	J46_60	J46_61	120.00	350.0	130.0	0.0050	Open
P7635	J46_60	J47_60	120.00	300.0	125.0	0.0107	Open
P7636	J46_61	J46_62	120.00	300.0	125.0	0.0367	Open
P7637	J46_61	J47_61	120.00	350.0	120.0	0.0490	Open
P7638	J46_62	J46_63	120.00	450.0	130.0	0.0192	Open
P7639	J46_62	J47_62	120.00	450.0	125.0	0.0075	Open
P7640	J46_63	J46_64	120.00	350.0	120.0	0.0047	Open
P7641	J46_63	J47_63	120.00	400.0	125.0	0.0004	Open
P7642	J46_64	J46_65	120.00	600.0	125.0	0.0066	Open
P7643	J46_64	J47_64	120.00	450.0	120.0	0.0248	Open
P7644	J46_65	J46_66	120.00	300.0	120.0	0.0325	Open
P7645	J46_65	J47_65	120.00	400.0	120.0	0.0244	Open
P7646	J46_66	J46_67	120.00	500.0	130.0	0.0055	Open
P7647	J46_66	J47_66	120.00	400.0	130.0	0.0008	Open
P7648	J46_67	J46_68	120.00	500.0	120.0	0.0394	Open
P7649	J46_67	J47_67	120.00	400.0	130.0	0.0406	Open
P7650	J46_68	J46_69	120.00	500.0	120.0	0.0352	Open
P7651	J46_68	J47_68	120.00	350.0	125.0	0.0451	Open
P7652	J46_69	J46_70	120.00	450.0	125.0	0.0047	Open
P7653	J46_69	J47_69	120.00	400.0	120.0	0.0244	Open
P7654	J46_70	J46_71	120.00	300.0	130.0	0.0421	Open
P7655	J46_70	J47_70	120.00	450.0	125.0	0.0424	Open
P7656	J46_71	J46_72	120.00	300.0	120.0	0.0156	Open
P7657	J46_71	J47_71	120.00	400.0	130.0	0.0220	Open
P7658	J46_72	J46_73	120.00	600.0	130.0	0.0275	Open
P7659	J46_72	J47_72	120.00	400.0	130.0	0.0352	Open
P7660	J46_73	J46_74	120.00	450.0	120.0	0.0232	Open
P7661	J46_73	J47_73	120.00	300.0	125.0	0.0489	Open
P7662	J46_74	J46_75	120.00	300.0	120.0	0.0413	Open
P7663	J46_74	J47_74	120.00	350.0	130.0	0.0191	Open
P7664	J46_75	J46_76	120.00	400.0	125.0	0.0311	Open
P7665	J46_75	J47_75	120.00	300.0	125.0	0.0126	Open
P7666	J46_76	J46_77	120.00	500.0	130.0	0.0473	Open
P7667	J46_76	J47_76	120.00	350.0	120.0	0.0252	Open
P7668	J46_77	J46_78	120.00	600.0	120.0	0.0075	Open
P7669	J46_77	J47_77	120.00	350.0	130.0	0.0420	Open
P7670	J46_78	J46_79	120.00	500.0	130.0	0.0073	Open
P7671	J46_78	J47_78	120.00	500.0	130.0	0.0142	Open
P7672	J46_79	J46_80	120.00	400.0	120.0	0.0168	Open
P7673	J46_79	J47_79	120.00	400.0	130.0	0.0009	Open
P7674	J46_80	J46_81	120.00	400.0	125.0	0.0347	Open
P7675	J46_80	J47_80	120.00	500.0	125.0	0.0375	Open
P7676	J46_81	J46_82	120.00	350.0	130.0	0.0223	Open
P7677	J46_81	J47_81	120.00	400.0	120.0	0.0336	Open
P7678	J46_82	J46_83	120.00	450.0	120.0	0.0357	Open
P7679	J46_82	J47_82	120.00	600.0	120.0	0.0273	Open
P7680	J46_83	J46_84	120.00	600.0	120.0	0.0080	Open
P7681	J46_83	J47_83	120.00	500.0	130.0	0.0060	Open
P7682	J46_84	J47_84	120.00	350.0	120.0	0.0044	Open
P7683	J47_1	J47_2	120.00	400.0	130.0	0.0112	Open
P7684	J47_1	J48_1	120.00	450.0	120.0	0.0430	Open
P7685	J47_2	J47_3	120.00	100.0	135.0	0.0391	Open
P7686	J47_2	J48_2	120.00	100.0	125.0	0.0921	Open
P7687	J47_3	J47_4	120.00	300.0	135.0	0.0745	Open
P7688	J47_3	J48_3	120.00	100.0	125.0	0.0510	Open
P7689	J47_4	J47_5	120.00	150.0	125.0	0.0872	Open
P7690	J47_4	J48_4	120.00	250.0	140.0	0.0287	Open
P7691	J47_5	J47_6	120.00	250.0	135.0	0.0341	Open
P7692	J47_5	J48_5	120.00	300.0	130.0	0.0785	Open
P7693	J47_6	J47_7	120.00	300.0	130.0	0.0196	Open
P7694	J47_6	J48_6	120.00	200.0	130.0	0.0379	Open
P7695	J47_7	J47_8	120.00	300.0	130.0	0.0428	Open
P7696	J47_7	J48_7	120.00	200.0	130.0	0.1294	Open
P7697	J47_8	J47_9	120.00	200.0	130.0	0.0906	Open
P7698	J47_8	J48_8	120.00	250.0	125.0	0.0051	Open
P7699	J47_9	J47_10	120.00	150.0	130.0	0.0118	Open
P7700	J47_9	J48_9	120.00	300.0	140.0	0.1105	Open
P7701	J47_10	J47_11	120.00	300.0	125.0	0.0465	Open
P7702	J47_10	J48_10	120.00	300.0	120.0	0.0022	Open
P7703	J47_11	J47_12	120.00	200.0	125.0	0.0187	Open
P7704	J47_11	J48_11	120.00	150.0	135.0	0.0707	Open
P7705	J47_12	J47_13	120.00	300.0	130.0	0.1063	Open
P7706	J47_12	J48_12	120.00	200.0	130.0	0.1181	Open
P7707	J47_13	J47_14	120.00	100.0	125.0	0.1179	Open
P7708	J47_13	J48_13	120.00	100.0	140.0	0.0667	Open
P7709	J47_14	J47_15	120.00	300.0	140.0	0.1369	Open
P7710	J47_14	J48_14	120.00	250.0	140.0	0.0411	Open
P7711	J47_15	J47_16	120.00	150.0	140.0	0.1087	Open
P7712	J47_15	J48_15	120.00	100.0	140.0	0.1125	Open
P7713	J47_16	J47_17	120.00	150.0	130.0	0.0286	Open
P7714	J47_16	J48_16	120.00	300.0	130.0	0.0849	Open
P7715	J47_17	J47_18	120.00	250.0	135.0	0.0408	Open
P7716	J47_17	J48_17	120.00	200.0	125.0	0.0205	Open
P7717	J47_18	J47_19	120.00	300.0	130.0	0.1225	Open
P7718	J47_18	J48_18	120.00	200.0	140.0	0.1155	Open
P7719	J47_19	J47_20	120.00	600.0	130.0	0.0114	Open
P7720	J47_19	J48_19	120.00	500.0	120.0	0.0214	Open
P7721	J47_20	J47_21	120.00	300.0	135.0	0.1431	Open
P7722	J47_20	J48_20	120.00	200.0	130.0	0.0488	Open
P7723	J47_21	J47_22	120.00	250.0	130.0	0.1158	Open
P7724	J47_21	J48_21	120.00	250.0	130.0	0.1404	Open
P7725	J47_22	J47_23	120.00	250.0	140.0	0.0954	Open
P7726	J47_22	J48_22	120.00	300.0	140.0	0.1399	Open
P7727	J47_23	J47_24	120.00	250.0	140.0	0.0553	Open
P7728	J47_23	J48_23	120.00	250.0	125.0	0.0145	Open
P7729	J47_24	J47_25	120.00	200.0	125.0	0.0986	Open
P7730	J47_24	J48_24	120.00	200.0	130.0	0.1275	Open
P7731	J47_25	J47_26	120.00	250.0	135.0	0.0321	Open
P7732	J47_25	J48_25	120.00	100.0	135.0	0.0003	Open
P7733	J47_26	J47_27	120.00	250.0	135.0	0.0885	Open
P7734	J47_26	J48_26	120.00	300.0	125.0	0.0729	Open
P7735	J47_27	J47_28	120.00	300.0	135.0	0.1384	Open
P7736	J47_27	J48_27	120.00	200.0	140.0	0.1272	Open
P7737	J47_28	J47_29	120.00	350.0	120.0	0.0454	Open
P7738	J47_28	J48_28	120.00	600.0	130.0	0.0475	Open
P7739	J47_29	J47_30	120.00	100.0	130.0	0.0830	Open
P7740	J47_29	J48_29	120.00	100.0	125.0	0.0151	Open
P7741	J47_30	J47_31	120.00	100.0	130.0	0.0185	Open
P7742	J47_30	J48_30	120.00	150.0	125.0	0.0709	Open
P7743	J47_31	J47_32	120.00	100.0	135.0	0.0660	Open
P7744	J47_31	J48_31	120.00	150.0	125.0	0.0639	Open
P7745	J47_32	J47_33	120.00	300.0	130.0	0.1471	Open
P7746	J47_32	J48_32	120.00	250.0	130.0	0.0771	Open
P7747	J47_33	J47_34	120.00	300.0	140.0	0.0554	Open
P7748	J47_33	J48_33	120.00	250.0	125.0	0.0476	Open
P7749	J47_34	J47_35	120.00	250.0	130.0	0.1229	Open
P7750	J47_34	J48_34	120.00	250.0	140.0	0.0434	Open
P7751	J47_35	J47_36	120.00	200.0	130.0	0.0243	Open
P7752	J47_35	J48_35	120.00	200.0	135.0	0.0575	Open
P7753	J47_36	J47_37	120.00	150.0	135.0	0.0168	Open
P7754	J47_36	J48_36	120.00	150.0	125.0	0.0293	Open
P7755	J47_37	J47_38	120.00	500.0	125.0	0.0452	Open
P7756	J47_37	J48_37	120.00	300.0	130.0	0.0060	Open
P7757	J47_38	J47_39	120.00	100.0	125.0	0.1225	Open
P7758	J47_38	J48_38	120.00	150.0	130.0	0.1001	Open
P7759	J47_39	J47_40	120.00	200.0	130.0	0.0052	Open
P7760	J47_39	J48_39	120.00	150.0	125.0	0.0804	Open
P7761	J47_40	J47_41	120.00	150.0	140.0	0.0780	Open
P7762	J47_40	J48_40	120.00	100.0	135.0	0.0520	Open
P7763	J47_41	J47_42	120.00	200.0	130.0	0.0820	Open
P7764	J47_41	J48_41	120.00	200.0	125.0	0.0874	Open
P7765	J47_42	J47_43	120.00	200.0	130.0	0.1462	Open
P7766	J47_42	J48_42	120.00	150.0	135.0	0.1195	Open
P7767	J47_43	J47_44	120.00	100.0	140.0	0.0037	Open
P7768	J47_43	J48_43	120.00	150.0	130.0	0.0740	Open
P7769	J47_44	J47_45	120.00	200.0	125.0	0.0012	Open
P7770	J47_44	J48_44	120.00	150.0	130.0	0.1447	Open
P7771	J47_45	J47_46	120.00	150.0	135.0	0.0464	Open
P7772	J47_45	J48_45	120.00	300.0	125.0	0.1106	Open
P7773	J47_46	J47_47	120.00	450.0	120.0	0.0214	Open
P7774	J47_46	J48_46	120.00	400.0	130.0	0.0480	Open
P7775	J47_47	J47_48	120.00	300.0	135.0	0.0981	Open
P7776	J47_47	J48_47	120.00	150.0	125.0	0.0220	Open
P7777	J47_48	J47_49	120.00	200.0	125.0	0.1366	Open
P7778	J47_48	J48_48	120.00	250.0	140.0	0.0101	Open
P7779	J47_49	J47_50	120.00	150.0	140.0	0.0563	Open
P7780	J47_49	J48_49	120.00	200.0	130.0	0.0663	Open
P7781	J47_50	J47_51	120.00	300.0	135.0	0.1246	Open
P7782	J47_50	J48_50	120.00	200.0	140.0	0.0228	Open
P7783	J47_51	J47_52	120.00	300.0	140.0	0.1000	Open
P7784	J47_51	J48_51	120.00	100.0	125.0	0.0995	Open
P7785	J47_52	J47_53	120.00	200.0	130.0	0.0939	Open
P7786	J47_52	J48_52	120.00	150.0	140.0	0.0536	Open
P7787	J47_53	J47_54	120.00	100.0	125.0	0.0799	Open
P7788	J47_53	J48_53	120.00	250.0	125.0	0.0979	Open
P7789	J47_54	J47_55	120.00	250.0	125.0	0.0044	Open
P7790	J47_54	J48_54	120.00	100.0	130.0	0.1498	Open
P7791	J47_55	J47_56	120.00	350.0	130.0	0.0314	Open
P7792	J47_55	J48_55	120.00	350.0	120.0	0.0389	Open
P7793	J47_56	J47_57	120.00	200.0	130.0	0.1388	Open
P7794	J47_56	J48_56	120.00	300.0	130.0	0.0784	Open
P7795	J47_57	J47_58	120.00	300.0	125.0	0.0332	Open
P7796	J47_57	J48_57	120.00	200.0	125.0	0.0087	Open
P7797	J47_58	J47_59	120.00	250.0	125.0	0.0254	Open
P7798	J47_58	J48_58	120.00	100.0	125.0	0.0787	Open
P7799	J47_59	J47_60	120.00	250.0	140.0	0.1476	Open
P7800	J47_59	J48_59	120.00	200.0	140.0	0.0866	Open
P7801	J47_60	J47_61	120.00	250.0	125.0	0.0272	Open
P7802	J47_60	J48_60	120.00	200.0	130.0	0.0144	Open
P7803	J47_61	J47_62	120.00	100.0	130.0	0.0109	Open
P7804	J47_61	J48_61	120.00	300.0	140.0	0.1012	Open
P7805	J47_62	J47_63	120.00	150.0	140.0	0.0501	Open
P7806	J47_62	J48_62	120.00	100.0	140.0	0.1011	Open
P7807	J47_63	J47_64	120.00	250.0	125.0	0.0203	Open
P7808	J47_63	J48_63	120.00	100.0	135.0	0.0597	Open
P7809	J47_64	J47_65	120.00	300.0	130.0	0.0150	Open
P7810	J47_64	J48_64	120.00	300.0	130.0	0.0092	Open
P7811	J47_65	J47_66	120.00	250.0	135.0	0.0571	Open
P7812	J47_65	J48_65	120.00	150.0	140.0	0.0026	Open
P7813	J47_66	J47_67	120.00	200.0	140.0	0.0804	Open
P7814	J47_66	J48_66	120.00	150.0	130.0	0.0722	Open
P7815	J47_67	J47_68	120.00	250.0	130.0	0.0571	Open
P7816	J47_67	J48_67	120.00	200.0	130.0	0.0527	Open
P7817	J47_68	J47_69	120.00	100.0	135.0	0.1126	Open
P7818	J47_68	J48_68	120.00	150.0	135.0	0.0509	Open
P7819	J47_69	J47_70	120.00	200.0	130.0	0.0512	Open
P7820	J47_69	J48_69	120.00	150.0	135.0	0.1256	Open
P7821	J47_70	J47_71	120.00	250.0	140.0	0.0921	Open
P7822	J47_70	J48_70	120.00	250.0	130.0	0.0646	Open
P7823	J47_71	J47_72	120.00	100.0	140.0	0.1166	Open
P7824	J47_71	J48_71	120.00	200.0	130.0	0.1302	Open
P7825	J47_72	J47_73	120.00	250.0	140.0	0.0748	Open
P7826	J47_72	J48_72	120.00	300.0	135.0	0.0820	Open
P7827	J47_73	J47_74	120.00	300.0	125.0	0.0282	Open
P7828	J47_73	J48_73	120.00	500.0	120.0	0.0105	Open
P7829	J47_74	J47_75	120.00	200.0	125.0	0.0274	Open
P7830	J47_74	J48_74	120.00	250.0	135.0	0.0526	Open
P7831	J47_75	J47_76	120.00	300.0	135.0	0.0748	Open
P7832	J47_75	J48_75	120.00	150.0	140.0	0.0655	Open
P7833	J47_76	J47_77	120.00	100.0	140.0	0.0685	Open
P7834	J47_76	J48_76	120.00	200.0	125.0	0.1395	Open
P7835	J47_77	J47_78	120.00	100.0	135.0	0.0156	Open
P7836	J47_77	J48_77	120.00	200.0	140.0	0.1264	Open
P7837	J47_78	J47_79	120.00	100.0	140.0	0.0609	Open
P7838	J47_78	J48_78	120.00	100.0	125.0	0.0273	Open
P7839	J47_79	J47_80	120.00	200.0	140.0	0.0976	Open
P7840	J47_79	J48_79	120.00	150.0	135.0	0.1239	Open
P7841	J47_80	J47_81	120.00	300.0	135.0	0.1002	Open
P7842	J47_80	J48_80	120.00	150.0	130.0	0.1321	Open
P7843	J47_81	J47_82	120.00	150.0	135.0	0.1119	Open
P7844	J47_81	J48_81	120.00	100.0	130.0	0.1103	Open
P7845	J47_82	J47_83	120.00	400.0	130.0	0.0305	Open
P7846	J47_82	J48_82	120.00	450.0	120.0	0.0278	Open
P7847	J47_83	J47_84	120.00	150.0	135.0	0.1311	Open
P7848	J47_83	J48_83	120.00	150.0	130.0	0.0020	Open
P7849	J47_84	J48_84	120.00	150.0	125.0	0.0649	Open
P7850	J48_1	J48_2	120.00	400.0	125.0	0.0342	Open
P7851	J48_1	J49_1	120.00	350.0	125.0	0.0120	Open
P7852	J48_2	J48_3	120.00	150.0	140.0	0.0977	Open
P7853	J48_2	J49_2	120.00	100.0	135.0	0.0460	Open
P7854	J48_3	J48_4	120.00	150.0	130.0	0.0132	Open
P7855	J48_3	J49_3	120.00	150.0	130.0	0.1028	Open
P7856	J48_4	J48_5	120.00	300.0	140.0	0.1026	Open
P7857	J48_4	J49_4	120.00	200.0	130.0	0.0175	Open
P7858	J48_5	J48_6	120.00	250.0	125.0	0.0701	Open
P7859	J48_5	J49_5	120.00	100.0	135.0	0.0505	Open
P7860	J48_6	J48_7	120.00	100.0	125.0	0.0701	Open
P7861	J48_6	J49_6	120.00	100.0	130.0	0.1418	Open
P7862	J48_7	J48_8	120.00	250.0	125.0	0.1129	Open
P7863	J48_7	J49_7	120.00	150.0	130.0	0.1452	Open
P7864	J48_8	J48_9	120.00	200.0	130.0	0.0428	Open
P7865	J48_8	J49_8	120.00	150.0	140.0	0.0803	Open
P7866	J48_9	J48_10	120.00	200.0	125.0	0.0675	Open
P7867	J48_9	J49_9	120.00	250.0	140.0	0.0806	Open
P7868	J48_10	J48_11	120.00	400.0	130.0	0.0426	Open
P7869	J48_10	J49_10	120.00	500.0	125.0	0.0036	Open
P7870	J48_11	J48_12	120.00	200.0	125.0	0.0767	Open
P7871	J48_11	J49_11	120.00	250.0	140.0	0.0176	Open
P7872	J48_12	J48_13	120.00	150.0	140.0	0.0465	Open
P7873	J48_12	J49_12	120.00	100.0	140.0	0.0702	Open
P7874	J48_13	J48_14	120.00	200.0	125.0	0.0322	Open
P7875	J48_13	J49_13	120.00	150.0	125.0	0.1498	Open
P7876	J48_14	J48_15	120.00	100.0	140.0	0.0339	Open
P7877	J48_14	J49_14	120.00	200.0	140.0	0.0892	Open
P7878	J48_15	J48_16	120.00	100.0	130.0	0.1462	Open
P7879	J48_15	J49_15	120.00	200.0	130.0	0.0032	Open
P7880	J48_16	J48_17	120.00	300.0	140.0	0.0949	Open
P7881	J48_16	J49_16	120.00	250.0	140.0	0.1067	Open
P7882	J48_17	J48_18	120.00	150.0	125.0	0.0966	Open
P7883	J48_17	J49_17	120.00	200.0	135.0	0.0683	Open
P7884	J48_18	J48_19	120.00	150.0	135.0	0.0104	Open
P7885	J48_18	J49_18	120.00	100.0	135.0	0.0573	Open
P7886	J48_19	J48_20	120.00	300.0	120.0	0.0105	Open
P7887	J48_19	J49_19	120.00	450.0	130.0	0.0456	Open
P7888	J48_20	J48_21	120.00	250.0	135.0	0.0766	Open
P7889	J48_20	J49_20	120.00	200.0	125.0	0.0802	Open
P7890	J48_21	J48_22	120.00	250.0	135.0	0.0505	Open
P7891	J48_21	J49_21	120.00	300.0	130.0	0.0154	Open
P7892	J48_22	J48_23	120.00	100.0	130.0	0.1149	Open
P7893	J48_22	J49_22	120.00	100.0	140.0	0.1415	Open
P7894	J48_23	J48_24	120.00	200.0	125.0	0.0865	Open
P7895	J48_23	J49_23	120.00	100.0	125.0	0.0363	Open
P7896	J48_24	J48_25	120.00	200.0	140.0	0.0971	Open
P7897	J48_24	J49_24	120.00	200.0	125.0	0.1202	Open
P7898	J48_25	J48_26	120.00	100.0	135.0	0.1060	Open
P7899	J48_25	J49_25	120.00	100.0	130.0	0.0719	Open
P7900	J48_26	J48_27	120.00	250.0	130.0	0.0862	Open
P7901	J48_26	J49_26	120.00	250.0	125.0	0.0693	Open
P7902	J48_27	J48_28	120.00	300.0	135.0	0.1135	Open
P7903	J48_27	J49_27	120.00	250.0	130.0	0.0291	Open
P7904	J48_28	J48_29	120.00	300.0	130.0	0.0369	Open
P7905	J48_28	J49_28	120.00	450.0	130.0	0.0121	Open
P7906	J48_29	J48_30	120.00	100.0	130.0	0.0035	Open
P7907	J48_29	J49_29	120.00	250.0	125.0	0.0927	Open
P7908	J48_30	J48_31	120.00	300.0	125.0	0.1020	Open
P7909	J48_30	J49_30	120.00	250.0	130.0	0.1069	Open
P7910	J48_31	J48_32	120.00	300.0	125.0	0.0590	Open
P7911	J48_31	J49_31	120.00	250.0	130.0	0.0471	Open
P7912	J48_32	J48_33	120.00	100.0	125.0	0.1430	Open
P7913	J48_32	J49_32	120.00	250.0	140.0	0.0425	Open
P7914	J48_33	J48_34	120.00	300.0	140.0	0.0299	Open
P7915	J48_33	J49_33	120.00	200.0	125.0	0.0598	Open
P7916	J48_34	J48_35	120.00	300.0	135.0	0.1303	Open
P7917	J48_34	J49_34	120.00	150.0	130.0	0.0288	Open
P7918	J48_35	J48_36	120.00	200.0	135.0	0.0389	Open
P7919	J48_35	J49_35	120.00	200.0	130.0	0.1469	Open
P7920	J48_36	J48_37	120.00	300.0	125.0	0.0446	Open
P7921	J48_36	J49_36	120.00	200.0	135.0	0.0471	Open
P7922	J48_37	J48_38	120.00	300.0	125.0	0.0054	Open
P7923	J48_37	J49_37	120.00	350.0	130.0	0.0324	Open
P7924	J48_38	J48_39	120.00	250.0	125.0	0.1057	Open
P7925	J48_38	J49_38	120.00	100.0	125.0	0.0855	Open
P7926	J48_39	J48_40	120.00	200.0	140.0	0.0889	Open
P7927	J48_39	J49_39	120.00	150.0	140.0	0.1167	Open
P7928	J48_40	J48_41	120.00	200.0	130.0	0.0801	Open
P7929	J48_40	J49_40	120.00	250.0	125.0	0.0911	Open
P7930	J48_41	J48_42	120.00	300.0	140.0	0.0987	Open
P7931	J48_41	J49_41	120.00	250.0	135.0	0.0301	Open
P7932	J48_42	J48_43	120.00	250.0	135.0	0.0945	Open
P7933	J48_42	J49_42	120.00	100.0	130.0	0.0706	Open
P7934	J48_43	J48_44	120.00	150.0	125.0	0.0262	Open
P7935	J48_43	J49_43	120.00	250.0	135.0	0.1057	Open
P7936	J48_44	J48_45	120.00	300.0	130.0	0.0923	Open
P7937	J48_44	J49_44	120.00	250.0	130.0	0.1405	Open
P7938	J48_45	J48_46	120.00	100.0	140.0	0.0957	Open
P7939	J48_45	J49_45	120.00	300.0	125.0	0.1208	Open
P7940	J48_46	J48_47	120.00	350.0	120.0	0.0468	Open
P7941	J48_46	J49_46	120.00	600.0	120.0	0.0100	Open
P7942	J48_47	J48_48	120.00	200.0	125.0	0.0728	Open
P7943	J48_47	J49_47	120.00	200.0	140.0	0.1148	Open
P7944	J48_48	J48_49	120.00	250.0	125.0	0.0203	Open
P7945	J48_48	J49_48	120.00	200.0	135.0	0.1280	Open
P7946	J48_49	J48_50	120.00	100.0	135.0	0.1140	Open
P7947	J48_49	J49_49	120.00	200.0	130.0	0.0932	Open
P7948	J48_50	J48_51	120.00	250.0	125.0	0.1416	Open
P7949	J48_50	J49_50	120.00	250.0	125.0	0.0898	Open
P7950	J48_51	J48_52	120.00	250.0	125.0	0.0882	Open
P7951	J48_51	J49_51	120.00	100.0	135.0	0.0364	Open
P7952	J48_52	J48_53	120.00	300.0	130.0	0.1086	Open
P7953	J48_52	J49_52	120.00	300.0	125.0	0.0320	Open
P7954	J48_53	J48_54	120.00	250.0	130.0	0.0328	Open
P7955	J48_53	J49_53	120.00	250.0	125.0	0.0153	Open
P7956	J48_54	J48_55	120.00	300.0	135.0	0.1232	Open
P7957	J48_54	J49_54	120.00	200.0	140.0	0.0174	Open
P7958	J48_55	J48_56	120.00	450.0	120.0	0.0165	Open
P7959	J48_55	J49_55	120.00	400.0	125.0	0.0112	Open
P7960	J48_56	J48_57	120.00	100.0	125.0	0.1120	Open
P7961	J48_56	J49_56	120.00	100.0	125.0	0.0400	Open
P7962	J48_57	J48_58	120.00	150.0	125.0	0.1216	Open
P7963	J48_57	J49_57	120.00	100.0	130.0	0.1032	Open
P7964	J48_58	J48_59	120.00	300.0	130.0	0.0488	Open
P7965	J48_58	J49_58	120.00	200.0	130.0	0.1493	Open
P7966	J48_59	J48_60	120.00	300.0	135.0	0.0770	Open
P7967	J48_59	J49_59	120.00	100.0	140.0	0.0038	Open
P7968	J48_60	J48_61	120.00	150.0	140.0	0.0251	Open
P7969	J48_60	J49_60	120.00	100.0	125.0	0.0084	Open
P7970	J48_61	J48_62	120.00	150.0	130.0	0.0371	Open
P7971	J48_61	J49_61	120.00	250.0	135.0	0.1321	Open
P7972	J48_62	J48_63	120.00	300.0	125.0	0.0920	Open
P7973	J48_62	J49_62	120.00	200.0	130.0	0.0506	Open
P7974	J48_63	J48_64	120.00	250.0	130.0	0.0036	Open
P7975	J48_63	J49_63	120.00	150.0	130.0	0.0248	Open
P7976	J48_64	J48_65	120.00	600.0	130.0	0.0412	Open
P7977	J48_64	J49_64	120.00	300.0	130.0	0.0388	Open
P7978	J48_65	J48_66	120.00	300.0	135.0	0.1119	Open
P7979	J48_65	J49_65	120.00	200.0	140.0	0.0221	Open
P7980	J48_66	J48_67	120.00	300.0	125.0	0.1141	Open
P7981	J48_66	J49_66	120.00	200.0	125.0	0.1031	Open
P7982	J48_67	J48_68	120.00	300.0	125.0	0.1296	Open
P7983	J48_67	J49_67	120.00	300.0	135.0	0.1019	Open
P7984	J48_68	J48_69	120.00	100.0	125.0	0.1330	Open
P7985	J48_68	J49_68	120.00	300.0	125.0	0.0810	Open
P7986	J48_69	J48_70	120.00	200.0	140.0	0.0111	Open
P7987	J48_69	J49_69	120.00	250.0	140.0	0.0899	Open
P7988	J48_70	J48_71	120.00	250.0	135.0	0.0833	Open
P7989	J48_70	J49_70	120.00	100.0	125.0	0.0133	Open
P7990	J48_71	J48_72	120.00	100.0	125.0	0.0347	Open
P7991	J48_71	J49_71	120.00	300.0	130.0	0.0005	Open
P7992	J48_72	J48_73	120.00	100.0	135.0	0.1346	Open
P7993	J48_72	J49_72	120.00	100.0	130.0	0.1128	Open
P7994	J48_73	J48_74	120.00	300.0	120.0	0.0043	Open
P7995	J48_73	J49_73	120.00	300.0	130.0	0.0005	Open
P7996	J48_74	J48_75	120.00	200.0	140.0	0.0716	Open
P7997	J48_74	J49_74	120.00	100.0	125.0	0.0826	Open
P7998	J48_75	J48_76	120.00	300.0	135.0	0.0318	Open
P7999	J48_75	J49_75	120.00	100.0	125.0	0.0393	Open
P8000	J48_76	J48_77	120.00	300.0	135.0	0.0016	Open
P8001	J48_76	J49_76	120.00	100.0	135.0	0.0464	Open
P8002	J48_77	J48_78	120.00	150.0	135.0	0.1300	Open
P8003	J48_77	J49_77	120.00	200.0	140.0	0.0452	Open
P8004	J48_78	J48_79	120.00	200.0	135.0	0.1016	Open
P8005	J48_78	J49_78	120.00	250.0	125.0	0.1084	Open
P8006	J48_79	J48_80	120.00	300.0	130.0	0.0106	Open
P8007	J48_79	J49_79	120.00	100.0	135.0	0.0271	Open
P8008	J48_80	J48_81	120.00	100.0	135.0	0.0705	Open
P8009	J48_80	J49_80	120.00	150.0	135.0	0.0266	Open
P8010	J48_81	J48_82	120.00	300.0	130.0	0.1014	Open
P8011	J48_81	J49_81	120.00	150.0	130.0	0.0324	Open
P8012	J48_82	J48_83	120.00	400.0	125.0	0.0048	Open
P8013	J48_82	J49_82	120.00	350.0	120.0	0.0168	Open
P8014	J48_83	J48_84	120.00	250.0	140.0	0.1236	Open
P8015	J48_83	J49_83	120.00	300.0	140.0	0.1393	Open
P8016	J48_84	J49_84	120.00	250.0	140.0	0.1357	Open
P8017	J49_1	J49_2	120.00	400.0	125.0	0.0270	Open
P8018	J49_1	J50_1	120.00	500.0	120.0	0.0079	Open
P8019	J49_2	J49_3	120.00	300.0	140.0	0.1064	Open
P8020	J49_2	J50_2	120.00	200.0	125.0	0.0990	Open
P8021	J49_3	J49_4	120.00	100.0	135.0	0.0070	Open
P8022	J49_3	J50_3	120.00	300.0	125.0	0.1007	Open
P8023	J49_4	J49_5	120.00	300.0	135.0	0.0692	Open
P8024	J49_4	J50_4	120.00	200.0	130.0	0.0951	Open
P8025	J49_5	J49_6	120.00	300.0	130.0	0.0617	Open
P8026	J49_5	J50_5	120.00	100.0	130.0	0.1019	Open
P8027	J49_6	J49_7	120.00	300.0	140.0	0.0753	Open
P8028	J49_6	J50_6	120.00	150.0	135.0	0.0378	Open
P8029	J49_7	J49_8	120.00	100.0	125.0	0.1430	Open
P8030	J49_7	J50_7	120.00	300.0	140.0	0.1021	Open
P8031	J49_8	J49_9	120.00	300.0	130.0	0.1115	Open
P8032	J49_8	J50_8	120.00	250.0	130.0	0.0637	Open
P8033	J49_9	J49_10	120.00	300.0	130.0	0.1038	Open
P8034	J49_9	J50_9	120.00	250.0	135.0	0.0881	Open
P8035	J49_10	J49_11	120.00	450.0	125.0	0.0113	Open
P8036	J49_10	J50_10	120.00	300.0	130.0	0.0343	Open
P8037	J49_11	J49_12	120.00	200.0	125.0	0.0173	Open
P8038	J49_11	J50_11	120.00	100.0	130.0	0.1414	Open
P8039	J49_12	J49_13	120.00	200.0	135.0	0.0397	Open
P8040	J49_12	J50_12	120.00	100.0	140.0	0.0955	Open
P8041	J49_13	J49_14	120.00	150.0	125.0	0.1401	Open
P8042	J49_13	J50_13	120.00	100.0	125.0	0.0730	Open
P8043	J49_14	J49_15	120.00	150.0	140.0	0.0249	Open
P8044	J49_14	J50_14	120.00	300.0	130.0	0.0786	Open
P8045	J49_15	J49_16	120.00	250.0	135.0	0.0245	Open
P8046	J49_15	J50_15	120.00	300.0	125.0	0.0656	Open
P8047	J49_16	J49_17	120.00	100.0	135.0	0.0494	Open
P8048	J49_16	J50_16	120.00	100.0	130.0	0.1419	Open
P8049	J49_17	J49_18	120.00	150.0	130.0	0.0628	Open
P8050	J49_17	J50_17	120.00	100.0	135.0	0.1125	Open
P8051	J49_18	J49_19	120.00	300.0	125.0	0.1172	Open
P8052	J49_18	J50_18	120.00	100.0	130.0	0.1124	Open
P8053	J49_19	J49_20	120.00	400.0	130.0	0.0228	Open
P8054	J49_19	J50_19	120.00	450.0	130.0	0.0243	Open
P8055	J49_20	J49_21	120.00	250.0	135.0	0.1325	Open
P8056	J49_20	J50_20	120.00	150.0	135.0	0.1430	Open
P8057	J49_21	J49_22	120.00	300.0	125.0	0.0108	Open
P8058	J49_21	J50_21	120.00	150.0	130.0	0.1230	Open
P8059	J49_22	J49_23	120.00	250.0	130.0	0.1108	Open
P8060	J49_22	J50_22	120.00	100.0	135.0	0.0641	Open
P8061	J49_23	J49_24	120.00	200.0	125.0	0.0780	Open
P8062	J49_23	J50_23	120.00	300.0	125.0	0.1436	Open
P8063	J49_24	J49_25	120.00	150.0	140.0	0.0456	Open
P8064	J49_24	J50_24	120.00	200.0	130.0	0.0530	Open
P8065	J49_25	J49_26	120.00	100.0	125.0	0.1189	Open
P8066	J49_25	J50_25	120.00	250.0	140.0	0.1327	Open
P8067	J49_26	J49_27	120.00	150.0	125.0	0.1283	Open
P8068	J49_26	J50_26	120.00	200.0	125.0	0.1033	Open
P8069	J49_27	J49_28	120.00	150.0	125.0	0.0985	Open
P8070	J49_27	J50_27	120.00	200.0	135.0	0.1135	Open
P8071	J49_28	J49_29	120.00	500.0	120.0	0.0131	Open
P8072	J49_28	J50_28	120.00	350.0	130.0	0.0313	Open
P8073	J49_29	J49_30	120.00	250.0	130.0	0.0856	Open
P8074	J49_29	J50_29	120.00	100.0	135.0	0.0542	Open
P8075	J49_30	J49_31	120.00	200.0	125.0	0.0730	Open
P8076	J49_30	J50_30	120.00	100.0	135.0	0.0141	Open
P8077	J49_31	J49_32	120.00	150.0	130.0	0.0364	Open
P8078	J49_31	J50_31	120.00	200.0	135.0	0.0141	Open
P8079	J49_32	J49_33	120.00	200.0	130.0	0.1222	Open
P8080	J49_32	J50_32	120.00	300.0	130.0	0.0507	Open
P8081	J49_33	J49_34	120.00	300.0	135.0	0.0871	Open
P8082	J49_33	J50_33	120.00	200.0	140.0	0.1012	Open
P8083	J49_34	J49_35	120.00	100.0	135.0	0.0162	Open
P8084	J49_34	J50_34	120.00	200.0	140.0	0.1164	Open
P8085	J49_35	J49_36	120.00	250.0	130.0	0.1388	Open
P8086	J49_35	J50_35	120.00	150.0	140.0	0.0161	Open
P8087	J49_36	J49_37	120.00	100.0	125.0	0.1111	Open
P8088	J49_36	J50_36	120.00	300.0	130.0	0.1392	Open
P8089	J49_37	J49_38	120.00	500.0	130.0	0.0346	Open
P8090	J49_37	J50_37	120.00	300.0	120.0	0.0212	Open
P8091	J49_38	J49_39	120.00	100.0	140.0	0.0091	Open
P8092	J49_38	J50_38	120.00	250.0	140.0	0.1039	Open
P8093	J49_39	J49_40	120.00	300.0	135.0	0.0089	Open
P8094	J49_39	J50_39	120.00	250.0	130.0	0.1215	Open
P8095	J49_40	J49_41	120.00	150.0	140.0	0.0786	Open
P8096	J49_40	J50_40	120.00	100.0	140.0	0.1449	Open
P8097	J49_41	J49_42	120.00	100.0	140.0	0.1399	Open
P8098	J49_41	J50_41	120.00	150.0	135.0	0.0153	Open
P8099	J49_42	J49_43	120.00	150.0	130.0	0.0821	Open
P8100	J49_42	J50_42	120.00	200.0	130.0	0.0684	Open
P8101	J49_43	J49_44	120.00	150.0	130.0	0.0239	Open
P8102	J49_43	J50_43	120.00	150.0	130.0	0.0944	Open
P8103	J49_44	J49_45	120.00	300.0	135.0	0.0218	Open
P8104	J49_44	J50_44	120.00	100.0	125.0	0.1076	Open
P8105	J49_45	J49_46	120.00	150.0	125.0	0.1116	Open
P8106	J49_45	J50_45	120.00	150.0	130.0	0.0625	Open
P8107	J49_46	J49_47	120.00	450.0	120.0	0.0321	Open
P8108	J49_46	J50_46	120.00	350.0	125.0	0.0316	Open
P8109	J49_47	J49_48	120.00	150.0	125.0	0.0979	Open
P8110	J49_47	J50_47	120.00	300.0	140.0	0.0591	Open
P8111	J49_48	J49_49	120.00	200.0	135.0	0.0784	Open
P8112	J49_48	J50_48	120.00	100.0	125.0	0.1163	Open
P8113	J49_49	J49_50	120.00	100.0	125.0	0.0059	Open
P8114	J49_49	J50_49	120.00	300.0	125.0	0.0904	Open
P8115	J49_50	J49_51	120.00	300.0	125.0	0.0072	Open
P8116	J49_50	J50_50	120.00	300.0	125.0	0.1313	Open
P8117	J49_51	J49_52	120.00	250.0	135.0	0.0389	Open
P8118	J49_51	J50_51	120.00	200.0	125.0	0.0506	Open
P8119	J49_52	J49_53	120.00	250.0	135.0	0.0699	Open
P8120	J49_52	J50_52	120.00	150.0	125.0	0.0769	Open
P8121	J49_53	J49_54	120.00	150.0	125.0	0.0333	Open
P8122	J49_53	J50_53	120.00	250.0	135.0	0.0529	Open
P8123	J49_54	J49_55	120.00	150.0	130.0	0.0362	Open
P8124	J49_54	J50_54	120.00	100.0	135.0	0.1466	Open
P8125	J49_55	J49_56	120.00	450.0	125.0	0.0486	Open
P8126	J49_55	J50_55	120.00	400.0	125.0	0.0493	Open
P8127	J49_56	J49_57	120.00	200.0	135.0	0.1086	Open
P8128	J49_56	J50_56	120.00	150.0	135.0	0.0183	Open
P8129	J49_57	J49_58	120.00	200.0	130.0	0.0131	Open
P8130	J49_57	J50_57	120.00	300.0	125.0	0.0520	Open
P8131	J49_58	J49_59	120.00	300.0	130.0	0.0839	Open
P8132	J49_58	J50_58	120.00	250.0	140.0	0.0136	Open
P8133	J49_59	J49_60	120.00	300.0	125.0	0.0579	Open
P8134	J49_59	J50_59	120.00	150.0	130.0	0.0225	Open
P8135	J49_60	J49_61	120.00	150.0	130.0	0.0602	Open
P8136	J49_60	J50_60	120.00	200.0	125.0	0.1210	Open
P8137	J49_61	J49_62	120.00	100.0	130.0	0.0035	Open
P8138	J49_61	J50_61	120.00	150.0	130.0	0.0993	Open
P8139	J49_62	J49_63	120.00	300.0	135.0	0.1335	Open
P8140	J49_62	J50_62	120.00	250.0	125.0	0.1426	Open
P8141	J49_63	J49_64	120.00	200.0	135.0	0.0171	Open
P8142	J49_63	J50_63	120.00	150.0	140.0	0.0078	Open
P8143	J49_64	J49_65	120.00	450.0	130.0	0.0370	Open
P8144	J49_64	J50_64	120.00	500.0	125.0	0.0160	Open
P8145	J49_65	J49_66	120.00	300.0	125.0	0.0907	Open
P8146	J49_65	J50_65	120.00	250.0	135.0	0.0335	Open
P8147	J49_66	J49_67	120.00	100.0	140.0	0.0357	Open
P8148	J49_66	J50_66	120.00	100.0	130.0	0.1244	Open
P8149	J49_67	J49_68	120.00	150.0	125.0	0.0725	Open
P8150	J49_67	J50_67	120.00	150.0	130.0	0.1147	Open
P8151	J49_68	J49_69	120.00	200.0	135.0	0.1151	Open
P8152	J49_68	J50_68	120.00	100.0	140.0	0.0081	Open
P8153	J49_69	J49_70	120.00	200.0	140.0	0.0826	Open
P8154	J49_69	J50_69	120.00	100.0	135.0	0.0383	Open
P8155	J49_70	J49_71	120.00	200.0	140.0	0.0881	Open
P8156	J49_70	J50_70	120.00	300.0	125.0	0.0044	Open
P8157	J49_71	J49_72	120.00	150.0	125.0	0.0986	Open
P8158	J49_71	J50_71	120.00	150.0	125.0	0.0051	Open
P8159	J49_72	J49_73	120.00	200.0	140.0	0.0547	Open
P8160	J49_72	J50_72	120.00	300.0	130.0	0.0728	Open
P8161	J49_73	J49_74	120.00	450.0	130.0	0.0392	Open
P8162	J49_73	J50_73	120.00	400.0	125.0	0.0418	Open
P8163	J49_74	J49_75	120.00	100.0	140.0	0.0719	Open
P8164	J49_74	J50_74	120.00	200.0	140.0	0.0562	Open
P8165	J49_75	J49_76	120.00	250.0	130.0	0.0745	Open
P8166	J49_75	J50_75	120.00	150.0	125.0	0.1053	Open
P8167	J49_76	J49_77	120.00	100.0	140.0	0.0959	Open
P8168	J49_76	J50_76	120.00	150.0	130.0	0.0851	Open
P8169	J49_77	J49_78	120.00	200.0	130.0	0.1332	Open
P8170	J49_77	J50_77	120.00	200.0	140.0	0.1349	Open
P8171	J49_78	J49_79	120.00	150.0	140.0	0.0242	Open
P8172	J49_78	J50_78	120.00	100.0	125.0	0.0572	Open
P8173	J49_79	J49_80	120.00	150.0	125.0	0.0923	Open
P8174	J49_79	J50_79	120.00	200.0	140.0	0.0927	Open
P8175	J49_80	J49_81	120.00	150.0	125.0	0.1350	Open
P8176	J49_80	J50_80	120.00	300.0	125.0	0.0864	Open
P8177	J49_81	J49_82	120.00	300.0	140.0	0.1302	Open
P8178	J49_81	J50_81	120.00	200.0	125.0	0.0053	Open
P8179	J49_82	J49_83	120.00	450.0	125.0	0.0079	Open
P8180	J49_82	J50_82	120.00	300.0	125.0	0.0336	Open
P8181	J49_83	J49_84	120.00	200.0	135.0	0.1282	Open
P8182	J49_83	J50_83	120.00	150.0	130.0	0.0907	Open
P8183	J49_84	J50_84	120.00	250.0	135.0	0.1358	Open
P8184	J50_1	J50_2	120.00	500.0	120.0	0.0143	Open
P8185	J50_1	J51_1	120.00	500.0	130.0	0.0160	Open
P8186	J50_2	J50_3	120.00	250.0	140.0	0.1298	Open
P8187	J50_2	J51_2	120.00	300.0	135.0	0.0958	Open
P8188	J50_3	J50_4	120.00	150.0	135.0	0.0853	Open
P8189	J50_3	J51_3	120.00	150.0	125.0	0.0581	Open
P8190	J50_4	J50_5	120.00	300.0	140.0	0.1359	Open
P8191	J50_4	J51_4	120.00	150.0	125.0	0.0588	Open
P8192	J50_5	J50_6	120.00	200.0	140.0	0.0318	Open
P8193	J50_5	J51_5	120.00	250.0	140.0	0.1332	Open
P8194	J50_6	J50_7	120.00	300.0	130.0	0.0624	Open
P8195	J50_6	J51_6	120.00	300.0	125.0	0.0136	Open
P8196	J50_7	J50_8	120.00	150.0	140.0	0.0049	Open
P8197	J50_7	J51_7	120.00	150.0	140.0	0.0354	Open
P8198	J50_8	J50_9	120.00	150.0	125.0	0.0297	Open
P8199	J50_8	J51_8	120.00	250.0	125.0	0.1311	Open
P8200	J50_9	J50_10	120.00	250.0	130.0	0.0891	Open
P8201	J50_9	J51_9	120.00	300.0	135.0	0.0899	Open
P8202	J50_10	J50_11	120.00	400.0	125.0	0.0277	Open
P8203	J50_10	J51_10	120.00	600.0	130.0	0.0298	Open
P8204	J50_11	J50_12	120.00	100.0	140.0	0.0799	Open
P8205	J50_11	J51_11	120.00	150.0	135.0	0.1340	Open
P8206	J50_12	J50_13	120.00	250.0	130.0	0.0150	Open
P8207	J50_12	J51_12	120.00	150.0	135.0	0.0956	Open
P8208	J50_13	J50_14	120.00	150.0	125.0	0.0736	Open
P8209	J50_13	J51_13	120.00	250.0	135.0	0.0608	Open
P8210	J50_14	J50_15	120.00	150.0	135.0	0.0468	Open
P8211	J50_14	J51_14	120.00	100.0	135.0	0.0536	Open
P8212	J50_15	J50_16	120.00	250.0	135.0	0.0266	Open
P8213	J50_15	J51_15	120.00	200.0	135.0	0.0731	Open
P8214	J50_16	J50_17	120.00	200.0	130.0	0.0902	Open
P8215	J50_16	J51_16	120.00	200.0	135.0	0.1038	Open
P8216	J50_17	J50_18	120.00	100.0	135.0	0.0447	Open
P8217	J50_17	J51_17	120.00	100.0	140.0	0.0789	Open
P8218	J50_18	J50_19	120.00	250.0	140.0	0.0587	Open
P8219	J50_18	J51_18	120.00	100.0	135.0	0.0531	Open
P8220	J50_19	J50_20	120.00	350.0	125.0	0.0190	Open
P8221	J50_19	J51_19	120.00	350.0	130.0	0.0245	Open
P8222	J50_20	J50_21	120.00	200.0	135.0	0.0296	Open
P8223	J50_20	J51_20	120.00	250.0	135.0	0.0700	Open
P8224	J50_21	J50_22	120.00	150.0	135.0	0.1190	Open
P8225	J50_21	J51_21	120.00	100.0	125.0	0.0448	Open
P8226	J50_22	J50_23	120.00	100.0	125.0	0.0212	Open
P8227	J50_22	J51_22	120.00	200.0	130.0	0.0617	Open
P8228	J50_23	J50_24	120.00	100.0	135.0	0.1289	Open
P8229	J50_23	J51_23	120.00	300.0	130.0	0.1392	Open
P8230	J50_24	J50_25	120.00	200.0	130.0	0.0119	Open
P8231	J50_24	J51_24	120.00	200.0	130.0	0.0458	Open
P8232	J50_25	J50_26	120.00	300.0	140.0	0.1176	Open
P8233	J50_25	J51_25	120.00	150.0	135.0	0.1034	Open
P8234	J50_26	J50_27	120.00	200.0	130.0	0.0771	Open
P8235	J50_26	J51_26	120.00	250.0	130.0	0.0377	Open
P8236	J50_27	J50_28	120.00	250.0	125.0	0.0713	Open
P8237	J50_27	J51_27	120.00	100.0	130.0	0.0191	Open
P8238	J50_28	J50_29	120.00	400.0	125.0	0.0406	Open
P8239	J50_28	J51_28	120.00	600.0	125.0	0.0324	Open
P8240	J50_29	J50_30	120.00	200.0	135.0	0.0398	Open
P8241	J50_29	J51_29	120.00	150.0	130.0	0.0280	Open
P8242	J50_30	J50_31	120.00	300.0	125.0	0.1216	Open
P8243	J50_30	J51_30	120.00	300.0	125.0	0.0417	Open
P8244	J50_31	J50_32	120.00	150.0	135.0	0.0574	Open
P8245	J50_31	J51_31	120.00	200.0	140.0	0.1286	Open
P8246	J50_32	J50_33	120.00	150.0	135.0	0.0903	Open
P8247	J50_32	J51_32	120.00	100.0	130.0	0.1152	Open
P8248	J50_33	J50_34	120.00	200.0	140.0	0.0104	Open
P8249	J50_33	J51_33	120.00	150.0	140.0	0.0878	Open
P8250	J50_34	J50_35	120.00	300.0	125.0	0.0185	Open
P8251	J50_34	J51_34	120.00	100.0	125.0	0.1213	Open
P8252	J50_35	J50_36	120.00	300.0	135.0	0.0016	Open
P8253	J50_35	J51_35	120.00	100.0	130.0	0.1216	Open
P8254	J50_36	J50_37	120.00	150.0	135.0	0.0031	Open
P8255	J50_36	J51_36	120.00	150.0	130.0	0.0539	Open
P8256	J50_37	J50_38	120.00	300.0	125.0	0.0222	Open
P8257	J50_37	J51_37	120.00	600.0	130.0	0.0364	Open
P8258	J50_38	J50_39	120.00	200.0	140.0	0.0798	Open
P8259	J50_38	J51_38	120.00	200.0	130.0	0.1205	Open
P8260	J50_39	J50_40	120.00	200.0	135.0	0.0439	Open
P8261	J50_39	J51_39	120.00	100.0	125.0	0.0711	Open
P8262	J50_40	J50_41	120.00	150.0	130.0	0.0754	Open
P8263	J50_40	J51_40	120.00	150.0	135.0	0.0190	Open
P8264	J50_41	J50_42	120.00	150.0	135.0	0.1186	Open
P8265	J50_41	J51_41	120.00	300.0	135.0	0.0895	Open
P8266	J50_42	J50_43	120.00	200.0	125.0	0.0287	Open
P8267	J50_42	J51_42	120.00	200.0	125.0	0.1273	Open
P8268	J50_43	J50_44	120.00	100.0	125.0	0.0209	Open
P8269	J50_43	J51_43	120.00	200.0	130.0	0.0496	Open
P8270	J50_44	J50_45	120.00	150.0	130.0	0.1382	Open
P8271	J50_44	J51_44	120.00	250.0	130.0	0.1213	Open
P8272	J50_45	J50_46	120.00	150.0	125.0	0.0639	Open
P8273	J50_45	J51_45	120.00	100.0	140.0	0.0445	Open
P8274	J50_46	J50_47	120.00	400.0	125.0	0.0155	Open
P8275	J50_46	J51_46	120.00	300.0	120.0	0.0454	Open
P8276	J50_47	J50_48	120.00	300.0	140.0	0.0672	Open
P8277	J50_47	J51_47	120.00	150.0	130.0	0.0692	Open
P8278	J50_48	J50_49	120.00	150.0	135.0	0.0762	Open
P8279	J50_48	J51_48	120.00	100.0	125.0	0.0706	Open
P8280	J50_49	J50_50	120.00	300.0	140.0	0.0119	Open
P8281	J50_49	J51_49	120.00	100.0	140.0	0.0267	Open
P8282	J50_50	J50_51	120.00	200.0	125.0	0.0490	Open
P8283	J50_50	J51_50	120.00	200.0	140.0	0.0164	Open
P8284	J50_51	J50_52	120.00	150.0	125.0	0.1130	Open
P8285	J50_51	J51_51	120.00	150.0	125.0	0.1334	Open
P8286	J50_52	J50_53	120.00	300.0	135.0	0.0023	Open
P8287	J50_52	J51_52	120.00	250.0	135.0	0.1053	Open
P8288	J50_53	J50_54	120.00	300.0	140.0	0.0785	Open
P8289	J50_53	J51_53	120.00	250.0	140.0	0.0463	Open
P8290	J50_54	J50_55	120.00	100.0	140.0	0.0087	Open
P8291	J50_54	J51_54	120.00	300.0	135.0	0.1275	Open
P8292	J50_55	J50_56	120.00	600.0	120.0	0.0048	Open
P8293	J50_55	J51_55	120.00	450.0	130.0	0.0134	Open
P8294	J50_56	J50_57	120.00	300.0	130.0	0.0423	Open
P8295	J50_56	J51_56	120.00	100.0	125.0	0.1117	Open
P8296	J50_57	J50_58	120.00	100.0	140.0	0.1059	Open
P8297	J50_57	J51_57	120.00	250.0	135.0	0.1298	Open
P8298	J50_58	J50_59	120.00	250.0	130.0	0.1080	Open
P8299	J50_58	J51_58	120.00	200.0	130.0	0.0421	Open
P8300	J50_59	J50_60	120.00	100.0	125.0	0.0702	Open
P8301	J50_59	J51_59	120.00	300.0	125.0	0.0371	Open
P8302	J50_60	J50_61	120.00	200.0	140.0	0.1300	Open
P8303	J50_60	J51_60	120.00	200.0	135.0	0.0151	Open
P8304	J50_61	J50_62	120.00	100.0	135.0	0.0775	Open
P8305	J50_61	J51_61	120.00	200.0	125.0	0.0874	Open
P8306	J50_62	J50_63	120.00	250.0	135.0	0.1388	Open
P8307	J50_62	J51_62	120.00	200.0	125.0	0.1267	Open
P8308	J50_63	J50_64	120.00	200.0	135.0	0.0177	Open
P8309	J50_63	J51_63	120.00	100.0	135.0	0.1079	Open
P8310	J50_64	J50_65	120.00	300.0	125.0	0.0037	Open
P8311	J50_64	J51_64	120.00	600.0	120.0	0.0445	Open
P8312	J50_65	J50_66	120.00	100.0	140.0	0.1301	Open
P8313	J50_65	J51_65	120.00	250.0	125.0	0.0472	Open
P8314	J50_66	J50_67	120.00	250.0	125.0	0.1301	Open
P8315	J50_66	J51_66	120.00	250.0	135.0	0.0708	Open
P8316	J50_67	J50_68	120.00	150.0	130.0	0.1083	Open
P8317	J50_67	J51_67	120.00	150.0	130.0	0.0917	Open
P8318	J50_68	J50_69	120.00	100.0	140.0	0.1040	Open
P8319	J50_68	J51_68	120.00	100.0	140.0	0.1246	Open
P8320	J50_69	J50_70	120.00	100.0	140.0	0.1281	Open
P8321	J50_69	J51_69	120.00	150.0	125.0	0.1278	Open
P8322	J50_70	J50_71	120.00	150.0	125.0	0.0499	Open
P8323	J50_70	J51_70	120.00	250.0	125.0	0.1212	Open
P8324	J50_71	J50_72	120.00	250.0	130.0	0.0328	Open
P8325	J50_71	J51_71	120.00	300.0	135.0	0.0991	Open
P8326	J50_72	J50_73	120.00	300.0	140.0	0.0985	Open
P8327	J50_72	J51_72	120.00	200.0	135.0	0.1327	Open
P8328	J50_73	J50_74	120.00	400.0	125.0	0.0106	Open
P8329	J50_73	J51_73	120.00	450.0	120.0	0.0398	Open
P8330	J50_74	J50_75	120.00	150.0	130.0	0.1087	Open
P8331	J50_74	J51_74	120.00	100.0	140.0	0.0714	Open
P8332	J50_75	J50_76	120.00	200.0	130.0	0.1476	Open
P8333	J50_75	J51_75	120.00	300.0	140.0	0.0438	Open
P8334	J50_76	J50_77	120.00	100.0	140.0	0.0220	Open
P8335	J50_76	J51_76	120.00	100.0	125.0	0.0953	Open
P8336	J50_77	J50_78	120.00	200.0	125.0	0.0547	Open
P8337	J50_77	J51_77	120.00	250.0	135.0	0.0781	Open
P8338	J50_78	J50_79	120.00	250.0	125.0	0.0203	Open
P8339	J50_78	J51_78	120.00	250.0	135.0	0.0804	Open
P8340	J50_79	J50_80	120.00	250.0	135.0	0.0303	Open
P8341	J50_79	J51_79	120.00	300.0	130.0	0.0877	Open
P8342	J50_80	J50_81	120.00	300.0	130.0	0.0271	Open
P8343	J50_80	J51_80	120.00	300.0	135.0	0.0862	Open
P8344	J50_81	J50_82	120.00	200.0	125.0	0.0522	Open
P8345	J50_81	J51_81	120.00	250.0	140.0	0.0158	Open
P8346	J50_82	J50_83	120.00	300.0	130.0	0.0479	Open
P8347	J50_82	J51_82	120.00	400.0	125.0	0.0063	Open
P8348	J50_83	J50_84	120.00	150.0	130.0	0.0551	Open
P8349	J50_83	J51_83	120.00	250.0	130.0	0.0960	Open
P8350	J50_84	J51_84	120.00	150.0	135.0	0.0805	Open
P8351	J51_1	J51_2	120.00	600.0	125.0	0.0403	Open
P8352	J51_1	J52_1	120.00	350.0	125.0	0.0437	Open
P8353	J51_2	J51_3	120.00	200.0	125.0	0.0283	Open
P8354	J51_2	J52_2	120.00	200.0	125.0	0.1454	Open
P8355	J51_3	J51_4	120.00	200.0	130.0	0.0037	Open
P8356	J51_3	J52_3	120.00	150.0	130.0	0.1313	Open
P8357	J51_4	J51_5	120.00	250.0	125.0	0.0652	Open
P8358	J51_4	J52_4	120.00	150.0	135.0	0.0832	Open
P8359	J51_5	J51_6	120.00	150.0	135.0	0.1363	Open
P8360	J51_5	J52_5	120.00	150.0	135.0	0.0556	Open
P8361	J51_6	J51_7	120.00	300.0	140.0	0.1270	Open
P8362	J51_6	J52_6	120.00	200.0	140.0	0.0468	Open
P8363	J51_7	J51_8	120.00	100.0	140.0	0.1366	Open
P8364	J51_7	J52_7	120.00	300.0	130.0	0.0736	Open
P8365	J51_8	J51_9	120.00	300.0	125.0	0.1496	Open
P8366	J51_8	J52_8	120.00	150.0	135.0	0.1381	Open
P8367	J51_9	J51_10	120.00	300.0	140.0	0.1215	Open
P8368	J51_9	J52_9	120.00	300.0	130.0	0.1202	Open
P8369	J51_10	J51_11	120.00	300.0	125.0	0.0170	Open
P8370	J51_10	J52_10	120.00	300.0	120.0	0.0445	Open
P8371	J51_11	J51_12	120.00	150.0	130.0	0.0504	Open
P8372	J51_11	J52_11	120.00	100.0	130.0	0.1197	Open
P8373	J51_12	J51_13	120.00	100.0	135.0	0.0372	Open
P8374	J51_12	J52_12	120.00	200.0	130.0	0.0757	Open
P8375	J51_13	J51_14	120.00	200.0	140.0	0.0067	Open
P8376	J51_13	J52_13	120.00	250.0	135.0	0.0846	Open
P8377	J51_14	J51_15	120.00	150.0	135.0	0.0208	Open
P8378	J51_14	J52_14	120.00	300.0	125.0	0.0896	Open
P8379	J51_15	J51_16	120.00	200.0	140.0	0.0302	Open
P8380	J51_15	J52_15	120.00	150.0	140.0	0.0606	Open
P8381	J51_16	J51_17	120.00	300.0	130.0	0.0975	Open
P8382	J51_16	J52_16	120.00	200.0	135.0	0.0977	Open
P8383	J51_17	J51_18	120.00	200.0	130.0	0.0122	Open
P8384	J51_17	J52_17	120.00	100.0	135.0	0.0632	Open
P8385	J51_18	J51_19	120.00	250.0	130.0	0.0789	Open
P8386	J51_18	J52_18	120.00	150.0	125.0	0.1180	Open
P8387	J51_19	J51_20	120.00	350.0	130.0	0.0009	Open
P8388	J51_19	J52_19	120.00	350.0	130.0	0.0347	Open
P8389	J51_20	J51_21	120.00	250.0	130.0	0.1131	Open
P8390	J51_20	J52_20	120.00	250.0	130.0	0.0012	Open
P8391	J51_21	J51_22	120.00	300.0	135.0	0.0403	Open
P8392	J51_21	J52_21	120.00	200.0	140.0	0.1090	Open
P8393	J51_22	J51_23	120.00	200.0	130.0	0.0825	Open
P8394	J51_22	J52_22	120.00	150.0	140.0	0.1115	Open
P8395	J51_23	J51_24	120.00	150.0	140.0	0.0554	Open
P8396	J51_23	J52_23	120.00	150.0	135.0	0.0225	Open
P8397	J51_24	J51_25	120.00	150.0	125.0	0.0343	Open
P8398	J51_24	J52_24	120.00	300.0	135.0	0.0379	Open
P8399	J51_25	J51_26	120.00	150.0	130.0	0.0211	Open
P8400	J51_25	J52_25	120.00	250.0	130.0	0.0678	Open
P8401	J51_26	J51_27	120.00	300.0	140.0	0.1424	Open
P8402	J51_26	J52_26	120.00	250.0	125.0	0.1450	Open
P8403	J51_27	J51_28	120.00	100.0	135.0	0.0442	Open
P8404	J51_27	J52_27	120.00	300.0	125.0	0.0974	Open
P8405	J51_28	J51_29	120.00	450.0	130.0	0.0172	Open
P8406	J51_28	J52_28	120.00	300.0	125.0	0.0379	Open
P8407	J51_29	J51_30	120.00	150.0	135.0	0.1060	Open
P8408	J51_29	J52_29	120.00	100.0	125.0	0.0571	Open
P8409	J51_30	J51_31	120.00	200.0	130.0	0.1377	Open
P8410	J51_30	J52_30	120.00	200.0	140.0	0.1121	Open
P8411	J51_31	J51_32	120.00	150.0	140.0	0.1235	Open
P8412	J51_31	J52_31	120.00	100.0	125.0	0.0462	Open
P8413	J51_32	J51_33	120.00	150.0	140.0	0.0426	Open
P8414	J51_32	J52_32	120.00	300.0	135.0	0.1242	Open
P8415	J51_33	J51_34	120.00	150.0	135.0	0.1115	Open
P8416	J51_33	J52_33	120.00	150.0	130.0	0.0442	Open
P8417	J51_34	J51_35	120.00	150.0	130.0	0.0156	Open
P8418	J51_34	J52_34	120.00	300.0	125.0	0.1053	Open
P8419	J51_35	J51_36	120.00	200.0	140.0	0.0022	Open
P8420	J51_35	J52_35	120.00	150.0	135.0	0.1345	Open
P8421	J51_36	J51_37	120.00	300.0	130.0	0.0752	Open
P8422	J51_36	J52_36	120.00	200.0	130.0	0.0238	Open
P8423	J51_37	J51_38	120.00	400.0	120.0	0.0186	Open
P8424	J51_37	J52_37	120.00	350.0	120.0	0.0010	Open
P8425	J51_38	J51_39	120.00	250.0	125.0	0.1461	Open
P8426	J51_38	J52_38	120.00	300.0	140.0	0.1447	Open
P8427	J51_39	J51_40	120.00	150.0	130.0	0.0844	Open
P8428	J51_39	J52_39	120.00	250.0	125.0	0.0408	Open
P8429	J51_40	J51_41	120.00	250.0	140.0	0.1004	Open
P8430	J51_40	J52_40	120.00	100.0	130.0	0.1154	Open
P8431	J51_41	J51_42	120.00	150.0	140.0	0.1380	Open
P8432	J51_41	J52_41	120.00	150.0	130.0	0.0440	Open
P8433	J51_42	J51_43	120.00	150.0	140.0	0.0774	Open
P8434	J51_42	J52_42	120.00	200.0	130.0	0.0621	Open
P8435	J51_43	J51_44	120.00	200.0	135.0	0.0799	Open
P8436	J51_43	J52_43	120.00	250.0	140.0	0.0137	Open
P8437	J51_44	J51_45	120.00	150.0	125.0	0.0027	Open
P8438	J51_44	J52_44	120.00	150.0	140.0	0.0651	Open
P8439	J51_45	J51_46	120.00	150.0	125.0	0.0346	Open
P8440	J51_45	J52_45	120.00	250.0	125.0	0.0369	Open
P8441	J51_46	J51_47	120.00	350.0	130.0	0.0254	Open
P8442	J51_46	J52_46	120.00	600.0	130.0	0.0160	Open
P8443	J51_47	J51_48	120.00	150.0	130.0	0.0175	Open
P8444	J51_47	J52_47	120.00	300.0	125.0	0.0274	Open
P8445	J51_48	J51_49	120.00	250.0	125.0	0.1245	Open
P8446	J51_48	J52_48	120.00	200.0	140.0	0.0231	Open
P8447	J51_49	J51_50	120.00	200.0	125.0	0.0482	Open
P8448	J51_49	J52_49	120.00	300.0	125.0	0.0383	Open
P8449	J51_50	J51_51	120.00	100.0	125.0	0.0584	Open
P8450	J51_50	J52_50	120.00	200.0	140.0	0.1152	Open
P8451	J51_51	J51_52	120.00	250.0	135.0	0.0038	Open
P8452	J51_51	J52_51	120.00	250.0	140.0	0.0634	Open
P8453	J51_52	J51_53	120.00	250.0	135.0	0.1300	Open
P8454	J51_52	J52_52	120.00	250.0	125.0	0.0088	Open
P8455	J51_53	J51_54	120.00	100.0	140.0	0.1334	Open
P8456	J51_53	J52_53	120.00	200.0	125.0	0.0172	Open
P8457	J51_54	J51_55	120.00	200.0	140.0	0.0383	Open
P8458	J51_54	J52_54	120.00	250.0	135.0	0.1430	Open
P8459	J51_55	J51_56	120.00	300.0	125.0	0.0460	Open
P8460	J51_55	J52_55	120.00	400.0	125.0	0.0077	Open
P8461	J51_56	J51_57	120.00	200.0	140.0	0.1448	Open
P8462	J51_56	J52_56	120.00	150.0	135.0	0.0437	Open
P8463	J51_57	J51_58	120.00	250.0	140.0	0.1060	Open
P8464	J51_57	J52_57	120.00	200.0	130.0	0.0241	Open
P8465	J51_58	J51_59	120.00	300.0	125.0	0.0921	Open
P8466	J51_58	J52_58	120.00	300.0	140.0	0.1433	Open
P8467	J51_59	J51_60	120.00	250.0	125.0	0.0319	Open
P8468	J51_59	J52_59	120.00	300.0	130.0	0.1253	Open
P8469	J51_60	J51_61	120.00	250.0	140.0	0.0329	Open
P8470	J51_60	J52_60	120.00	200.0	135.0	0.1231	Open
P8471	J51_61	J51_62	120.00	100.0	125.0	0.0369	Open
P8472	J51_61	J52_61	120.00	150.0	130.0	0.0297	Open
P8473	J51_62	J51_63	120.00	200.0	140.0	0.0787	Open
P8474	J51_62	J52_62	120.00	300.0	135.0	0.0023	Open
P8475	J51_63	J51_64	120.00	150.0	140.0	0.0814	Open
P8476	J51_63	J52_63	120.00	150.0	140.0	0.0956	Open
P8477	J51_64	J51_65	120.00	450.0	130.0	0.0413	Open
P8478	J51_64	J52_64	120.00	500.0	130.0	0.0067	Open
P8479	J51_65	J51_66	120.00	250.0	130.0	0.0473	Open
P8480	J51_65	J52_65	120.00	150.0	125.0	0.0426	Open
P8481	J51_66	J51_67	120.00	200.0	125.0	0.0036	Open
P8482	J51_66	J52_66	120.00	200.0	125.0	0.0123	Open
P8483	J51_67	J51_68	120.00	250.0	135.0	0.0659	Open
P8484	J51_67	J52_67	120.00	250.0	125.0	0.0673	Open
P8485	J51_68	J51_69	120.00	250.0	140.0	0.0768	Open
P8486	J51_68	J52_68	120.00	100.0	140.0	0.0684	Open
P8487	J51_69	J51_70	120.00	150.0	130.0	0.0960	Open
P8488	J51_69	J52_69	120.00	300.0	135.0	0.1419	Open
P8489	J51_70	J51_71	120.00	200.0	125.0	0.0622	Open
P8490	J51_70	J52_70	120.00	150.0	125.0	0.1059	Open
P8491	J51_71	J51_72	120.00	200.0	140.0	0.0649	Open
P8492	J51_71	J52_71	120.00	150.0	140.0	0.0491	Open
P8493	J51_72	J51_73	120.00	200.0	125.0	0.0667	Open
P8494	J51_72	J52_72	120.00	300.0	135.0	0.0421	Open
P8495	J51_73	J51_74	120.00	450.0	125.0	0.0248	Open
P8496	J51_73	J52_73	120.00	600.0	125.0	0.0121	Open
P8497	J51_74	J51_75	120.00	300.0	125.0	0.0958	Open
P8498	J51_74	J52_74	120.00	250.0	125.0	0.0841	Open
P8499	J51_75	J51_76	120.00	250.0	130.0	0.0205	Open
P8500	J51_75	J52_75	120.00	200.0	125.0	0.0877	Open
P8501	J51_76	J51_77	120.00	200.0	135.0	0.0778	Open
P8502	J51_76	J52_76	120.00	100.0	135.0	0.0787	Open
P8503	J51_77	J51_78	120.00	300.0	130.0	0.1349	Open
P8504	J51_77	J52_77	120.00	150.0	130.0	0.0659	Open
P8505	J51_78	J51_79	120.00	250.0	130.0	0.0285	Open
P8506	J51_78	J52_78	120.00	200.0	140.0	0.1395	Open
P8507	J51_79	J51_80	120.00	100.0	125.0	0.0583	Open
P8508	J51_79	J52_79	120.00	250.0	130.0	0.1374	Open
P8509	J51_80	J51_81	120.00	100.0	140.0	0.1180	Open
P8510	J51_80	J52_80	120.00	200.0	135.0	0.0073	Open
P8511	J51_81	J51_82	120.00	100.0	140.0	0.1392	Open
P8512	J51_81	J52_81	120.00	100.0	140.0	0.1393	Open
P8513	J51_82	J51_83	120.00	450.0	130.0	0.0184	Open
P8514	J51_82	J52_82	120.00	450.0	120.0	0.0333	Open
P8515	J51_83	J51_84	120.00	300.0	140.0	0.1247	Open
P8516	J51_83	J52_83	120.00	150.0	130.0	0.1345	Open
P8517	J51_84	J52_84	120.00	200.0	130.0	0.0128	Open
P8518	J52_1	J52_2	120.00	350.0	130.0	0.0095	Open
P8519	J52_1	J53_1	120.00	450.0	130.0	0.0108	Open
P8520	J52_2	J52_3	120.00	250.0	140.0	0.0872	Open
P8521	J52_2	J53_2	120.00	150.0	130.0	0.0618	Open
P8522	J52_3	J52_4	120.00	150.0	130.0	0.0633	Open
P8523	J52_3	J53_3	120.00	150.0	130.0	0.0386	Open
P8524	J52_4	J52_5	120.00	150.0	125.0	0.0556	Open
P8525	J52_4	J53_4	120.00	300.0	135.0	0.0402	Open
P8526	J52_5	J52_6	120.00	200.0	140.0	0.1457	Open
P8527	J52_5	J53_5	120.00	250.0	130.0	0.1198	Open
P8528	J52_6	J52_7	120.00	150.0	135.0	0.0301	Open
P8529	J52_6	J53_6	120.00	250.0	135.0	0.1248	Open
P8530	J52_7	J52_8	120.00	200.0	135.0	0.1492	Open
P8531	J52_7	J53_7	120.00	250.0	125.0	0.1160	Open
P8532	J52_8	J52_9	120.00	250.0	135.0	0.1115	Open
P8533	J52_8	J53_8	120.00	200.0	140.0	0.1305	Open
P8534	J52_9	J52_10	120.00	250.0	135.0	0.1158	Open
P8535	J52_9	J53_9	120.00	300.0	140.0	0.0890	Open
P8536	J52_10	J52_11	120.00	400.0	120.0	0.0210	Open
P8537	J52_10	J53_10	120.00	500.0	130.0	0.0233	Open
P8538	J52_11	J52_12	120.00	250.0	130.0	0.0331	Open
P8539	J52_11	J53_11	120.00	300.0	130.0	0.0575	Open
P8540	J52_12	J52_13	120.00	250.0	130.0	0.0289	Open
P8541	J52_12	J53_12	120.00	100.0	140.0	0.0787	Open
P8542	J52_13	J52_14	120.00	300.0	140.0	0.0134	Open
P8543	J52_13	J53_13	120.00	150.0	135.0	0.1369	Open
P8544	J52_14	J52_15	120.00	250.0	125.0	0.0373	Open
P8545	J52_14	J53_14	120.00	300.0	135.0	0.0609	Open
P8546	J52_15	J52_16	120.00	100.0	140.0	0.1387	Open
P8547	J52_15	J53_15	120.00	150.0	140.0	0.1084	Open
P8548	J52_16	J52_17	120.00	150.0	135.0	0.0084	Open
P8549	J52_16	J53_16	120.00	100.0	125.0	0.1167	Open
P8550	J52_17	J52_18	120.00	100.0	135.0	0.0760	Open
P8551	J52_17	J53_17	120.00	100.0	140.0	0.1336	Open
P8552	J52_18	J52_19	120.00	150.0	140.0	0.0224	Open
P8553	J52_18	J53_18	120.00	100.0	125.0	0.0821	Open
P8554	J52_19	J52_20	120.00	600.0	120.0	0.0390	Open
P8555	J52_19	J53_19	120.00	350.0	125.0	0.0176	Open
P8556	J52_20	J52_21	120.00	200.0	135.0	0.1310	Open
P8557	J52_20	J53_20	120.00	100.0	135.0	0.0295	Open
P8558	J52_21	J52_22	120.00	200.0	135.0	0.0495	Open
P8559	J52_21	J53_21	120.00	100.0	140.0	0.0278	Open
P8560	J52_22	J52_23	120.00	250.0	135.0	0.0243	Open
P8561	J52_22	J53_22	120.00	150.0	130.0	0.1091	Open
P8562	J52_23	J52_24	120.00	250.0	125.0	0.0817	Open
P8563	J52_23	J53_23	120.00	150.0	140.0	0.0584	Open
P8564	J52_24	J52_25	120.00	200.0	130.0	0.0093	Open
P8565	J52_24	J53_24	120.00	150.0	135.0	0.0475	Open
P8566	J52_25	J52_26	120.00	250.0	130.0	0.0883	Open
P8567	J52_25	J53_25	120.00	300.0	125.0	0.1042	Open
P8568	J52_26	J52_27	120.00	250.0	130.0	0.0447	Open
P8569	J52_26	J53_26	120.00	200.0	135.0	0.0945	Open
P8570	J52_27	J52_28	120.00	200.0	135.0	0.1358	Open
P8571	J52_27	J53_27	120.00	100.0	135.0	0.0305	Open
P8572	J52_28	J52_29	120.00	300.0	120.0	0.0214	Open
P8573	J52_28	J53_28	120.00	300.0	120.0	0.0038	Open
P8574	J52_29	J52_30	120.00	100.0	130.0	0.0283	Open
P8575	J52_29	J53_29	120.00	300.0	130.0	0.1159	Open
P8576	J52_30	J52_31	120.00	250.0	130.0	0.0433	Open
P8577	J52_30	J53_30	120.00	100.0	140.0	0.0412	Open
P8578	J52_31	J52_32	120.00	100.0	140.0	0.0317	Open
P8579	J52_31	J53_31	120.00	250.0	140.0	0.0009	Open
P8580	J52_32	J52_33	120.00	300.0	135.0	0.0306	Open
P8581	J52_32	J53_32	120.00	150.0	135.0	0.0124	Open
P8582	J52_33	J52_34	120.00	150.0	130.0	0.0897	Open
P8583	J52_33	J53_33	120.00	200.0	130.0	0.0905	Open
P8584	J52_34	J52_35	120.00	150.0	130.0	0.0578	Open
P8585	J52_34	J53_34	120.00	100.0	135.0	0.1280	Open
P8586	J52_35	J52_36	120.00	250.0	130.0	0.1063	Open
P8587	J52_35	J53_35	120.00	100.0	140.0	0.1415	Open
P8588	J52_36	J52_37	120.00	200.0	125.0	0.0242	Open
P8589	J52_36	J53_36	120.00	250.0	140.0	0.0893	Open
P8590	J52_37	J52_38	120.00	350.0	125.0	0.0029	Open
P8591	J52_37	J53_37	120.00	500.0	125.0	0.0434	Open
P8592	J52_38	J52_39	120.00	250.0	135.0	0.1056	Open
P8593	J52_38	J53_38	120.00	250.0	135.0	0.0788	Open
P8594	J52_39	J52_40	120.00	300.0	135.0	0.0356	Open
P8595	J52_39	J53_39	120.00	150.0	125.0	0.1355	Open
P8596	J52_40	J52_41	120.00	150.0	125.0	0.1343	Open
P8597	J52_40	J53_40	120.00	300.0	125.0	0.1303	Open
P8598	J52_41	J52_42	120.00	150.0	135.0	0.0993	Open
P8599	J52_41	J53_41	120.00	200.0	140.0	0.0977	Open
P8600	J52_42	J52_43	120.00	300.0	140.0	0.0141	Open
P8601	J52_42	J53_42	120.00	250.0	125.0	0.0447	Open
P8602	J52_43	J52_44	120.00	300.0	130.0	0.1290	Open
P8603	J52_43	J53_43	120.00	100.0	140.0	0.1088	Open
P8604	J52_44	J52_45	120.00	200.0	125.0	0.0768	Open
P8605	J52_44	J53_44	120.00	250.0	125.0	0.0859	Open
P8606	J52_45	J52_46	120.00	150.0	135.0	0.0076	Open
P8607	J52_45	J53_45	120.00	100.0	140.0	0.0232	Open
P8608	J52_46	J52_47	120.00	300.0	125.0	0.0114	Open
P8609	J52_46	J53_46	120.00	400.0	120.0	0.0171	Open
P8610	J52_47	J52_48	120.00	200.0	125.0	0.0990	Open
P8611	J52_47	J53_47	120.00	300.0	125.0	0.0276	Open
P8612	J52_48	J52_49	120.00	150.0	140.0	0.1359	Open
P8613	J52_48	J53_48	120.00	250.0	135.0	0.1133	Open
P8614	J52_49	J52_50	120.00	200.0	135.0	0.0397	Open
P8615	J52_49	J53_49	120.00	250.0	130.0	0.0061	Open
P8616	J52_50	J52_51	120.00	150.0	140.0	0.0169	Open
P8617	J52_50	J53_50	120.00	250.0	135.0	0.1244	Open
P8618	J52_51	J52_52	120.00	250.0	135.0	0.0300	Open
P8619	J52_51	J53_51	120.00	300.0	130.0	0.0122	Open
P8620	J52_52	J52_53	120.00	200.0	135.0	0.1083	Open
P8621	J52_52	J53_52	120.00	150.0	135.0	0.0530	Open
P8622	J52_53	J52_54	120.00	250.0	140.0	0.0855	Open
P8623	J52_53	J53_53	120.00	250.0	130.0	0.0591	Open
P8624	J52_54	J52_55	120.00	150.0	130.0	0.0079	Open
P8625	J52_54	J53_54	120.00	300.0	130.0	0.1090	Open
P8626	J52_55	J52_56	120.00	400.0	130.0	0.0387	Open
P8627	J52_55	J53_55	120.00	600.0	130.0	0.0042	Open
P8628	J52_56	J52_57	120.00	150.0	125.0	0.0917	Open
P8629	J52_56	J53_56	120.00	250.0	125.0	0.0458	Open
P8630	J52_57	J52_58	120.00	100.0	130.0	0.1396	Open
P8631	J52_57	J53_57	120.00	200.0	135.0	0.1480	Open
P8632	J52_58	J52_59	120.00	150.0	125.0	0.1492	Open
P8633	J52_58	J53_58	120.00	250.0	125.0	0.1004	Open
P8634	J52_59	J52_60	120.00	100.0	130.0	0.1247	Open
P8635	J52_59	J53_59	120.00	250.0	130.0	0.0301	Open
P8636	J52_60	J52_61	120.00	100.0	130.0	0.1069	Open
P8637	J52_60	J53_60	120.00	250.0	135.0	0.0372	Open
P8638	J52_61	J52_62	120.00	150.0	125.0	0.0473	Open
P8639	J52_61	J53_61	120.00	250.0	130.0	0.0284	Open
P8640	J52_62	J52_63	120.00	150.0	140.0	0.1252	Open
P8641	J52_62	J53_62	120.00	300.0	130.0	0.0217	Open
P8642	J52_63	J52_64	120.00	300.0	140.0	0.1323	Open
P8643	J52_63	J53_63	120.00	300.0	130.0	0.0645	Open
P8644	J52_64	J52_65	120.00	300.0	130.0	0.0188	Open
P8645	J52_64	J53_64	120.00	500.0	130.0	0.0473	Open
P8646	J52_65	J52_66	120.00	300.0	135.0	0.0761	Open
P8647	J52_65	J53_65	120.00	150.0	135.0	0.0207	Open
P8648	J52_66	J52_67	120.00	250.0	130.0	0.0966	Open
P8649	J52_66	J53_66	120.00	300.0	125.0	0.0113	Open
P8650	J52_67	J52_68	120.00	100.0	140.0	0.0106	Open
P8651	J52_67	J53_67	120.00	100.0	135.0	0.1046	Open
P8652	J52_68	J52_69	120.00	300.0	135.0	0.0080	Open
P8653	J52_68	J53_68	120.00	250.0	130.0	0.1237	Open
P8654	J52_69	J52_70	120.00	200.0	125.0	0.0364	Open
P8655	J52_69	J53_69	120.00	100.0	140.0	0.1156	Open
P8656	J52_70	J52_71	120.00	200.0	125.0	0.0473	Open
P8657	J52_70	J53_70	120.00	150.0	125.0	0.0490	Open
P8658	J52_71	J52_72	120.00	250.0	140.0	0.1229	Open
P8659	J52_71	J53_71	120.00	300.0	125.0	0.1173	Open
P8660	J52_72	J52_73	120.00	150.0	125.0	0.0826	Open
P8661	J52_72	J53_72	120.00	150.0	125.0	0.1045	Open
P8662	J52_73	J52_74	120.00	350.0	120.0	0.0453	Open
P8663	J52_73	J53_73	120.00	350.0	130.0	0.0232	Open
P8664	J52_74	J52_75	120.00	250.0	140.0	0.0240	Open
P8665	J52_74	J53_74	120.00	250.0	135.0	0.0215	Open
P8666	J52_75	J52_76	120.00	100.0	125.0	0.0279	Open
P8667	J52_75	J53_75	120.00	250.0	125.0	0.0557	Open
P8668	J52_76	J52_77	120.00	100.0	130.0	0.0178	Open
P8669	J52_76	J53_76	120.00	150.0	135.0	0.1381	Open
P8670	J52_77	J52_78	120.00	100.0	135.0	0.1337	Open
P8671	J52_77	J53_77	120.00	300.0	130.0	0.1271	Open
P8672	J52_78	J52_79	120.00	250.0	130.0	0.0991	Open
P8673	J52_78	J53_78	120.00	150.0	135.0	0.0230	Open
P8674	J52_79	J52_80	120.00	150.0	140.0	0.0986	Open
P8675	J52_79	J53_79	120.00	150.0	140.0	0.1444	Open
P8676	J52_80	J52_81	120.00	300.0	135.0	0.0072	Open
P8677	J52_80	J53_80	120.00	300.0	135.0	0.1165	Open
P8678	J52_81	J52_82	120.00	100.0	135.0	0.0306	Open
P8679	J52_81	J53_81	120.00	250.0	135.0	0.1258	Open
P8680	J52_82	J52_83	120.00	600.0	130.0	0.0075	Open
P8681	J52_82	J53_82	120.00	500.0	125.0	0.0196	Open
P8682	J52_83	J52_84	120.00	250.0	135.0	0.1334	Open
P8683	J52_83	J53_83	120.00	150.0	125.0	0.0113	Open
P8684	J52_84	J53_84	120.00	150.0	125.0	0.0139	Open
P8685	J53_1	J53_2	120.00	300.0	125.0	0.0223	Open
P8686	J53_1	J54_1	120.00	300.0	120.0	0.0124	Open
P8687	J53_2	J53_3	120.00	250.0	135.0	0.0865	Open
P8688	J53_2	J54_2	120.00	300.0	140.0	0.1200	Open
P8689	J53_3	J53_4	120.00	150.0	140.0	0.0859	Open
P8690	J53_3	J54_3	120.00	150.0	135.0	0.1380	Open
P8691	J53_4	J53_5	120.00	100.0	125.0	0.0073	Open
P8692	J53_4	J54_4	120.00	250.0	125.0	0.0447	Open
P8693	J53_5	J53_6	120.00	100.0	130.0	0.0222	Open
P8694	J53_5	J54_5	120.00	300.0	140.0	0.1144	Open
P8695	J53_6	J53_7	120.00	150.0	130.0	0.1178	Open
P8696	J53_6	J54_6	120.00	250.0	125.0	0.1427	Open
P8697	J53_7	J53_8	120.00	300.0	125.0	0.0216	Open
P8698	J53_7	J54_7	120.00	150.0	140.0	0.1286	Open
P8699	J53_8	J53_9	120.00	200.0	140.0	0.1454	Open
P8700	J53_8	J54_8	120.00	250.0	135.0	0.0118	Open
P8701	J53_9	J53_10	120.00	200.0	135.0	0.0265	Open
P8702	J53_9	J54_9	120.00	300.0	140.0	0.0985	Open
P8703	J53_10	J53_11	120.00	450.0	120.0	0.0095	Open
P8704	J53_10	J54_10	120.00	600.0	125.0	0.0030	Open
P8705	J53_11	J53_12	120.00	100.0	135.0	0.0702	Open
P8706	J53_11	J54_11	120.00	250.0	125.0	0.0596	Open
P8707	J53_12	J53_13	120.00	300.0	130.0	0.1358	Open
P8708	J53_12	J54_12	120.00	300.0	130.0	0.1436	Open
P8709	J53_13	J53_14	120.00	250.0	135.0	0.0969	Open
P8710	J53_13	J54_13	120.00	150.0	130.0	0.0735	Open
P8711	J53_14	J53_15	120.00	200.0	130.0	0.0386	Open
P8712	J53_14	J54_14	120.00	150.0	140.0	0.0440	Open
P8713	J53_15	J53_16	120.00	300.0	140.0	0.0866	Open
P8714	J53_15	J54_15	120.00	300.0	140.0	0.0273	Open
P8715	J53_16	J53_17	120.00	300.0	130.0	0.1132	Open
P8716	J53_16	J54_16	120.00	250.0	125.0	0.0004	Open
P8717	J53_17	J53_18	120.00	250.0	130.0	0.1466	Open
P8718	J53_17	J54_17	120.00	200.0	125.0	0.0677	Open
P8719	J53_18	J53_19	120.00	150.0	135.0	0.0404	Open
P8720	J53_18	J54_18	120.00	150.0	140.0	0.0116	Open
P8721	J53_19	J53_20	120.00	500.0	130.0	0.0046	Open
P8722	J53_19	J54_19	120.00	400.0	125.0	0.0484	Open
P8723	J53_20	J53_21	120.00	200.0	140.0	0.0939	Open
P8724	J53_20	J54_20	120.00	300.0	125.0	0.1373	Open
P8725	J53_21	J53_22	120.00	300.0	125.0	0.1188	Open
P8726	J53_21	J54_21	120.00	100.0	130.0	0.1187	Open
P8727	J53_22	J53_23	120.00	300.0	140.0	0.0469	Open
P8728	J53_22	J54_22	120.00	100.0	140.0	0.0199	Open
P8729	J53_23	J53_24	120.00	150.0	140.0	0.0867	Open
P8730	J53_23	J54_23	120.00	100.0	140.0	0.0795	Open
P8731	J53_24	J53_25	120.00	300.0	140.0	0.1486	Open
P8732	J53_24	J54_24	120.00	150.0	125.0	0.1356	Open
P8733	J53_25	J53_26	120.00	250.0	130.0	0.0027	Open
P8734	J53_25	J54_25	120.00	250.0	140.0	0.1388	Open
P8735	J53_26	J53_27	120.00	200.0	130.0	0.0033	Open
P8736	J53_26	J54_26	120.00	300.0	140.0	0.0732	Open
P8737	J53_27	J53_28	120.00	300.0	130.0	0.1395	Open
P8738	J53_27	J54_27	120.00	100.0	140.0	0.0836	Open
P8739	J53_28	J53_29	120.00	450.0	120.0	0.0100	Open
P8740	J53_28	J54_28	120.00	500.0	130.0	0.0062	Open
P8741	J53_29	J53_30	120.00	300.0	140.0	0.1478	Open
P8742	J53_29	J54_29	120.00	250.0	140.0	0.0354	Open
P8743	J53_30	J53_31	120.00	200.0	125.0	0.0076	Open
P8744	J53_30	J54_30	120.00	250.0	140.0	0.0002	Open
P8745	J53_31	J53_32	120.00	200.0	140.0	0.0368	Open
P8746	J53_31	J54_31	120.00	300.0	130.0	0.1092	Open
P8747	J53_32	J53_33	120.00	300.0	125.0	0.0348	Open
P8748	J53_32	J54_32	120.00	100.0	140.0	0.0649	Open
P8749	J53_33	J53_34	120.00	250.0	140.0	0.0636	Open
P8750	J53_33	J54_33	120.00	200.0	135.0	0.0817	Open
P8751	J53_34	J53_35	120.00	300.0	130.0	0.0893	Open
P8752	J53_34	J54_34	120.00	250.0	140.0	0.0879	Open
P8753	J53_35	J53_36	120.00	200.0	125.0	0.0932	Open
P8754	J53_35	J54_35	120.00	300.0	125.0	0.1210	Open
P8755	J53_36	J53_37	120.00	100.0	135.0	0.1154	Open
P8756	J53_36	J54_36	120.00	150.0	140.0	0.0870	Open
P8757	J53_37	J53_38	120.00	500.0	125.0	0.0185	Open
P8758	J53_37	J54_37	120.00	400.0	125.0	0.0077	Open
P8759	J53_38	J53_39	120.00	300.0	130.0	0.0251	Open
P8760	J53_38	J54_38	120.00	250.0	125.0	0.1403	Open
P8761	J53_39	J53_40	120.00	250.0	135.0	0.1350	Open
P8762	J53_39	J54_39	120.00	250.0	125.0	0.1300	Open
P8763	J53_40	J53_41	120.00	200.0	130.0	0.0811	Open
P8764	J53_40	J54_40	120.00	100.0	130.0	0.0153	Open
P8765	J53_41	J53_42	120.00	300.0	125.0	0.0452	Open
P8766	J53_41	J54_41	120.00	150.0	130.0	0.0266	Open
P8767	J53_42	J53_43	120.00	200.0	140.0	0.0269	Open
P8768	J53_42	J54_42	120.00	100.0	130.0	0.0599	Open
P8769	J53_43	J53_44	120.00	150.0	140.0	0.1042	Open
P8770	J53_43	J54_43	120.00	150.0	130.0	0.0162	Open
P8771	J53_44	J53_45	120.00	300.0	140.0	0.0130	Open
P8772	J53_44	J54_44	120.00	200.0	130.0	0.0713	Open
P8773	J53_45	J53_46	120.00	300.0	125.0	0.0850	Open
P8774	J53_45	J54_45	120.00	300.0	125.0	0.0656	Open
P8775	J53_46	J53_47	120.00	500.0	120.0	0.0388	Open
P8776	J53_46	J54_46	120.00	600.0	125.0	0.0457	Open
P8777	J53_47	J53_48	120.00	300.0	140.0	0.1498	Open
P8778	J53_47	J54_47	120.00	250.0	140.0	0.0377	Open
P8779	J53_48	J53_49	120.00	100.0	130.0	0.0292	Open
P8780	J53_48	J54_48	120.00	300.0	125.0	0.1215	Open
P8781	J53_49	J53_50	120.00	200.0	135.0	0.0406	Open
P8782	J53_49	J54_49	120.00	150.0	130.0	0.0373	Open
P8783	J53_50	J53_51	120.00	150.0	130.0	0.0197	Open
P8784	J53_50	J54_50	120.00	200.0	135.0	0.0828	Open
P8785	J53_51	J53_52	120.00	200.0	135.0	0.1472	Open
P8786	J53_51	J54_51	120.00	250.0	130.0	0.1168	Open
P8787	J53_52	J53_53	120.00	200.0	135.0	0.0802	Open
P8788	J53_52	J54_52	120.00	100.0	135.0	0.1285	Open
P8789	J53_53	J53_54	120.00	200.0	135.0	0.0840	Open
P8790	J53_53	J54_53	120.00	150.0	140.0	0.1007	Open
P8791	J53_54	J53_55	120.00	150.0	130.0	0.1213	Open
P8792	J53_54	J54_54	120.00	150.0	130.0	0.1309	Open
P8793	J53_55	J53_56	120.00	400.0	125.0	0.0331	Open
P8794	J53_55	J54_55	120.00	600.0	130.0	0.0155	Open
P8795	J53_56	J53_57	120.00	200.0	135.0	0.0055	Open
P8796	J53_56	J54_56	120.00	300.0	125.0	0.0725	Open
P8797	J53_57	J53_58	120.00	100.0	135.0	0.0765	Open
P8798	J53_57	J54_57	120.00	200.0	125.0	0.1391	Open
P8799	J53_58	J53_59	120.00	250.0	130.0	0.0838	Open
P8800	J53_58	J54_58	120.00	250.0	140.0	0.0293	Open
P8801	J53_59	J53_60	120.00	150.0	125.0	0.0342	Open
P8802	J53_59	J54_59	120.00	150.0	130.0	0.0370	Open
P8803	J53_60	J53_61	120.00	100.0	135.0	0.1082	Open
P8804	J53_60	J54_60	120.00	150.0	135.0	0.0410	Open
P8805	J53_61	J53_62	120.00	200.0	135.0	0.0368	Open
P8806	J53_61	J54_61	120.00	100.0	135.0	0.1144	Open
P8807	J53_62	J53_63	120.00	150.0	130.0	0.0378	Open
P8808	J53_62	J54_62	120.00	250.0	135.0	0.0139	Open
P8809	J53_63	J53_64	120.00	300.0	140.0	0.0116	Open
P8810	J53_63	J54_63	120.00	100.0	125.0	0.1180	Open
P8811	J53_64	J53_65	120.00	300.0	125.0	0.0461	Open
P8812	J53_64	J54_64	120.00	350.0	125.0	0.0150	Open
P8813	J53_65	J53_66	120.00	200.0	125.0	0.0761	Open
P8814	J53_65	J54_65	120.00	150.0	140.0	0.0784	Open
P8815	J53_66	J53_67	120.00	100.0	125.0	0.1327	Open
P8816	J53_66	J54_66	120.00	150.0	130.0	0.1202	Open
P8817	J53_67	J53_68	120.00	200.0	125.0	0.0025	Open
P8818	J53_67	J54_67	120.00	200.0	125.0	0.0940	Open
P8819	J53_68	J53_69	120.00	250.0	135.0	0.0125	Open
P8820	J53_68	J54_68	120.00	100.0	135.0	0.0166	Open
P8821	J53_69	J53_70	120.00	300.0	135.0	0.0331	Open
P8822	J53_69	J54_69	120.00	150.0	125.0	0.1363	Open
P8823	J53_70	J53_71	120.00	300.0	140.0	0.0800	Open
P8824	J53_70	J54_70	120.00	300.0	130.0	0.1333	Open
P8825	J53_71	J53_72	120.00	250.0	140.0	0.0054	Open
P8826	J53_71	J54_71	120.00	150.0	135.0	0.1240	Open
P8827	J53_72	J53_73	120.00	150.0	135.0	0.0935	Open
P8828	J53_72	J54_72	120.00	100.0	130.0	0.1321	Open
P8829	J53_73	J53_74	120.00	400.0	120.0	0.0113	Open
P8830	J53_73	J54_73	120.00	450.0	120.0	0.0243	Open
P8831	J53_74	J53_75	120.00	100.0	135.0	0.0057	Open
P8832	J53_74	J54_74	120.00	150.0	130.0	0.0210	Open
P8833	J53_75	J53_76	120.00	100.0	140.0	0.0043	Open
P8834	J53_75	J54_75	120.00	150.0	130.0	0.1100	Open
P8835	J53_76	J53_77	120.00	250.0	125.0	0.1351	Open
P8836	J53_76	J54_76	120.00	200.0	130.0	0.1041	Open
P8837	J53_77	J53_78	120.00	250.0	125.0	0.1044	Open
P8838	J53_77	J54_77	120.00	250.0	140.0	0.0877	Open
P8839	J53_78	J53_79	120.00	300.0	130.0	0.1151	Open
P8840	J53_78	J54_78	120.00	250.0	130.0	0.0986	Open
P8841	J53_79	J53_80	120.00	100.0	125.0	0.0658	Open
P8842	J53_79	J54_79	120.00	100.0	140.0	0.1455	Open
P8843	J53_80	J53_81	120.00	300.0	125.0	0.0401	Open
P8844	J53_80	J54_80	120.00	300.0	130.0	0.0670	Open
P8845	J53_81	J53_82	120.00	150.0	125.0	0.0656	Open
P8846	J53_81	J54_81	120.00	150.0	140.0	0.0152	Open
P8847	J53_82	J53_83	120.00	600.0	130.0	0.0412	Open
P8848	J53_82	J54_82	120.00	600.0	125.0	0.0482	Open
P8849	J53_83	J53_84	120.00	150.0	130.0	0.0431	Open
P8850	J53_83	J54_83	120.00	150.0	135.0	0.0580	Open
P8851	J53_84	J54_84	120.00	100.0	140.0	0.0621	Open
P8852	J54_1	J54_2	120.00	350.0	120.0	0.0449	Open
P8853	J54_1	J55_1	120.00	450.0	130.0	0.0403	Open
P8854	J54_2	J54_3	120.00	300.0	125.0	0.0660	Open
P8855	J54_2	J55_2	120.00	100.0	125.0	0.0604	Open
P8856	J54_3	J54_4	120.00	100.0	130.0	0.1325	Open
P8857	J54_3	J55_3	120.00	300.0	140.0	0.0166	Open
P8858	J54_4	J54_5	120.00	100.0	130.0	0.0150	Open
P8859	J54_4	J55_4	120.00	250.0	130.0	0.0965	Open
P8860	J54_5	J54_6	120.00	200.0	135.0	0.0643	Open
P8861	J54_5	J55_5	120.00	200.0	135.0	0.0566	Open
P8862	J54_6	J54_7	120.00	250.0	135.0	0.0935	Open
P8863	J54_6	J55_6	120.00	300.0	135.0	0.0013	Open
P8864	J54_7	J54_8	120.00	100.0	125.0	0.1201	Open
P8865	J54_7	J55_7	120.00	250.0	135.0	0.0137	Open
P8866	J54_8	J54_9	120.00	200.0	130.0	0.1126	Open
P8867	J54_8	J55_8	120.00	200.0	135.0	0.1204	Open
P8868	J54_9	J54_10	120.00	150.0	140.0	0.0930	Open
P8869	J54_9	J55_9	120.00	250.0	125.0	0.0943	Open
P8870	J54_10	J54_11	120.00	350.0	130.0	0.0231	Open
P8871	J54_10	J55_10	120.00	600.0	120.0	0.0411	Open
P8872	J54_11	J54_12	120.00	150.0	130.0	0.0206	Open
P8873	J54_11	J55_11	120.00	200.0	140.0	0.0163	Open
P8874	J54_12	J54_13	120.00	100.0	125.0	0.1176	Open
P8875	J54_12	J55_12	120.00	100.0	125.0	0.0917	Open
P8876	J54_13	J54_14	120.00	150.0	130.0	0.1067	Open
P8877	J54_13	J55_13	120.00	200.0	140.0	0.1270	Open
P8878	J54_14	J54_15	120.00	200.0	130.0	0.1018	Open
P8879	J54_14	J55_14	120.00	150.0	140.0	0.1260	Open
P8880	J54_15	J54_16	120.00	300.0	130.0	0.0309	Open
P8881	J54_15	J55_15	120.00	200.0	130.0	0.1395	Open
P8882	J54_16	J54_17	120.00	300.0	135.0	0.1337	Open
P8883	J54_16	J55_16	120.00	150.0	135.0	0.1184	Open
P8884	J54_17	J54_18	120.00	150.0	135.0	0.1443	Open
P8885	J54_17	J55_17	120.00	200.0	130.0	0.0149	Open
P8886	J54_18	J54_19	120.00	150.0	130.0	0.0388	Open
P8887	J54_18	J55_18	120.00	250.0	140.0	0.1473	Open
P8888	J54_19	J54_20	120.00	300.0	130.0	0.0346	Open
P8889	J54_19	J55_19	120.00	450.0	120.0	0.0132	Open
P8890	J54_20	J54_21	120.00	250.0	140.0	0.0462	Open
P8891	J54_20	J55_20	120.00	300.0	130.0	0.0902	Open
P8892	J54_21	J54_22	120.00	300.0	140.0	0.0139	Open
P8893	J54_21	J55_21	120.00	150.0	140.0	0.0113	Open
P8894	J54_22	J54_23	120.00	250.0	135.0	0.0249	Open
P8895	J54_22	J55_22	120.00	150.0	135.0	0.0464	Open
P8896	J54_23	J54_24	120.00	100.0	135.0	0.1323	Open
P8897	J54_23	J55_23	120.00	150.0	140.0	0.0727	Open
P8898	J54_24	J54_25	120.00	200.0	125.0	0.0437	Open
P8899	J54_24	J55_24	120.00	150.0	140.0	0.0852	Open
P8900	J54_25	J54_26	120.00	250.0	125.0	0.0312	Open
P8901	J54_25	J55_25	120.00	250.0	140.0	0.0358	Open
P8902	J54_26	J54_27	120.00	100.0	130.0	0.1281	Open
P8903	J54_26	J55_26	120.00	250.0	140.0	0.1426	Open
P8904	J54_27	J54_28	120.00	300.0	130.0	0.0373	Open
P8905	J54_27	J55_27	120.00	250.0	130.0	0.0323	Open
P8906	J54_28	J54_29	120.00	350.0	130.0	0.0398	Open
P8907	J54_28	J55_28	120.00	600.0	130.0	0.0059	Open
P8908	J54_29	J54_30	120.00	250.0	135.0	0.0318	Open
P8909	J54_29	J55_29	120.00	150.0	140.0	0.1018	Open
P8910	J54_30	J54_31	120.00	200.0	140.0	0.1151	Open
P8911	J54_30	J55_30	120.00	200.0	135.0	0.1219	Open
P8912	J54_31	J54_32	120.00	300.0	125.0	0.0704	Open
P8913	J54_31	J55_31	120.00	150.0	135.0	0.0332	Open
P8914	J54_32	J54_33	120.00	250.0	140.0	0.0242	Open
P8915	J54_32	J55_32	120.00	300.0	140.0	0.1288	Open
P8916	J54_33	J54_34	120.00	300.0	130.0	0.0327	Open
P8917	J54_33	J55_33	120.00	200.0	130.0	0.0636	Open
P8918	J54_34	J54_35	120.00	250.0	130.0	0.0709	Open
P8919	J54_34	J55_34	120.00	300.0	130.0	0.0987	Open
P8920	J54_35	J54_36	120.00	200.0	130.0	0.0287	Open
P8921	J54_35	J55_35	120.00	300.0	140.0	0.1130	Open
P8922	J54_36	J54_37	120.00	100.0	130.0	0.1292	Open
P8923	J54_36	J55_36	120.00	250.0	125.0	0.1297	Open
P8924	J54_37	J54_38	120.00	300.0	130.0	0.0454	Open
P8925	J54_37	J55_37	120.00	300.0	120.0	0.0238	Open
P8926	J54_38	J54_39	120.00	100.0	130.0	0.0549	Open
P8927	J54_38	J55_38	120.00	300.0	125.0	0.0853	Open
P8928	J54_39	J54_40	120.00	250.0	125.0	0.0858	Open
P8929	J54_39	J55_39	120.00	250.0	135.0	0.0036	Open
P8930	J54_40	J54_41	120.00	300.0	125.0	0.1254	Open
P8931	J54_40	J55_40	120.00	150.0	130.0	0.0145	Open
P8932	J54_41	J54_42	120.00	150.0	140.0	0.0560	Open
P8933	J54_41	J55_41	120.00	300.0	140.0	0.0840	Open
P8934	J54_42	J54_43	120.00	300.0	140.0	0.0795	Open
P8935	J54_42	J55_42	120.00	200.0	125.0	0.0602	Open
P8936	J54_43	J54_44	120.00	300.0	130.0	0.0537	Open
P8937	J54_43	J55_43	120.00	150.0	135.0	0.0855	Open
P8938	J54_44	J54_45	120.00	300.0	125.0	0.1040	Open
P8939	J54_44	J55_44	120.00	150.0	130.0	0.1415	Open
P8940	J54_45	J54_46	120.00	300.0	140.0	0.0803	Open
P8941	J54_45	J55_45	120.00	150.0	125.0	0.1416	Open
P8942	J54_46	J54_47	120.00	350.0	130.0	0.0382	Open
P8943	J54_46	J55_46	120.00	600.0	120.0	0.0303	Open
P8944	J54_47	J54_48	120.00	300.0	125.0	0.0986	Open
P8945	J54_47	J55_47	120.00	150.0	140.0	0.0943	Open
P8946	J54_48	J54_49	120.00	250.0	135.0	0.0575	Open
P8947	J54_48	J55_48	120.00	100.0	125.0	0.0264	Open
P8948	J54_49	J54_50	120.00	300.0	125.0	0.0977	Open
P8949	J54_49	J55_49	120.00	200.0	130.0	0.1108	Open
P8950	J54_50	J54_51	120.00	200.0	125.0	0.0692	Open
P8951	J54_50	J55_50	120.00	300.0	140.0	0.0181	Open
P8952	J54_51	J54_52	120.00	100.0	125.0	0.0121	Open
P8953	J54_51	J55_51	120.00	300.0	130.0	0.0433	Open
P8954	J54_52	J54_53	120.00	250.0	140.0	0.1027	Open
P8955	J54_52	J55_52	120.00	100.0	130.0	0.1264	Open
P8956	J54_53	J54_54	120.00	150.0	130.0	0.0561	Open
P8957	J54_53	J55_53	120.00	300.0	125.0	0.1373	Open
P8958	J54_54	J54_55	120.00	100.0	135.0	0.0174	Open
P8959	J54_54	J55_54	120.00	150.0	135.0	0.0320	Open
P8960	J54_55	J54_56	120.00	600.0	125.0	0.0459	Open
P8961	J54_55	J55_55	120.00	400.0	130.0	0.0282	Open
P8962	J54_56	J54_57	120.00	300.0	135.0	0.0340	Open
P8963	J54_56	J55_56	120.00	100.0	140.0	0.0518	Open
P8964	J54_57	J54_58	120.00	100.0	135.0	0.0117	Open
P8965	J54_57	J55_57	120.00	100.0	135.0	0.0659	Open
P8966	J54_58	J54_59	120.00	200.0	130.0	0.0677	Open
P8967	J54_58	J55_58	120.00	200.0	135.0	0.0951	Open
P8968	J54_59	J54_60	120.00	150.0	130.0	0.1173	Open
P8969	J54_59	J55_59	120.00	250.0	125.0	0.1429	Open
P8970	J54_60	J54_61	120.00	200.0	130.0	0.1484	Open
P8971	J54_60	J55_60	120.00	150.0	125.0	0.0135	Open
P8972	J54_61	J54_62	120.00	100.0	140.0	0.0753	Open
P8973	J54_61	J55_61	120.00	250.0	135.0	0.0943	Open
P8974	J54_62	J54_63	120.00	100.0	135.0	0.1019	Open
P8975	J54_62	J55_62	120.00	250.0	130.0	0.0086	Open
P8976	J54_63	J54_64	120.00	250.0	140.0	0.0566	Open
P8977	J54_63	J55_63	120.00	250.0	140.0	0.0488	Open
P8978	J54_64	J54_65	120.00	350.0	130.0	0.0055	Open
P8979	J54_64	J55_64	120.00	400.0	125.0	0.0051	Open
P8980	J54_65	J54_66	120.00	200.0	140.0	0.0760	Open
P8981	J54_65	J55_65	120.00	300.0	130.0	0.0204	Open
P8982	J54_66	J54_67	120.00	250.0	130.0	0.1141	Open
P8983	J54_66	J55_66	120.00	150.0	130.0	0.0879	Open
P8984	J54_67	J54_68	120.00	150.0	125.0	0.0477	Open
P8985	J54_67	J55_67	120.00	200.0	140.0	0.1056	Open
P8986	J54_68	J54_69	120.00	100.0	140.0	0.0482	Open
P8987	J54_68	J55_68	120.00	200.0	140.0	0.0345	Open
P8988	J54_69	J54_70	120.00	250.0	130.0	0.0107	Open
P8989	J54_69	J55_69	120.00	250.0	135.0	0.1133	Open
P8990	J54_70	J54_71	120.00	200.0	140.0	0.1487	Open
P8991	J54_70	J55_70	120.00	150.0	135.0	0.0614	Open
P8992	J54_71	J54_72	120.00	100.0	130.0	0.1492	Open
P8993	J54_71	J55_71	120.00	300.0	135.0	0.1020	Open
P8994	J54_72	J54_73	120.00	150.0	140.0	0.0615	Open
P8995	J54_72	J55_72	120.00	150.0	130.0	0.0838	Open
P8996	J54_73	J54_74	120.00	600.0	130.0	0.0294	Open
P8997	J54_73	J55_73	120.00	350.0	125.0	0.0371	Open
P8998	J54_74	J54_75	120.00	150.0	130.0	0.1386	Open
P8999	J54_74	J55_74	120.00	300.0	125.0	0.1020	Open
P9000	J54_75	J54_76	120.00	300.0	135.0	0.1406	Open
P9001	J54_75	J55_75	120.00	100.0	125.0	0.0994	Open
P9002	J54_76	J54_77	120.00	300.0	130.0	0.0270	Open
P9003	J54_76	J55_76	120.00	200.0	130.0	0.0667	Open
P9004	J54_77	J54_78	120.00	300.0	130.0	0.1213	Open
P9005	J54_77	J55_77	120.00	100.0	140.0	0.0339	Open
P9006	J54_78	J54_79	120.00	150.0	135.0	0.0613	Open
P9007	J54_78	J55_78	120.00	300.0	140.0	0.0040	Open
P9008	J54_79	J54_80	120.00	100.0	130.0	0.1090	Open
P9009	J54_79	J55_79	120.00	200.0	140.0	0.1252	Open
P9010	J54_80	J54_81	120.00	200.0	135.0	0.0796	Open
P9011	J54_80	J55_80	120.00	100.0	125.0	0.1015	Open
P9012	J54_81	J54_82	120.00	300.0	135.0	0.0584	Open
P9013	J54_81	J55_81	120.00	100.0	125.0	0.0459	Open
P9014	J54_82	J54_83	120.00	350.0	125.0	0.0113	Open
P9015	J54_82	J55_82	120.00	450.0	130.0	0.0182	Open
P9016	J54_83	J54_84	120.00	200.0	125.0	0.0760	Open
P9017	J54_83	J55_83	120.00	250.0	140.0	0.0795	Open
P9018	J54_84	J55_84	120.00	300.0	140.0	0.1027	Open
P9019	J55_1	J55_2	120.00	300.0	125.0	0.0067	Open
P9020	J55_1	J56_1	120.00	350.0	125.0	0.0148	Open
P9021	J55_2	J55_3	120.00	400.0	120.0	0.0189	Open
P9022	J55_2	J56_2	120.00	350.0	120.0	0.0294	Open
P9023	J55_3	J55_4	120.00	350.0	120.0	0.0190	Open
P9024	J55_3	J56_3	120.00	300.0	125.0	0.0398	Open
P9025	J55_4	J55_5	120.00	600.0	120.0	0.0146	Open
P9026	J55_4	J56_4	120.00	300.0	120.0	0.0363	Open
P9027	J55_5	J55_6	120.00	450.0	130.0	0.0029	Open
P9028	J55_5	J56_5	120.00	500.0	120.0	0.0084	Open
P9029	J55_6	J55_7	120.00	500.0	120.0	0.0061	Open
P9030	J55_6	J56_6	120.00	600.0	125.0	0.0308	Open
P9031	J55_7	J55_8	120.00	600.0	125.0	0.0453	Open
P9032	J55_7	J56_7	120.00	450.0	125.0	0.0464	Open
P9033	J55_8	J55_9	120.00	350.0	125.0	0.0075	Open
P9034	J55_8	J56_8	120.00	600.0	125.0	0.0239	Open
P9035	J55_9	J55_10	120.00	300.0	130.0	0.0428	Open
P9036	J55_9	J56_9	120.00	600.0	130.0	0.0042	Open
P9037	J55_10	J55_11	120.00	400.0	125.0	0.0141	Open
P9038	J55_10	J56_10	120.00	300.0	120.0	0.0395	Open
P9039	J55_11	J55_12	120.00	600.0	120.0	0.0179	Open
P9040	J55_11	J56_11	120.00	500.0	130.0	0.0186	Open
P9041	J55_12	J55_13	120.00	350.0	120.0	0.0385	Open
P9042	J55_12	J56_12	120.00	600.0	125.0	0.0463	Open
P9043	J55_13	J55_14	120.00	450.0	130.0	0.0107	Open
P9044	J55_13	J56_13	120.00	400.0	120.0	0.0340	Open
P9045	J55_14	J55_15	120.00	500.0	120.0	0.0373	Open
P9046	J55_14	J56_14	120.00	500.0	125.0	0.0416	Open
P9047	J55_15	J55_16	120.00	600.0	120.0	0.0315	Open
P9048	J55_15	J56_15	120.00	350.0	125.0	0.0055	Open
P9049	J55_16	J55_17	120.00	350.0	130.0	0.0039	Open
P9050	J55_16	J56_16	120.00	350.0	125.0	0.0041	Open
P9051	J55_17	J55_18	120.00	350.0	125.0	0.0040	Open
P9052	J55_17	J56_17	120.00	350.0	125.0	0.0277	Open
P9053	J55_18	J55_19	120.00	450.0	120.0	0.0417	Open
P9054	J55_18	J56_18	120.00	500.0	130.0	0.0419	Open
P9055	J55_19	J55_20	120.00	300.0	130.0	0.0170	Open
P9056	J55_19	J56_19	120.00	400.0	125.0	0.0023	Open
P9057	J55_20	J55_21	120.00	400.0	120.0	0.0216	Open
P9058	J55_20	J56_20	120.00	400.0	130.0	0.0344	Open
P9059	J55_21	J55_22	120.00	400.0	125.0	0.0136	Open
P9060	J55_21	J56_21	120.00	400.0	125.0	0.0224	Open
P9061	J55_22	J55_23	120.00	500.0	120.0	0.0196	Open
P9062	J55_22	J56_22	120.00	400.0	120.0	0.0100	Open
P9063	J55_23	J55_24	120.00	350.0	120.0	0.0470	Open
P9064	J55_23	J56_23	120.00	500.0	130.0	0.0052	Open
P9065	J55_24	J55_25	120.00	600.0	130.0	0.0430	Open
P9066	J55_24	J56_24	120.00	500.0	120.0	0.0489	Open
P9067	J55_25	J55_26	120.00	400.0	125.0	0.0113	Open
P9068	J55_25	J56_25	120.00	500.0	130.0	0.0403	Open
P9069	J55_26	J55_27	120.00	350.0	130.0	0.0295	Open
P9070	J55_26	J56_26	120.00	500.0	125.0	0.0281	Open
P9071	J55_27	J55_28	120.00	350.0	130.0	0.0003	Open
P9072	J55_27	J56_27	120.00	400.0	130.0	0.0086	Open
P9073	J55_28	J55_29	120.00	350.0	130.0	0.0247	Open
P9074	J55_28	J56_28	120.00	450.0	120.0	0.0346	Open
P9075	J55_29	J55_30	120.00	600.0	120.0	0.0137	Open
P9076	J55_29	J56_29	120.00	400.0	125.0	0.0044	Open
P9077	J55_30	J55_31	120.00	600.0	130.0	0.0401	Open
P9078	J55_30	J56_30	120.00	300.0	125.0	0.0226	Open
P9079	J55_31	J55_32	120.00	300.0	130.0	0.0157	Open
P9080	J55_31	J56_31	120.00	400.0	130.0	0.0294	Open
P9081	J55_32	J55_33	120.00	350.0	120.0	0.0342	Open
P9082	J55_32	J56_32	120.00	300.0	120.0	0.0475	Open
P9083	J55_33	J55_34	120.00	450.0	125.0	0.0078	Open
P9084	J55_33	J56_33	120.00	350.0	130.0	0.0444	Open
P9085	J55_34	J55_35	120.00	300.0	130.0	0.0475	Open
P9086	J55_34	J56_34	120.00	450.0	130.0	0.0473	Open
P9087	J55_35	J55_36	120.00	450.0	125.0	0.0005	Open
P9088	J55_35	J56_35	120.00	500.0	120.0	0.0445	Open
P9089	J55_36	J55_37	120.00	450.0	125.0	0.0062	Open
P9090	J55_36	J56_36	120.00	500.0	130.0	0.0461	Open
P9091	J55_37	J55_38	120.00	600.0	125.0	0.0306	Open
P9092	J55_37	J56_37	120.00	450.0	120.0	0.0263	Open
P9093	J55_38	J55_39	120.00	300.0	125.0	0.0419	Open
P9094	J55_38	J56_38	120.00	500.0	120.0	0.0328	Open
P9095	J55_39	J55_40	120.00	600.0	130.0	0.0428	Open
P9096	J55_39	J56_39	120.00	350.0	125.0	0.0340	Open
P9097	J55_40	J55_41	120.00	400.0	120.0	0.0401	Open
P9098	J55_40	J56_40	120.00	400.0	125.0	0.0115	Open
P9099	J55_41	J55_42	120.00	300.0	125.0	0.0373	Open
P9100	J55_41	J56_41	120.00	300.0	130.0	0.0205	Open
P9101	J55_42	J55_43	120.00	300.0	125.0	0.0065	Open
P9102	J55_42	J56_42	120.00	350.0	130.0	0.0307	Open
P9103	J55_43	J55_44	120.00	400.0	130.0	0.0376	Open
P9104	J55_43	J56_43	120.00	450.0	125.0	0.0413	Open
P9105	J55_44	J55_45	120.00	400.0	125.0	0.0058	Open
P9106	J55_44	J56_44	120.00	600.0	120.0	0.0305	Open
P9107	J55_45	J55_46	120.00	400.0	125.0	0.0251	Open
P9108	J55_45	J56_45	120.00	300.0	120.0	0.0239	Open
P9109	J55_46	J55_47	120.00	300.0	120.0	0.0302	Open
P9110	J55_46	J56_46	120.00	300.0	130.0	0.0252	Open
P9111	J55_47	J55_48	120.00	600.0	125.0	0.0267	Open
P9112	J55_47	J56_47	120.00	500.0	125.0	0.0432	Open
P9113	J55_48	J55_49	120.00	400.0	120.0	0.0312	Open
P9114	J55_48	J56_48	120.00	400.0	125.0	0.0048	Open
P9115	J55_49	J55_50	120.00	600.0	120.0	0.0461	Open
P9116	J55_49	J56_49	120.00	600.0	125.0	0.0396	Open
P9117	J55_50	J55_51	120.00	350.0	125.0	0.0441	Open
P9118	J55_50	J56_50	120.00	300.0	120.0	0.0420	Open
P9119	J55_51	J55_52	120.00	600.0	120.0	0.0104	Open
P9120	J55_51	J56_51	120.00	600.0	130.0	0.0306	Open
P9121	J55_52	J55_53	120.00	450.0	125.0	0.0080	Open
P9122	J55_52	J56_52	120.00	600.0	130.0	0.0474	Open
P9123	J55_53	J55_54	120.00	350.0	125.0	0.0489	Open
P9124	J55_53	J56_53	120.00	450.0	125.0	0.0357	Open
P9125	J55_54	J55_55	120.00	500.0	130.0	0.0469	Open
P9126	J55_54	J56_54	120.00	600.0	130.0	0.0442	Open
P9127	J55_55	J55_56	120.00	400.0	130.0	0.0145	Open
P9128	J55_55	J56_55	120.00	500.0	125.0	0.0311	Open
P9129	J55_56	J55_57	120.00	400.0	130.0	0.0194	Open
P9130	J55_56	J56_56	120.00	350.0	130.0	0.0316	Open
P9131	J55_57	J55_58	120.00	300.0	125.0	0.0433	Open
P9132	J55_57	J56_57	120.00	450.0	120.0	0.0252	Open
P9133	J55_58	J55_59	120.00	450.0	120.0	0.0039	Open
P9134	J55_58	J56_58	120.00	500.0	130.0	0.0189	Open
P9135	J55_59	J55_60	120.00	400.0	120.0	0.0015	Open
P9136	J55_59	J56_59	120.00	450.0	120.0	0.0087	Open
P9137	J55_60	J55_61	120.00	500.0	120.0	0.0192	Open
P9138	J55_60	J56_60	120.00	400.0	120.0	0.0274	Open
P9139	J55_61	J55_62	120.00	600.0	120.0	0.0200	Open
P9140	J55_61	J56_61	120.00	500.0	130.0	0.0456	Open
P9141	J55_62	J55_63	120.00	350.0	130.0	0.0173	Open
P9142	J55_62	J56_62	120.00	400.0	120.0	0.0034	Open
P9143	J55_63	J55_64	120.00	500.0	120.0	0.0284	Open
P9144	J55_63	J56_63	120.00	500.0	125.0	0.0278	Open
P9145	J55_64	J55_65	120.00	350.0	120.0	0.0277	Open
P9146	J55_64	J56_64	120.00	300.0	130.0	0.0180	Open
P9147	J55_65	J55_66	120.00	500.0	130.0	0.0193	Open
P9148	J55_65	J56_65	120.00	350.0	125.0	0.0417	Open
P9149	J55_66	J55_67	120.00	450.0	120.0	0.0330	Open
P9150	J55_66	J56_66	120.00	300.0	120.0	0.0483	Open
P9151	J55_67	J55_68	120.00	500.0	125.0	0.0239	Open
P9152	J55_67	J56_67	120.00	450.0	120.0	0.0299	Open
P9153	J55_68	J55_69	120.00	600.0	130.0	0.0256	Open
P9154	J55_68	J56_68	120.00	300.0	120.0	0.0293	Open
P9155	J55_69	J55_70	120.00	600.0	130.0	0.0232	Open
P9156	J55_69	J56_69	120.00	400.0	130.0	0.0253	Open
P9157	J55_70	J55_71	120.00	400.0	125.0	0.0382	Open
P9158	J55_70	J56_70	120.00	600.0	130.0	0.0169	Open
P9159	J55_71	J55_72	120.00	400.0	120.0	0.0117	Open
P9160	J55_71	J56_71	120.00	450.0	125.0	0.0378	Open
P9161	J55_72	J55_73	120.00	400.0	130.0	0.0497	Open
P9162	J55_72	J56_72	120.00	450.0	125.0	0.0055	Open
P9163	J55_73	J55_74	120.00	400.0	120.0	0.0159	Open
P9164	J55_73	J56_73	120.00	500.0	120.0	0.0223	Open
P9165	J55_74	J55_75	120.00	500.0	130.0	0.0332	Open
P9166	J55_74	J56_74	120.00	450.0	130.0	0.0315	Open
P9167	J55_75	J55_76	120.00	350.0	125.0	0.0338	Open
P9168	J55_75	J56_75	120.00	500.0	130.0	0.0072	Open
P9169	J55_76	J55_77	120.00	350.0	125.0	0.0412	Open
P9170	J55_76	J56_76	120.00	350.0	130.0	0.0423	Open
P9171	J55_77	J55_78	120.00	500.0	120.0	0.0147	Open
P9172	J55_77	J56_77	120.00	300.0	130.0	0.0342	Open
P9173	J55_78	J55_79	120.00	300.0	120.0	0.0455	Open
P9174	J55_78	J56_78	120.00	450.0	120.0	0.0167	Open
P9175	J55_79	J55_80	120.00	400.0	125.0	0.0086	Open
P9176	J55_79	J56_79	120.00	350.0	130.0	0.0341	Open
P9177	J55_80	J55_81	120.00	450.0	125.0	0.0439	Open
P9178	J55_80	J56_80	120.00	300.0	125.0	0.0012	Open
P9179	J55_81	J55_82	120.00	600.0	120.0	0.0382	Open
P9180	J55_81	J56_81	120.00	300.0	130.0	0.0436	Open
P9181	J55_82	J55_83	120.00	400.0	125.0	0.0120	Open
P9182	J55_82	J56_82	120.00	500.0	125.0	0.0436	Open
P9183	J55_83	J55_84	120.00	300.0	120.0	0.0492	Open
P9184	J55_83	J56_83	120.00	350.0	130.0	0.0423	Open
P9185	J55_84	J56_84	120.00	600.0	120.0	0.0379	Open
P9186	J56_1	J56_2	120.00	500.0	125.0	0.0380	Open
P9187	J56_2	J56_3	120.00	300.0	135.0	0.1026	Open
P9188	J56_3	J56_4	120.00	200.0	125.0	0.0570	Open
P9189	J56_4	J56_5	120.00	200.0	135.0	0.1102	Open
P9190	J56_5	J56_6	120.00	100.0	125.0	0.0064	Open
P9191	J56_6	J56_7	120.00	100.0	125.0	0.0060	Open
P9192	J56_7	J56_8	120.00	150.0	140.0	0.0520	Open
P9193	J56_8	J56_9	120.00	150.0	125.0	0.1334	Open
P9194	J56_9	J56_10	120.00	100.0	125.0	0.1489	Open
P9195	J56_10	J56_11	120.00	400.0	120.0	0.0153	Open
P9196	J56_11	J56_12	120.00	200.0	140.0	0.0731	Open
P9197	J56_12	J56_13	120.00	150.0	135.0	0.0709	Open
P9198	J56_13	J56_14	120.00	150.0	140.0	0.0315	Open
P9199	J56_14	J56_15	120.00	300.0	135.0	0.1423	Open
P9200	J56_15	J56_16	120.00	200.0	125.0	0.0036	Open
P9201	J56_16	J56_17	120.00	150.0	130.0	0.0432	Open
P9202	J56_17	J56_18	120.00	200.0	125.0	0.0760	Open
P9203	J56_18	J56_19	120.00	200.0	125.0	0.1198	Open
P9204	J56_19	J56_20	120.00	500.0	125.0	0.0237	Open
P9205	J56_20	J56_21	120.00	200.0	125.0	0.1263	Open
P9206	J56_21	J56_22	120.00	250.0	135.0	0.0464	Open
P9207	J56_22	J56_23	120.00	300.0	130.0	0.1149	Open
P9208	J56_23	J56_24	120.00	150.0	130.0	0.0890	Open
P9209	J56_24	J56_25	120.00	200.0	140.0	0.0588	Open
P9210	J56_25	J56_26	120.00	250.0	140.0	0.0193	Open
P9211	J56_26	J56_27	120.00	200.0	135.0	0.0917	Open
P9212	J56_27	J56_28	120.00	150.0	140.0	0.0456	Open
P9213	J56_28	J56_29	120.00	350.0	120.0	0.0202	Open
P9214	J56_29	J56_30	120.00	250.0	135.0	0.0419	Open
P9215	J56_30	J56_31	120.00	300.0	135.0	0.0775	Open
P9216	J56_31	J56_32	120.00	150.0	140.0	0.0105	Open
P9217	J56_32	J56_33	120.00	150.0	125.0	0.0040	Open
P9218	J56_33	J56_34	120.00	250.0	140.0	0.0972	Open
P9219	J56_34	J56_35	120.00	300.0	130.0	0.0164	Open
P9220	J56_35	J56_36	120.00	150.0	135.0	0.1385	Open
P9221	J56_36	J56_37	120.00	300.0	125.0	0.0647	Open
P9222	J56_37	J56_38	120.00	500.0	125.0	0.0310	Open
P9223	J56_38	J56_39	120.00	300.0	130.0	0.0474	Open
P9224	J56_39	J56_40	120.00	150.0	135.0	0.1212	Open
P9225	J56_40	J56_41	120.00	300.0	125.0	0.0448	Open
P9226	J56_41	J56_42	120.00	250.0	140.0	0.1375	Open
P9227	J56_42	J56_43	120.00	150.0	140.0	0.1104	Open
P9228	J56_43	J56_44	120.00	300.0	140.0	0.0524	Open
P9229	J56_44	J56_45	120.00	150.0	130.0	0.1239	Open
P9230	J56_45	J56_46	120.00	200.0	140.0	0.0157	Open
P9231	J56_46	J56_47	120.00	500.0	125.0	0.0364	Open
P9232	J56_47	J56_48	120.00	250.0	125.0	0.0948	Open
P9233	J56_48	J56_49	120.00	250.0	125.0	0.1099	Open
P9234	J56_49	J56_50	120.00	300.0	130.0	0.0348	Open
P9235	J56_50	J56_51	120.00	100.0	135.0	0.0206	Open
P9236	J56_51	J56_52	120.00	150.0	125.0	0.1039	Open
P9237	J56_52	J56_53	120.00	300.0	130.0	0.0349	Open
P9238	J56_53	J56_54	120.00	200.0	125.0	0.1099	Open
P9239	J56_54	J56_55	120.00	200.0	140.0	0.0713	Open
P9240	J56_55	J56_56	120.00	500.0	130.0	0.0189	Open
P9241	J56_56	J56_57	120.00	200.0	135.0	0.1176	Open
P9242	J56_57	J56_58	120.00	150.0	140.0	0.0534	Open
P9243	J56_58	J56_59	120.00	100.0	125.0	0.0493	Open
P9244	J56_59	J56_60	120.00	100.0	140.0	0.0121	Open
P9245	J56_60	J56_61	120.00	300.0	125.0	0.0421	Open
P9246	J56_61	J56_62	120.00	200.0	125.0	0.1416	Open
P9247	J56_62	J56_63	120.00	300.0	135.0	0.1023	Open
P9248	J56_63	J56_64	120.00	300.0	140.0	0.0050	Open
P9249	J56_64	J56_65	120.00	350.0	125.0	0.0374	Open
P9250	J56_65	J56_66	120.00	250.0	125.0	0.0582	Open
P9251	J56_66	J56_67	120.00	300.0	135.0	0.1182	Open
P9252	J56_67	J56_68	120.00	150.0	140.0	0.0066	Open
P9253	J56_68	J56_69	120.00	250.0	135.0	0.0451	Open
P9254	J56_69	J56_70	120.00	300.0	135.0	0.0165	Open
P9255	J56_70	J56_71	120.00	200.0	140.0	0.0628	Open
P9256	J56_71	J56_72	120.00	200.0	125.0	0.1051	Open
P9257	J56_72	J56_73	120.00	300.0	130.0	0.0720	Open
P9258	J56_73	J56_74	120.00	300.0	120.0	0.0253	Open
P9259	J56_74	J56_75	120.00	300.0	125.0	0.0143	Open
P9260	J56_75	J56_76	120.00	150.0	140.0	0.1147	Open
P9261	J56_76	J56_77	120.00	100.0	140.0	0.0747	Open
P9262	J56_77	J56_78	120.00	150.0	135.0	0.0239	Open
P9263	J56_78	J56_79	120.00	200.0	125.0	0.0190	Open
P9264	J56_79	J56_80	120.00	300.0	140.0	0.0745	Open
P9265	J56_80	J56_81	120.00	150.0	140.0	0.0592	Open
P9266	J56_81	J56_82	120.00	300.0	140.0	0.0879	Open
P9267	J56_82	J56_83	120.00	600.0	130.0	0.0474	Open
P9268	J56_83	J56_84	120.00	200.0	135.0	0.0085	Open
P9269	T1	J33_10	144.00	500.0	120.0	0.0200	Open
P9270	T2	J29_26	144.00	500.0	120.0	0.0200	Open
P9271	T3	J29_43	144.00	500.0	120.0	0.0200	Open
P9272	T4	J29_59	144.00	500.0	120.0	0.0200	Open
P9273	T5	J24_75	144.00	500.0	120.0	0.0200	Open

P9274	R1	J29_1	1200.00	300.0	120.0	0.0000	Open

[PUMPS]
;ID	Node1	Node2	Parameters
PU1	R1	T1	HEAD	H_PUMP_MAIN


[VALVES]
;ID	Node1	Node2	Diameter	Type	Setting	MinorLoss

[PATTERNS]
;ID	Multipliers
P_RES	0.550	0.480	0.430	0.410	0.450	0.620	0.840	1.050	1.020	0.940	0.900	0.920	0.950	0.970	1.000	1.050	1.180	1.320	1.380	1.300	1.120	0.930	0.760	0.630
P_COM	0.160	0.140	0.120	0.110	0.140	0.240	0.480	0.860	1.120	1.200	1.220	1.210	1.180	1.160	1.140	1.170	1.130	1.050	0.840	0.600	0.440	0.330	0.250	0.190
P_IND	0.820	0.800	0.780	0.780	0.800	0.880	0.960	1.030	1.070	1.100	1.120	1.100	1.080	1.060	1.080	1.090	1.080	1.050	1.000	0.950	0.920	0.900	0.870	0.840


[CURVES]
;ID	X-Value	Y-Value
H_PUMP_MAIN	0	85
H_PUMP_MAIN	0.8	72
H_PUMP_MAIN	1.6	56
H_PUMP_MAIN	2.4	35


[CONTROLS]
LINK PU1 OPEN IF TANK T1 BELOW 4.500
LINK PU1 CLOSED IF TANK T1 ABOVE 15.500


[RULES]
; Intentionally left minimal; controls section remains active

[STATUS]
;ID	Status/Setting
P211	CLOSED
P421	CLOSED
P631	CLOSED
P841	CLOSED
P1051	CLOSED
P1261	CLOSED
P1471	CLOSED
P1681	CLOSED
P1891	CLOSED
P2101	CLOSED
P2311	CLOSED
P2521	CLOSED
P2731	CLOSED
P2941	CLOSED
P3151	CLOSED
P3361	CLOSED
P3571	CLOSED
P3781	CLOSED
P3991	CLOSED
P4201	CLOSED
P4411	CLOSED
P4621	CLOSED
P4831	CLOSED
P5041	CLOSED
P5251	CLOSED
P5461	CLOSED
P5671	CLOSED
P5881	CLOSED
P6091	CLOSED
P6301	CLOSED
P6511	CLOSED
P6721	CLOSED
P6931	CLOSED
P7141	CLOSED
P7351	CLOSED
P7561	CLOSED
P7771	CLOSED
P7981	CLOSED
P8191	CLOSED
P8401	CLOSED
P8611	CLOSED
P8821	CLOSED
P9031	CLOSED
P9241	CLOSED

[EMITTERS]
;Junction	Coefficient
J4_9	0.140
J7_17	0.180
J10_25	0.220
J13_33	0.260
J16_41	0.300
J19_49	0.340
J22_57	0.100
J25_65	0.140
J28_73	0.180
J31_81	0.220
J35_5	0.260
J38_13	0.300
J41_21	0.340
J44_29	0.100
J47_37	0.140
J50_45	0.180
J53_53	0.220
J56_61	0.260

[QUALITY]
;Node	InitQual

[SOURCES]
;Node	Type	Quality	Pattern

[REACTIONS]
ORDER BULK	1
ORDER TANK	1
ORDER WALL	1
GLOBAL BULK	-0.15
GLOBAL WALL	-0.55

[ENERGY]
GLOBAL EFFICIENCY	81
GLOBAL PRICE	0.15
DEMAND CHARGE	3.5

[MIXING]

[TIMES]
DURATION	18:00
HYDRAULIC TIMESTEP	1:00
QUALITY TIMESTEP	0:15
PATTERN TIMESTEP	1:00
REPORT TIMESTEP	1:00

[REPORT]
STATUS	YES
SUMMARY	YES
NODES	NONE
LINKS	NONE

[OPTIONS]
UNITS	CMD
HEADLOSS	C-M
TRIALS	120
ACCURACY	0.0008
CHECKFREQ	1
MAXCHECK	40
UNBALANCED	CONTINUE 30
DEMAND MULTIPLIER	1.25
DEMAND MODEL	PDA
MINIMUM PRESSURE	5
REQUIRED PRESSURE	30
PRESSURE EXPONENT	0.5
QUALITY	TRACE J1_1

[COORDINATES]
;Node	X-Coord	Y-Coord
R1	-240.00	-240.00
J1_1	0.00	0.00
J1_2	120.00	0.00
J1_3	240.00	0.00
J1_4	360.00	0.00
J1_5	480.00	0.00
J1_6	600.00	0.00
J1_7	720.00	0.00
J1_8	840.00	0.00
J1_9	960.00	0.00
J1_10	1080.00	0.00
J1_11	1200.00	0.00
J1_12	1320.00	0.00
J1_13	1440.00	0.00
J1_14	1560.00	0.00
J1_15	1680.00	0.00
J1_16	1800.00	0.00
J1_17	1920.00	0.00
J1_18	2040.00	0.00
J1_19	2160.00	0.00
J1_20	2280.00	0.00
J1_21	2400.00	0.00
J1_22	2520.00	0.00
J1_23	2640.00	0.00
J1_24	2760.00	0.00
J1_25	2880.00	0.00
J1_26	3000.00	0.00
J1_27	3120.00	0.00
J1_28	3240.00	0.00
J1_29	3360.00	0.00
J1_30	3480.00	0.00
J1_31	3600.00	0.00
J1_32	3720.00	0.00
J1_33	3840.00	0.00
J1_34	3960.00	0.00
J1_35	4080.00	0.00
J1_36	4200.00	0.00
J1_37	4320.00	0.00
J1_38	4440.00	0.00
J1_39	4560.00	0.00
J1_40	4680.00	0.00
J1_41	4800.00	0.00
J1_42	4920.00	0.00
J1_43	5040.00	0.00
J1_44	5160.00	0.00
J1_45	5280.00	0.00
J1_46	5400.00	0.00
J1_47	5520.00	0.00
J1_48	5640.00	0.00
J1_49	5760.00	0.00
J1_50	5880.00	0.00
J1_51	6000.00	0.00
J1_52	6120.00	0.00
J1_53	6240.00	0.00
J1_54	6360.00	0.00
J1_55	6480.00	0.00
J1_56	6600.00	0.00
J1_57	6720.00	0.00
J1_58	6840.00	0.00
J1_59	6960.00	0.00
J1_60	7080.00	0.00
J1_61	7200.00	0.00
J1_62	7320.00	0.00
J1_63	7440.00	0.00
J1_64	7560.00	0.00
J1_65	7680.00	0.00
J1_66	7800.00	0.00
J1_67	7920.00	0.00
J1_68	8040.00	0.00
J1_69	8160.00	0.00
J1_70	8280.00	0.00
J1_71	8400.00	0.00
J1_72	8520.00	0.00
J1_73	8640.00	0.00
J1_74	8760.00	0.00
J1_75	8880.00	0.00
J1_76	9000.00	0.00
J1_77	9120.00	0.00
J1_78	9240.00	0.00
J1_79	9360.00	0.00
J1_80	9480.00	0.00
J1_81	9600.00	0.00
J1_82	9720.00	0.00
J1_83	9840.00	0.00
J1_84	9960.00	0.00
J2_1	0.00	120.00
J2_2	120.00	120.00
J2_3	240.00	120.00
J2_4	360.00	120.00
J2_5	480.00	120.00
J2_6	600.00	120.00
J2_7	720.00	120.00
J2_8	840.00	120.00
J2_9	960.00	120.00
J2_10	1080.00	120.00
J2_11	1200.00	120.00
J2_12	1320.00	120.00
J2_13	1440.00	120.00
J2_14	1560.00	120.00
J2_15	1680.00	120.00
J2_16	1800.00	120.00
J2_17	1920.00	120.00
J2_18	2040.00	120.00
J2_19	2160.00	120.00
J2_20	2280.00	120.00
J2_21	2400.00	120.00
J2_22	2520.00	120.00
J2_23	2640.00	120.00
J2_24	2760.00	120.00
J2_25	2880.00	120.00
J2_26	3000.00	120.00
J2_27	3120.00	120.00
J2_28	3240.00	120.00
J2_29	3360.00	120.00
J2_30	3480.00	120.00
J2_31	3600.00	120.00
J2_32	3720.00	120.00
J2_33	3840.00	120.00
J2_34	3960.00	120.00
J2_35	4080.00	120.00
J2_36	4200.00	120.00
J2_37	4320.00	120.00
J2_38	4440.00	120.00
J2_39	4560.00	120.00
J2_40	4680.00	120.00
J2_41	4800.00	120.00
J2_42	4920.00	120.00
J2_43	5040.00	120.00
J2_44	5160.00	120.00
J2_45	5280.00	120.00
J2_46	5400.00	120.00
J2_47	5520.00	120.00
J2_48	5640.00	120.00
J2_49	5760.00	120.00
J2_50	5880.00	120.00
J2_51	6000.00	120.00
J2_52	6120.00	120.00
J2_53	6240.00	120.00
J2_54	6360.00	120.00
J2_55	6480.00	120.00
J2_56	6600.00	120.00
J2_57	6720.00	120.00
J2_58	6840.00	120.00
J2_59	6960.00	120.00
J2_60	7080.00	120.00
J2_61	7200.00	120.00
J2_62	7320.00	120.00
J2_63	7440.00	120.00
J2_64	7560.00	120.00
J2_65	7680.00	120.00
J2_66	7800.00	120.00
J2_67	7920.00	120.00
J2_68	8040.00	120.00
J2_69	8160.00	120.00
J2_70	8280.00	120.00
J2_71	8400.00	120.00
J2_72	8520.00	120.00
J2_73	8640.00	120.00
J2_74	8760.00	120.00
J2_75	8880.00	120.00
J2_76	9000.00	120.00
J2_77	9120.00	120.00
J2_78	9240.00	120.00
J2_79	9360.00	120.00
J2_80	9480.00	120.00
J2_81	9600.00	120.00
J2_82	9720.00	120.00
J2_83	9840.00	120.00
J2_84	9960.00	120.00
J3_1	0.00	240.00
J3_2	120.00	240.00
J3_3	240.00	240.00
J3_4	360.00	240.00
J3_5	480.00	240.00
J3_6	600.00	240.00
J3_7	720.00	240.00
J3_8	840.00	240.00
J3_9	960.00	240.00
J3_10	1080.00	240.00
J3_11	1200.00	240.00
J3_12	1320.00	240.00
J3_13	1440.00	240.00
J3_14	1560.00	240.00
J3_15	1680.00	240.00
J3_16	1800.00	240.00
J3_17	1920.00	240.00
J3_18	2040.00	240.00
J3_19	2160.00	240.00
J3_20	2280.00	240.00
J3_21	2400.00	240.00
J3_22	2520.00	240.00
J3_23	2640.00	240.00
J3_24	2760.00	240.00
J3_25	2880.00	240.00
J3_26	3000.00	240.00
J3_27	3120.00	240.00
J3_28	3240.00	240.00
J3_29	3360.00	240.00
J3_30	3480.00	240.00
J3_31	3600.00	240.00
J3_32	3720.00	240.00
J3_33	3840.00	240.00
J3_34	3960.00	240.00
J3_35	4080.00	240.00
J3_36	4200.00	240.00
J3_37	4320.00	240.00
J3_38	4440.00	240.00
J3_39	4560.00	240.00
J3_40	4680.00	240.00
J3_41	4800.00	240.00
J3_42	4920.00	240.00
J3_43	5040.00	240.00
J3_44	5160.00	240.00
J3_45	5280.00	240.00
J3_46	5400.00	240.00
J3_47	5520.00	240.00
J3_48	5640.00	240.00
J3_49	5760.00	240.00
J3_50	5880.00	240.00
J3_51	6000.00	240.00
J3_52	6120.00	240.00
J3_53	6240.00	240.00
J3_54	6360.00	240.00
J3_55	6480.00	240.00
J3_56	6600.00	240.00
J3_57	6720.00	240.00
J3_58	6840.00	240.00
J3_59	6960.00	240.00
J3_60	7080.00	240.00
J3_61	7200.00	240.00
J3_62	7320.00	240.00
J3_63	7440.00	240.00
J3_64	7560.00	240.00
J3_65	7680.00	240.00
J3_66	7800.00	240.00
J3_67	7920.00	240.00
J3_68	8040.00	240.00
J3_69	8160.00	240.00
J3_70	8280.00	240.00
J3_71	8400.00	240.00
J3_72	8520.00	240.00
J3_73	8640.00	240.00
J3_74	8760.00	240.00
J3_75	8880.00	240.00
J3_76	9000.00	240.00
J3_77	9120.00	240.00
J3_78	9240.00	240.00
J3_79	9360.00	240.00
J3_80	9480.00	240.00
J3_81	9600.00	240.00
J3_82	9720.00	240.00
J3_83	9840.00	240.00
J3_84	9960.00	240.00
J4_1	0.00	360.00
J4_2	120.00	360.00
J4_3	240.00	360.00
J4_4	360.00	360.00
J4_5	480.00	360.00
J4_6	600.00	360.00
J4_7	720.00	360.00
J4_8	840.00	360.00
J4_9	960.00	360.00
J4_10	1080.00	360.00
J4_11	1200.00	360.00
J4_12	1320.00	360.00
J4_13	1440.00	360.00
J4_14	1560.00	360.00
J4_15	1680.00	360.00
J4_16	1800.00	360.00
J4_17	1920.00	360.00
J4_18	2040.00	360.00
J4_19	2160.00	360.00
J4_20	2280.00	360.00
J4_21	2400.00	360.00
J4_22	2520.00	360.00
J4_23	2640.00	360.00
J4_24	2760.00	360.00
J4_25	2880.00	360.00
J4_26	3000.00	360.00
J4_27	3120.00	360.00
J4_28	3240.00	360.00
J4_29	3360.00	360.00
J4_30	3480.00	360.00
J4_31	3600.00	360.00
J4_32	3720.00	360.00
J4_33	3840.00	360.00
J4_34	3960.00	360.00
J4_35	4080.00	360.00
J4_36	4200.00	360.00
J4_37	4320.00	360.00
J4_38	4440.00	360.00
J4_39	4560.00	360.00
J4_40	4680.00	360.00
J4_41	4800.00	360.00
J4_42	4920.00	360.00
J4_43	5040.00	360.00
J4_44	5160.00	360.00
J4_45	5280.00	360.00
J4_46	5400.00	360.00
J4_47	5520.00	360.00
J4_48	5640.00	360.00
J4_49	5760.00	360.00
J4_50	5880.00	360.00
J4_51	6000.00	360.00
J4_52	6120.00	360.00
J4_53	6240.00	360.00
J4_54	6360.00	360.00
J4_55	6480.00	360.00
J4_56	6600.00	360.00
J4_57	6720.00	360.00
J4_58	6840.00	360.00
J4_59	6960.00	360.00
J4_60	7080.00	360.00
J4_61	7200.00	360.00
J4_62	7320.00	360.00
J4_63	7440.00	360.00
J4_64	7560.00	360.00
J4_65	7680.00	360.00
J4_66	7800.00	360.00
J4_67	7920.00	360.00
J4_68	8040.00	360.00
J4_69	8160.00	360.00
J4_70	8280.00	360.00
J4_71	8400.00	360.00
J4_72	8520.00	360.00
J4_73	8640.00	360.00
J4_74	8760.00	360.00
J4_75	8880.00	360.00
J4_76	9000.00	360.00
J4_77	9120.00	360.00
J4_78	9240.00	360.00
J4_79	9360.00	360.00
J4_80	9480.00	360.00
J4_81	9600.00	360.00
J4_82	9720.00	360.00
J4_83	9840.00	360.00
J4_84	9960.00	360.00
J5_1	0.00	480.00
J5_2	120.00	480.00
J5_3	240.00	480.00
J5_4	360.00	480.00
J5_5	480.00	480.00
J5_6	600.00	480.00
J5_7	720.00	480.00
J5_8	840.00	480.00
J5_9	960.00	480.00
J5_10	1080.00	480.00
J5_11	1200.00	480.00
J5_12	1320.00	480.00
J5_13	1440.00	480.00
J5_14	1560.00	480.00
J5_15	1680.00	480.00
J5_16	1800.00	480.00
J5_17	1920.00	480.00
J5_18	2040.00	480.00
J5_19	2160.00	480.00
J5_20	2280.00	480.00
J5_21	2400.00	480.00
J5_22	2520.00	480.00
J5_23	2640.00	480.00
J5_24	2760.00	480.00
J5_25	2880.00	480.00
J5_26	3000.00	480.00
J5_27	3120.00	480.00
J5_28	3240.00	480.00
J5_29	3360.00	480.00
J5_30	3480.00	480.00
J5_31	3600.00	480.00
J5_32	3720.00	480.00
J5_33	3840.00	480.00
J5_34	3960.00	480.00
J5_35	4080.00	480.00
J5_36	4200.00	480.00
J5_37	4320.00	480.00
J5_38	4440.00	480.00
J5_39	4560.00	480.00
J5_40	4680.00	480.00
J5_41	4800.00	480.00
J5_42	4920.00	480.00
J5_43	5040.00	480.00
J5_44	5160.00	480.00
J5_45	5280.00	480.00
J5_46	5400.00	480.00
J5_47	5520.00	480.00
J5_48	5640.00	480.00
J5_49	5760.00	480.00
J5_50	5880.00	480.00
J5_51	6000.00	480.00
J5_52	6120.00	480.00
J5_53	6240.00	480.00
J5_54	6360.00	480.00
J5_55	6480.00	480.00
J5_56	6600.00	480.00
J5_57	6720.00	480.00
J5_58	6840.00	480.00
J5_59	6960.00	480.00
J5_60	7080.00	480.00
J5_61	7200.00	480.00
J5_62	7320.00	480.00
J5_63	7440.00	480.00
J5_64	7560.00	480.00
J5_65	7680.00	480.00
J5_66	7800.00	480.00
J5_67	7920.00	480.00
J5_68	8040.00	480.00
J5_69	8160.00	480.00
J5_70	8280.00	480.00
J5_71	8400.00	480.00
J5_72	8520.00	480.00
J5_73	8640.00	480.00
J5_74	8760.00	480.00
J5_75	8880.00	480.00
J5_76	9000.00	480.00
J5_77	9120.00	480.00
J5_78	9240.00	480.00
J5_79	9360.00	480.00
J5_80	9480.00	480.00
J5_81	9600.00	480.00
J5_82	9720.00	480.00
J5_83	9840.00	480.00
J5_84	9960.00	480.00
J6_1	0.00	600.00
J6_2	120.00	600.00
J6_3	240.00	600.00
J6_4	360.00	600.00
J6_5	480.00	600.00
J6_6	600.00	600.00
J6_7	720.00	600.00
J6_8	840.00	600.00
J6_9	960.00	600.00
J6_10	1080.00	600.00
J6_11	1200.00	600.00
J6_12	1320.00	600.00
J6_13	1440.00	600.00
J6_14	1560.00	600.00
J6_15	1680.00	600.00
J6_16	1800.00	600.00
J6_17	1920.00	600.00
J6_18	2040.00	600.00
J6_19	2160.00	600.00
J6_20	2280.00	600.00
J6_21	2400.00	600.00
J6_22	2520.00	600.00
J6_23	2640.00	600.00
J6_24	2760.00	600.00
J6_25	2880.00	600.00
J6_26	3000.00	600.00
J6_27	3120.00	600.00
J6_28	3240.00	600.00
J6_29	3360.00	600.00
J6_30	3480.00	600.00
J6_31	3600.00	600.00
J6_32	3720.00	600.00
J6_33	3840.00	600.00
J6_34	3960.00	600.00
J6_35	4080.00	600.00
J6_36	4200.00	600.00
J6_37	4320.00	600.00
J6_38	4440.00	600.00
J6_39	4560.00	600.00
J6_40	4680.00	600.00
J6_41	4800.00	600.00
J6_42	4920.00	600.00
J6_43	5040.00	600.00
J6_44	5160.00	600.00
J6_45	5280.00	600.00
J6_46	5400.00	600.00
J6_47	5520.00	600.00
J6_48	5640.00	600.00
J6_49	5760.00	600.00
J6_50	5880.00	600.00
J6_51	6000.00	600.00
J6_52	6120.00	600.00
J6_53	6240.00	600.00
J6_54	6360.00	600.00
J6_55	6480.00	600.00
J6_56	6600.00	600.00
J6_57	6720.00	600.00
J6_58	6840.00	600.00
J6_59	6960.00	600.00
J6_60	7080.00	600.00
J6_61	7200.00	600.00
J6_62	7320.00	600.00
J6_63	7440.00	600.00
J6_64	7560.00	600.00
J6_65	7680.00	600.00
J6_66	7800.00	600.00
J6_67	7920.00	600.00
J6_68	8040.00	600.00
J6_69	8160.00	600.00
J6_70	8280.00	600.00
J6_71	8400.00	600.00
J6_72	8520.00	600.00
J6_73	8640.00	600.00
J6_74	8760.00	600.00
J6_75	8880.00	600.00
J6_76	9000.00	600.00
J6_77	9120.00	600.00
J6_78	9240.00	600.00
J6_79	9360.00	600.00
J6_80	9480.00	600.00
J6_81	9600.00	600.00
J6_82	9720.00	600.00
J6_83	9840.00	600.00
J6_84	9960.00	600.00
J7_1	0.00	720.00
J7_2	120.00	720.00
J7_3	240.00	720.00
J7_4	360.00	720.00
J7_5	480.00	720.00
J7_6	600.00	720.00
J7_7	720.00	720.00
J7_8	840.00	720.00
J7_9	960.00	720.00
J7_10	1080.00	720.00
J7_11	1200.00	720.00
J7_12	1320.00	720.00
J7_13	1440.00	720.00
J7_14	1560.00	720.00
J7_15	1680.00	720.00
J7_16	1800.00	720.00
J7_17	1920.00	720.00
J7_18	2040.00	720.00
J7_19	2160.00	720.00
J7_20	2280.00	720.00
J7_21	2400.00	720.00
J7_22	2520.00	720.00
J7_23	2640.00	720.00
J7_24	2760.00	720.00
J7_25	2880.00	720.00
J7_26	3000.00	720.00
J7_27	3120.00	720.00
J7_28	3240.00	720.00
J7_29	3360.00	720.00
J7_30	3480.00	720.00
J7_31	3600.00	720.00
J7_32	3720.00	720.00
J7_33	3840.00	720.00
J7_34	3960.00	720.00
J7_35	4080.00	720.00
J7_36	4200.00	720.00
J7_37	4320.00	720.00
J7_38	4440.00	720.00
J7_39	4560.00	720.00
J7_40	4680.00	720.00
J7_41	4800.00	720.00
J7_42	4920.00	720.00
J7_43	5040.00	720.00
J7_44	5160.00	720.00
J7_45	5280.00	720.00
J7_46	5400.00	720.00
J7_47	5520.00	720.00
J7_48	5640.00	720.00
J7_49	5760.00	720.00
J7_50	5880.00	720.00
J7_51	6000.00	720.00
J7_52	6120.00	720.00
J7_53	6240.00	720.00
J7_54	6360.00	720.00
J7_55	6480.00	720.00
J7_56	6600.00	720.00
J7_57	6720.00	720.00
J7_58	6840.00	720.00
J7_59	6960.00	720.00
J7_60	7080.00	720.00
J7_61	7200.00	720.00
J7_62	7320.00	720.00
J7_63	7440.00	720.00
J7_64	7560.00	720.00
J7_65	7680.00	720.00
J7_66	7800.00	720.00
J7_67	7920.00	720.00
J7_68	8040.00	720.00
J7_69	8160.00	720.00
J7_70	8280.00	720.00
J7_71	8400.00	720.00
J7_72	8520.00	720.00
J7_73	8640.00	720.00
J7_74	8760.00	720.00
J7_75	8880.00	720.00
J7_76	9000.00	720.00
J7_77	9120.00	720.00
J7_78	9240.00	720.00
J7_79	9360.00	720.00
J7_80	9480.00	720.00
J7_81	9600.00	720.00
J7_82	9720.00	720.00
J7_83	9840.00	720.00
J7_84	9960.00	720.00
J8_1	0.00	840.00
J8_2	120.00	840.00
J8_3	240.00	840.00
J8_4	360.00	840.00
J8_5	480.00	840.00
J8_6	600.00	840.00
J8_7	720.00	840.00
J8_8	840.00	840.00
J8_9	960.00	840.00
J8_10	1080.00	840.00
J8_11	1200.00	840.00
J8_12	1320.00	840.00
J8_13	1440.00	840.00
J8_14	1560.00	840.00
J8_15	1680.00	840.00
J8_16	1800.00	840.00
J8_17	1920.00	840.00
J8_18	2040.00	840.00
J8_19	2160.00	840.00
J8_20	2280.00	840.00
J8_21	2400.00	840.00
J8_22	2520.00	840.00
J8_23	2640.00	840.00
J8_24	2760.00	840.00
J8_25	2880.00	840.00
J8_26	3000.00	840.00
J8_27	3120.00	840.00
J8_28	3240.00	840.00
J8_29	3360.00	840.00
J8_30	3480.00	840.00
J8_31	3600.00	840.00
J8_32	3720.00	840.00
J8_33	3840.00	840.00
J8_34	3960.00	840.00
J8_35	4080.00	840.00
J8_36	4200.00	840.00
J8_37	4320.00	840.00
J8_38	4440.00	840.00
J8_39	4560.00	840.00
J8_40	4680.00	840.00
J8_41	4800.00	840.00
J8_42	4920.00	840.00
J8_43	5040.00	840.00
J8_44	5160.00	840.00
J8_45	5280.00	840.00
J8_46	5400.00	840.00
J8_47	5520.00	840.00
J8_48	5640.00	840.00
J8_49	5760.00	840.00
J8_50	5880.00	840.00
J8_51	6000.00	840.00
J8_52	6120.00	840.00
J8_53	6240.00	840.00
J8_54	6360.00	840.00
J8_55	6480.00	840.00
J8_56	6600.00	840.00
J8_57	6720.00	840.00
J8_58	6840.00	840.00
J8_59	6960.00	840.00
J8_60	7080.00	840.00
J8_61	7200.00	840.00
J8_62	7320.00	840.00
J8_63	7440.00	840.00
J8_64	7560.00	840.00
J8_65	7680.00	840.00
J8_66	7800.00	840.00
J8_67	7920.00	840.00
J8_68	8040.00	840.00
J8_69	8160.00	840.00
J8_70	8280.00	840.00
J8_71	8400.00	840.00
J8_72	8520.00	840.00
J8_73	8640.00	840.00
J8_74	8760.00	840.00
J8_75	8880.00	840.00
J8_76	9000.00	840.00
J8_77	9120.00	840.00
J8_78	9240.00	840.00
J8_79	9360.00	840.00
J8_80	9480.00	840.00
J8_81	9600.00	840.00
J8_82	9720.00	840.00
J8_83	9840.00	840.00
J8_84	9960.00	840.00
J9_1	0.00	960.00
J9_2	120.00	960.00
J9_3	240.00	960.00
J9_4	360.00	960.00
J9_5	480.00	960.00
J9_6	600.00	960.00
J9_7	720.00	960.00
J9_8	840.00	960.00
J9_9	960.00	960.00
J9_10	1080.00	960.00
J9_11	1200.00	960.00
J9_12	1320.00	960.00
J9_13	1440.00	960.00
J9_14	1560.00	960.00
J9_15	1680.00	960.00
J9_16	1800.00	960.00
J9_17	1920.00	960.00
J9_18	2040.00	960.00
J9_19	2160.00	960.00
J9_20	2280.00	960.00
J9_21	2400.00	960.00
J9_22	2520.00	960.00
J9_23	2640.00	960.00
J9_24	2760.00	960.00
J9_25	2880.00	960.00
J9_26	3000.00	960.00
J9_27	3120.00	960.00
J9_28	3240.00	960.00
J9_29	3360.00	960.00
J9_30	3480.00	960.00
J9_31	3600.00	960.00
J9_32	3720.00	960.00
J9_33	3840.00	960.00
J9_34	3960.00	960.00
J9_35	4080.00	960.00
J9_36	4200.00	960.00
J9_37	4320.00	960.00
J9_38	4440.00	960.00
J9_39	4560.00	960.00
J9_40	4680.00	960.00
J9_41	4800.00	960.00
J9_42	4920.00	960.00
J9_43	5040.00	960.00
J9_44	5160.00	960.00
J9_45	5280.00	960.00
J9_46	5400.00	960.00
J9_47	5520.00	960.00
J9_48	5640.00	960.00
J9_49	5760.00	960.00
J9_50	5880.00	960.00
J9_51	6000.00	960.00
J9_52	6120.00	960.00
J9_53	6240.00	960.00
J9_54	6360.00	960.00
J9_55	6480.00	960.00
J9_56	6600.00	960.00
J9_57	6720.00	960.00
J9_58	6840.00	960.00
J9_59	6960.00	960.00
J9_60	7080.00	960.00
J9_61	7200.00	960.00
J9_62	7320.00	960.00
J9_63	7440.00	960.00
J9_64	7560.00	960.00
J9_65	7680.00	960.00
J9_66	7800.00	960.00
J9_67	7920.00	960.00
J9_68	8040.00	960.00
J9_69	8160.00	960.00
J9_70	8280.00	960.00
J9_71	8400.00	960.00
J9_72	8520.00	960.00
J9_73	8640.00	960.00
J9_74	8760.00	960.00
J9_75	8880.00	960.00
J9_76	9000.00	960.00
J9_77	9120.00	960.00
J9_78	9240.00	960.00
J9_79	9360.00	960.00
J9_80	9480.00	960.00
J9_81	9600.00	960.00
J9_82	9720.00	960.00
J9_83	9840.00	960.00
J9_84	9960.00	960.00
J10_1	0.00	1080.00
J10_2	120.00	1080.00
J10_3	240.00	1080.00
J10_4	360.00	1080.00
J10_5	480.00	1080.00
J10_6	600.00	1080.00
J10_7	720.00	1080.00
J10_8	840.00	1080.00
J10_9	960.00	1080.00
J10_10	1080.00	1080.00
J10_11	1200.00	1080.00
J10_12	1320.00	1080.00
J10_13	1440.00	1080.00
J10_14	1560.00	1080.00
J10_15	1680.00	1080.00
J10_16	1800.00	1080.00
J10_17	1920.00	1080.00
J10_18	2040.00	1080.00
J10_19	2160.00	1080.00
J10_20	2280.00	1080.00
J10_21	2400.00	1080.00
J10_22	2520.00	1080.00
J10_23	2640.00	1080.00
J10_24	2760.00	1080.00
J10_25	2880.00	1080.00
J10_26	3000.00	1080.00
J10_27	3120.00	1080.00
J10_28	3240.00	1080.00
J10_29	3360.00	1080.00
J10_30	3480.00	1080.00
J10_31	3600.00	1080.00
J10_32	3720.00	1080.00
J10_33	3840.00	1080.00
J10_34	3960.00	1080.00
J10_35	4080.00	1080.00
J10_36	4200.00	1080.00
J10_37	4320.00	1080.00
J10_38	4440.00	1080.00
J10_39	4560.00	1080.00
J10_40	4680.00	1080.00
J10_41	4800.00	1080.00
J10_42	4920.00	1080.00
J10_43	5040.00	1080.00
J10_44	5160.00	1080.00
J10_45	5280.00	1080.00
J10_46	5400.00	1080.00
J10_47	5520.00	1080.00
J10_48	5640.00	1080.00
J10_49	5760.00	1080.00
J10_50	5880.00	1080.00
J10_51	6000.00	1080.00
J10_52	6120.00	1080.00
J10_53	6240.00	1080.00
J10_54	6360.00	1080.00
J10_55	6480.00	1080.00
J10_56	6600.00	1080.00
J10_57	6720.00	1080.00
J10_58	6840.00	1080.00
J10_59	6960.00	1080.00
J10_60	7080.00	1080.00
J10_61	7200.00	1080.00
J10_62	7320.00	1080.00
J10_63	7440.00	1080.00
J10_64	7560.00	1080.00
J10_65	7680.00	1080.00
J10_66	7800.00	1080.00
J10_67	7920.00	1080.00
J10_68	8040.00	1080.00
J10_69	8160.00	1080.00
J10_70	8280.00	1080.00
J10_71	8400.00	1080.00
J10_72	8520.00	1080.00
J10_73	8640.00	1080.00
J10_74	8760.00	1080.00
J10_75	8880.00	1080.00
J10_76	9000.00	1080.00
J10_77	9120.00	1080.00
J10_78	9240.00	1080.00
J10_79	9360.00	1080.00
J10_80	9480.00	1080.00
J10_81	9600.00	1080.00
J10_82	9720.00	1080.00
J10_83	9840.00	1080.00
J10_84	9960.00	1080.00
J11_1	0.00	1200.00
J11_2	120.00	1200.00
J11_3	240.00	1200.00
J11_4	360.00	1200.00
J11_5	480.00	1200.00
J11_6	600.00	1200.00
J11_7	720.00	1200.00
J11_8	840.00	1200.00
J11_9	960.00	1200.00
J11_10	1080.00	1200.00
J11_11	1200.00	1200.00
J11_12	1320.00	1200.00
J11_13	1440.00	1200.00
J11_14	1560.00	1200.00
J11_15	1680.00	1200.00
J11_16	1800.00	1200.00
J11_17	1920.00	1200.00
J11_18	2040.00	1200.00
J11_19	2160.00	1200.00
J11_20	2280.00	1200.00
J11_21	2400.00	1200.00
J11_22	2520.00	1200.00
J11_23	2640.00	1200.00
J11_24	2760.00	1200.00
J11_25	2880.00	1200.00
J11_26	3000.00	1200.00
J11_27	3120.00	1200.00
J11_28	3240.00	1200.00
J11_29	3360.00	1200.00
J11_30	3480.00	1200.00
J11_31	3600.00	1200.00
J11_32	3720.00	1200.00
J11_33	3840.00	1200.00
J11_34	3960.00	1200.00
J11_35	4080.00	1200.00
J11_36	4200.00	1200.00
J11_37	4320.00	1200.00
J11_38	4440.00	1200.00
J11_39	4560.00	1200.00
J11_40	4680.00	1200.00
J11_41	4800.00	1200.00
J11_42	4920.00	1200.00
J11_43	5040.00	1200.00
J11_44	5160.00	1200.00
J11_45	5280.00	1200.00
J11_46	5400.00	1200.00
J11_47	5520.00	1200.00
J11_48	5640.00	1200.00
J11_49	5760.00	1200.00
J11_50	5880.00	1200.00
J11_51	6000.00	1200.00
J11_52	6120.00	1200.00
J11_53	6240.00	1200.00
J11_54	6360.00	1200.00
J11_55	6480.00	1200.00
J11_56	6600.00	1200.00
J11_57	6720.00	1200.00
J11_58	6840.00	1200.00
J11_59	6960.00	1200.00
J11_60	7080.00	1200.00
J11_61	7200.00	1200.00
J11_62	7320.00	1200.00
J11_63	7440.00	1200.00
J11_64	7560.00	1200.00
J11_65	7680.00	1200.00
J11_66	7800.00	1200.00
J11_67	7920.00	1200.00
J11_68	8040.00	1200.00
J11_69	8160.00	1200.00
J11_70	8280.00	1200.00
J11_71	8400.00	1200.00
J11_72	8520.00	1200.00
J11_73	8640.00	1200.00
J11_74	8760.00	1200.00
J11_75	8880.00	1200.00
J11_76	9000.00	1200.00
J11_77	9120.00	1200.00
J11_78	9240.00	1200.00
J11_79	9360.00	1200.00
J11_80	9480.00	1200.00
J11_81	9600.00	1200.00
J11_82	9720.00	1200.00
J11_83	9840.00	1200.00
J11_84	9960.00	1200.00
J12_1	0.00	1320.00
J12_2	120.00	1320.00
J12_3	240.00	1320.00
J12_4	360.00	1320.00
J12_5	480.00	1320.00
J12_6	600.00	1320.00
J12_7	720.00	1320.00
J12_8	840.00	1320.00
J12_9	960.00	1320.00
J12_10	1080.00	1320.00
J12_11	1200.00	1320.00
J12_12	1320.00	1320.00
J12_13	1440.00	1320.00
J12_14	1560.00	1320.00
J12_15	1680.00	1320.00
J12_16	1800.00	1320.00
J12_17	1920.00	1320.00
J12_18	2040.00	1320.00
J12_19	2160.00	1320.00
J12_20	2280.00	1320.00
J12_21	2400.00	1320.00
J12_22	2520.00	1320.00
J12_23	2640.00	1320.00
J12_24	2760.00	1320.00
J12_25	2880.00	1320.00
J12_26	3000.00	1320.00
J12_27	3120.00	1320.00
J12_28	3240.00	1320.00
J12_29	3360.00	1320.00
J12_30	3480.00	1320.00
J12_31	3600.00	1320.00
J12_32	3720.00	1320.00
J12_33	3840.00	1320.00
J12_34	3960.00	1320.00
J12_35	4080.00	1320.00
J12_36	4200.00	1320.00
J12_37	4320.00	1320.00
J12_38	4440.00	1320.00
J12_39	4560.00	1320.00
J12_40	4680.00	1320.00
J12_41	4800.00	1320.00
J12_42	4920.00	1320.00
J12_43	5040.00	1320.00
J12_44	5160.00	1320.00
J12_45	5280.00	1320.00
J12_46	5400.00	1320.00
J12_47	5520.00	1320.00
J12_48	5640.00	1320.00
J12_49	5760.00	1320.00
J12_50	5880.00	1320.00
J12_51	6000.00	1320.00
J12_52	6120.00	1320.00
J12_53	6240.00	1320.00
J12_54	6360.00	1320.00
J12_55	6480.00	1320.00
J12_56	6600.00	1320.00
J12_57	6720.00	1320.00
J12_58	6840.00	1320.00
J12_59	6960.00	1320.00
J12_60	7080.00	1320.00
J12_61	7200.00	1320.00
J12_62	7320.00	1320.00
J12_63	7440.00	1320.00
J12_64	7560.00	1320.00
J12_65	7680.00	1320.00
J12_66	7800.00	1320.00
J12_67	7920.00	1320.00
J12_68	8040.00	1320.00
J12_69	8160.00	1320.00
J12_70	8280.00	1320.00
J12_71	8400.00	1320.00
J12_72	8520.00	1320.00
J12_73	8640.00	1320.00
J12_74	8760.00	1320.00
J12_75	8880.00	1320.00
J12_76	9000.00	1320.00
J12_77	9120.00	1320.00
J12_78	9240.00	1320.00
J12_79	9360.00	1320.00
J12_80	9480.00	1320.00
J12_81	9600.00	1320.00
J12_82	9720.00	1320.00
J12_83	9840.00	1320.00
J12_84	9960.00	1320.00
J13_1	0.00	1440.00
J13_2	120.00	1440.00
J13_3	240.00	1440.00
J13_4	360.00	1440.00
J13_5	480.00	1440.00
J13_6	600.00	1440.00
J13_7	720.00	1440.00
J13_8	840.00	1440.00
J13_9	960.00	1440.00
J13_10	1080.00	1440.00
J13_11	1200.00	1440.00
J13_12	1320.00	1440.00
J13_13	1440.00	1440.00
J13_14	1560.00	1440.00
J13_15	1680.00	1440.00
J13_16	1800.00	1440.00
J13_17	1920.00	1440.00
J13_18	2040.00	1440.00
J13_19	2160.00	1440.00
J13_20	2280.00	1440.00
J13_21	2400.00	1440.00
J13_22	2520.00	1440.00
J13_23	2640.00	1440.00
J13_24	2760.00	1440.00
J13_25	2880.00	1440.00
J13_26	3000.00	1440.00
J13_27	3120.00	1440.00
J13_28	3240.00	1440.00
J13_29	3360.00	1440.00
J13_30	3480.00	1440.00
J13_31	3600.00	1440.00
J13_32	3720.00	1440.00
J13_33	3840.00	1440.00
J13_34	3960.00	1440.00
J13_35	4080.00	1440.00
J13_36	4200.00	1440.00
J13_37	4320.00	1440.00
J13_38	4440.00	1440.00
J13_39	4560.00	1440.00
J13_40	4680.00	1440.00
J13_41	4800.00	1440.00
J13_42	4920.00	1440.00
J13_43	5040.00	1440.00
J13_44	5160.00	1440.00
J13_45	5280.00	1440.00
J13_46	5400.00	1440.00
J13_47	5520.00	1440.00
J13_48	5640.00	1440.00
J13_49	5760.00	1440.00
J13_50	5880.00	1440.00
J13_51	6000.00	1440.00
J13_52	6120.00	1440.00
J13_53	6240.00	1440.00
J13_54	6360.00	1440.00
J13_55	6480.00	1440.00
J13_56	6600.00	1440.00
J13_57	6720.00	1440.00
J13_58	6840.00	1440.00
J13_59	6960.00	1440.00
J13_60	7080.00	1440.00
J13_61	7200.00	1440.00
J13_62	7320.00	1440.00
J13_63	7440.00	1440.00
J13_64	7560.00	1440.00
J13_65	7680.00	1440.00
J13_66	7800.00	1440.00
J13_67	7920.00	1440.00
J13_68	8040.00	1440.00
J13_69	8160.00	1440.00
J13_70	8280.00	1440.00
J13_71	8400.00	1440.00
J13_72	8520.00	1440.00
J13_73	8640.00	1440.00
J13_74	8760.00	1440.00
J13_75	8880.00	1440.00
J13_76	9000.00	1440.00
J13_77	9120.00	1440.00
J13_78	9240.00	1440.00
J13_79	9360.00	1440.00
J13_80	9480.00	1440.00
J13_81	9600.00	1440.00
J13_82	9720.00	1440.00
J13_83	9840.00	1440.00
J13_84	9960.00	1440.00
J14_1	0.00	1560.00
J14_2	120.00	1560.00
J14_3	240.00	1560.00
J14_4	360.00	1560.00
J14_5	480.00	1560.00
J14_6	600.00	1560.00
J14_7	720.00	1560.00
J14_8	840.00	1560.00
J14_9	960.00	1560.00
J14_10	1080.00	1560.00
J14_11	1200.00	1560.00
J14_12	1320.00	1560.00
J14_13	1440.00	1560.00
J14_14	1560.00	1560.00
J14_15	1680.00	1560.00
J14_16	1800.00	1560.00
J14_17	1920.00	1560.00
J14_18	2040.00	1560.00
J14_19	2160.00	1560.00
J14_20	2280.00	1560.00
J14_21	2400.00	1560.00
J14_22	2520.00	1560.00
J14_23	2640.00	1560.00
J14_24	2760.00	1560.00
J14_25	2880.00	1560.00
J14_26	3000.00	1560.00
J14_27	3120.00	1560.00
J14_28	3240.00	1560.00
J14_29	3360.00	1560.00
J14_30	3480.00	1560.00
J14_31	3600.00	1560.00
J14_32	3720.00	1560.00
J14_33	3840.00	1560.00
J14_34	3960.00	1560.00
J14_35	4080.00	1560.00
J14_36	4200.00	1560.00
J14_37	4320.00	1560.00
J14_38	4440.00	1560.00
J14_39	4560.00	1560.00
J14_40	4680.00	1560.00
J14_41	4800.00	1560.00
J14_42	4920.00	1560.00
J14_43	5040.00	1560.00
J14_44	5160.00	1560.00
J14_45	5280.00	1560.00
J14_46	5400.00	1560.00
J14_47	5520.00	1560.00
J14_48	5640.00	1560.00
J14_49	5760.00	1560.00
J14_50	5880.00	1560.00
J14_51	6000.00	1560.00
J14_52	6120.00	1560.00
J14_53	6240.00	1560.00
J14_54	6360.00	1560.00
J14_55	6480.00	1560.00
J14_56	6600.00	1560.00
J14_57	6720.00	1560.00
J14_58	6840.00	1560.00
J14_59	6960.00	1560.00
J14_60	7080.00	1560.00
J14_61	7200.00	1560.00
J14_62	7320.00	1560.00
J14_63	7440.00	1560.00
J14_64	7560.00	1560.00
J14_65	7680.00	1560.00
J14_66	7800.00	1560.00
J14_67	7920.00	1560.00
J14_68	8040.00	1560.00
J14_69	8160.00	1560.00
J14_70	8280.00	1560.00
J14_71	8400.00	1560.00
J14_72	8520.00	1560.00
J14_73	8640.00	1560.00
J14_74	8760.00	1560.00
J14_75	8880.00	1560.00
J14_76	9000.00	1560.00
J14_77	9120.00	1560.00
J14_78	9240.00	1560.00
J14_79	9360.00	1560.00
J14_80	9480.00	1560.00
J14_81	9600.00	1560.00
J14_82	9720.00	1560.00
J14_83	9840.00	1560.00
J14_84	9960.00	1560.00
J15_1	0.00	1680.00
J15_2	120.00	1680.00
J15_3	240.00	1680.00
J15_4	360.00	1680.00
J15_5	480.00	1680.00
J15_6	600.00	1680.00
J15_7	720.00	1680.00
J15_8	840.00	1680.00
J15_9	960.00	1680.00
J15_10	1080.00	1680.00
J15_11	1200.00	1680.00
J15_12	1320.00	1680.00
J15_13	1440.00	1680.00
J15_14	1560.00	1680.00
J15_15	1680.00	1680.00
J15_16	1800.00	1680.00
J15_17	1920.00	1680.00
J15_18	2040.00	1680.00
J15_19	2160.00	1680.00
J15_20	2280.00	1680.00
J15_21	2400.00	1680.00
J15_22	2520.00	1680.00
J15_23	2640.00	1680.00
J15_24	2760.00	1680.00
J15_25	2880.00	1680.00
J15_26	3000.00	1680.00
J15_27	3120.00	1680.00
J15_28	3240.00	1680.00
J15_29	3360.00	1680.00
J15_30	3480.00	1680.00
J15_31	3600.00	1680.00
J15_32	3720.00	1680.00
J15_33	3840.00	1680.00
J15_34	3960.00	1680.00
J15_35	4080.00	1680.00
J15_36	4200.00	1680.00
J15_37	4320.00	1680.00
J15_38	4440.00	1680.00
J15_39	4560.00	1680.00
J15_40	4680.00	1680.00
J15_41	4800.00	1680.00
J15_42	4920.00	1680.00
J15_43	5040.00	1680.00
J15_44	5160.00	1680.00
J15_45	5280.00	1680.00
J15_46	5400.00	1680.00
J15_47	5520.00	1680.00
J15_48	5640.00	1680.00
J15_49	5760.00	1680.00
J15_50	5880.00	1680.00
J15_51	6000.00	1680.00
J15_52	6120.00	1680.00
J15_53	6240.00	1680.00
J15_54	6360.00	1680.00
J15_55	6480.00	1680.00
J15_56	6600.00	1680.00
J15_57	6720.00	1680.00
J15_58	6840.00	1680.00
J15_59	6960.00	1680.00
J15_60	7080.00	1680.00
J15_61	7200.00	1680.00
J15_62	7320.00	1680.00
J15_63	7440.00	1680.00
J15_64	7560.00	1680.00
J15_65	7680.00	1680.00
J15_66	7800.00	1680.00
J15_67	7920.00	1680.00
J15_68	8040.00	1680.00
J15_69	8160.00	1680.00
J15_70	8280.00	1680.00
J15_71	8400.00	1680.00
J15_72	8520.00	1680.00
J15_73	8640.00	1680.00
J15_74	8760.00	1680.00
J15_75	8880.00	1680.00
J15_76	9000.00	1680.00
J15_77	9120.00	1680.00
J15_78	9240.00	1680.00
J15_79	9360.00	1680.00
J15_80	9480.00	1680.00
J15_81	9600.00	1680.00
J15_82	9720.00	1680.00
J15_83	9840.00	1680.00
J15_84	9960.00	1680.00
J16_1	0.00	1800.00
J16_2	120.00	1800.00
J16_3	240.00	1800.00
J16_4	360.00	1800.00
J16_5	480.00	1800.00
J16_6	600.00	1800.00
J16_7	720.00	1800.00
J16_8	840.00	1800.00
J16_9	960.00	1800.00
J16_10	1080.00	1800.00
J16_11	1200.00	1800.00
J16_12	1320.00	1800.00
J16_13	1440.00	1800.00
J16_14	1560.00	1800.00
J16_15	1680.00	1800.00
J16_16	1800.00	1800.00
J16_17	1920.00	1800.00
J16_18	2040.00	1800.00
J16_19	2160.00	1800.00
J16_20	2280.00	1800.00
J16_21	2400.00	1800.00
J16_22	2520.00	1800.00
J16_23	2640.00	1800.00
J16_24	2760.00	1800.00
J16_25	2880.00	1800.00
J16_26	3000.00	1800.00
J16_27	3120.00	1800.00
J16_28	3240.00	1800.00
J16_29	3360.00	1800.00
J16_30	3480.00	1800.00
J16_31	3600.00	1800.00
J16_32	3720.00	1800.00
J16_33	3840.00	1800.00
J16_34	3960.00	1800.00
J16_35	4080.00	1800.00
J16_36	4200.00	1800.00
J16_37	4320.00	1800.00
J16_38	4440.00	1800.00
J16_39	4560.00	1800.00
J16_40	4680.00	1800.00
J16_41	4800.00	1800.00
J16_42	4920.00	1800.00
J16_43	5040.00	1800.00
J16_44	5160.00	1800.00
J16_45	5280.00	1800.00
J16_46	5400.00	1800.00
J16_47	5520.00	1800.00
J16_48	5640.00	1800.00
J16_49	5760.00	1800.00
J16_50	5880.00	1800.00
J16_51	6000.00	1800.00
J16_52	6120.00	1800.00
J16_53	6240.00	1800.00
J16_54	6360.00	1800.00
J16_55	6480.00	1800.00
J16_56	6600.00	1800.00
J16_57	6720.00	1800.00
J16_58	6840.00	1800.00
J16_59	6960.00	1800.00
J16_60	7080.00	1800.00
J16_61	7200.00	1800.00
J16_62	7320.00	1800.00
J16_63	7440.00	1800.00
J16_64	7560.00	1800.00
J16_65	7680.00	1800.00
J16_66	7800.00	1800.00
J16_67	7920.00	1800.00
J16_68	8040.00	1800.00
J16_69	8160.00	1800.00
J16_70	8280.00	1800.00
J16_71	8400.00	1800.00
J16_72	8520.00	1800.00
J16_73	8640.00	1800.00
J16_74	8760.00	1800.00
J16_75	8880.00	1800.00
J16_76	9000.00	1800.00
J16_77	9120.00	1800.00
J16_78	9240.00	1800.00
J16_79	9360.00	1800.00
J16_80	9480.00	1800.00
J16_81	9600.00	1800.00
J16_82	9720.00	1800.00
J16_83	9840.00	1800.00
J16_84	9960.00	1800.00
J17_1	0.00	1920.00
J17_2	120.00	1920.00
J17_3	240.00	1920.00
J17_4	360.00	1920.00
J17_5	480.00	1920.00
J17_6	600.00	1920.00
J17_7	720.00	1920.00
J17_8	840.00	1920.00
J17_9	960.00	1920.00
J17_10	1080.00	1920.00
J17_11	1200.00	1920.00
J17_12	1320.00	1920.00
J17_13	1440.00	1920.00
J17_14	1560.00	1920.00
J17_15	1680.00	1920.00
J17_16	1800.00	1920.00
J17_17	1920.00	1920.00
J17_18	2040.00	1920.00
J17_19	2160.00	1920.00
J17_20	2280.00	1920.00
J17_21	2400.00	1920.00
J17_22	2520.00	1920.00
J17_23	2640.00	1920.00
J17_24	2760.00	1920.00
J17_25	2880.00	1920.00
J17_26	3000.00	1920.00
J17_27	3120.00	1920.00
J17_28	3240.00	1920.00
J17_29	3360.00	1920.00
J17_30	3480.00	1920.00
J17_31	3600.00	1920.00
J17_32	3720.00	1920.00
J17_33	3840.00	1920.00
J17_34	3960.00	1920.00
J17_35	4080.00	1920.00
J17_36	4200.00	1920.00
J17_37	4320.00	1920.00
J17_38	4440.00	1920.00
J17_39	4560.00	1920.00
J17_40	4680.00	1920.00
J17_41	4800.00	1920.00
J17_42	4920.00	1920.00
J17_43	5040.00	1920.00
J17_44	5160.00	1920.00
J17_45	5280.00	1920.00
J17_46	5400.00	1920.00
J17_47	5520.00	1920.00
J17_48	5640.00	1920.00
J17_49	5760.00	1920.00
J17_50	5880.00	1920.00
J17_51	6000.00	1920.00
J17_52	6120.00	1920.00
J17_53	6240.00	1920.00
J17_54	6360.00	1920.00
J17_55	6480.00	1920.00
J17_56	6600.00	1920.00
J17_57	6720.00	1920.00
J17_58	6840.00	1920.00
J17_59	6960.00	1920.00
J17_60	7080.00	1920.00
J17_61	7200.00	1920.00
J17_62	7320.00	1920.00
J17_63	7440.00	1920.00
J17_64	7560.00	1920.00
J17_65	7680.00	1920.00
J17_66	7800.00	1920.00
J17_67	7920.00	1920.00
J17_68	8040.00	1920.00
J17_69	8160.00	1920.00
J17_70	8280.00	1920.00
J17_71	8400.00	1920.00
J17_72	8520.00	1920.00
J17_73	8640.00	1920.00
J17_74	8760.00	1920.00
J17_75	8880.00	1920.00
J17_76	9000.00	1920.00
J17_77	9120.00	1920.00
J17_78	9240.00	1920.00
J17_79	9360.00	1920.00
J17_80	9480.00	1920.00
J17_81	9600.00	1920.00
J17_82	9720.00	1920.00
J17_83	9840.00	1920.00
J17_84	9960.00	1920.00
J18_1	0.00	2040.00
J18_2	120.00	2040.00
J18_3	240.00	2040.00
J18_4	360.00	2040.00
J18_5	480.00	2040.00
J18_6	600.00	2040.00
J18_7	720.00	2040.00
J18_8	840.00	2040.00
J18_9	960.00	2040.00
J18_10	1080.00	2040.00
J18_11	1200.00	2040.00
J18_12	1320.00	2040.00
J18_13	1440.00	2040.00
J18_14	1560.00	2040.00
J18_15	1680.00	2040.00
J18_16	1800.00	2040.00
J18_17	1920.00	2040.00
J18_18	2040.00	2040.00
J18_19	2160.00	2040.00
J18_20	2280.00	2040.00
J18_21	2400.00	2040.00
J18_22	2520.00	2040.00
J18_23	2640.00	2040.00
J18_24	2760.00	2040.00
J18_25	2880.00	2040.00
J18_26	3000.00	2040.00
J18_27	3120.00	2040.00
J18_28	3240.00	2040.00
J18_29	3360.00	2040.00
J18_30	3480.00	2040.00
J18_31	3600.00	2040.00
J18_32	3720.00	2040.00
J18_33	3840.00	2040.00
J18_34	3960.00	2040.00
J18_35	4080.00	2040.00
J18_36	4200.00	2040.00
J18_37	4320.00	2040.00
J18_38	4440.00	2040.00
J18_39	4560.00	2040.00
J18_40	4680.00	2040.00
J18_41	4800.00	2040.00
J18_42	4920.00	2040.00
J18_43	5040.00	2040.00
J18_44	5160.00	2040.00
J18_45	5280.00	2040.00
J18_46	5400.00	2040.00
J18_47	5520.00	2040.00
J18_48	5640.00	2040.00
J18_49	5760.00	2040.00
J18_50	5880.00	2040.00
J18_51	6000.00	2040.00
J18_52	6120.00	2040.00
J18_53	6240.00	2040.00
J18_54	6360.00	2040.00
J18_55	6480.00	2040.00
J18_56	6600.00	2040.00
J18_57	6720.00	2040.00
J18_58	6840.00	2040.00
J18_59	6960.00	2040.00
J18_60	7080.00	2040.00
J18_61	7200.00	2040.00
J18_62	7320.00	2040.00
J18_63	7440.00	2040.00
J18_64	7560.00	2040.00
J18_65	7680.00	2040.00
J18_66	7800.00	2040.00
J18_67	7920.00	2040.00
J18_68	8040.00	2040.00
J18_69	8160.00	2040.00
J18_70	8280.00	2040.00
J18_71	8400.00	2040.00
J18_72	8520.00	2040.00
J18_73	8640.00	2040.00
J18_74	8760.00	2040.00
J18_75	8880.00	2040.00
J18_76	9000.00	2040.00
J18_77	9120.00	2040.00
J18_78	9240.00	2040.00
J18_79	9360.00	2040.00
J18_80	9480.00	2040.00
J18_81	9600.00	2040.00
J18_82	9720.00	2040.00
J18_83	9840.00	2040.00
J18_84	9960.00	2040.00
J19_1	0.00	2160.00
J19_2	120.00	2160.00
J19_3	240.00	2160.00
J19_4	360.00	2160.00
J19_5	480.00	2160.00
J19_6	600.00	2160.00
J19_7	720.00	2160.00
J19_8	840.00	2160.00
J19_9	960.00	2160.00
J19_10	1080.00	2160.00
J19_11	1200.00	2160.00
J19_12	1320.00	2160.00
J19_13	1440.00	2160.00
J19_14	1560.00	2160.00
J19_15	1680.00	2160.00
J19_16	1800.00	2160.00
J19_17	1920.00	2160.00
J19_18	2040.00	2160.00
J19_19	2160.00	2160.00
J19_20	2280.00	2160.00
J19_21	2400.00	2160.00
J19_22	2520.00	2160.00
J19_23	2640.00	2160.00
J19_24	2760.00	2160.00
J19_25	2880.00	2160.00
J19_26	3000.00	2160.00
J19_27	3120.00	2160.00
J19_28	3240.00	2160.00
J19_29	3360.00	2160.00
J19_30	3480.00	2160.00
J19_31	3600.00	2160.00
J19_32	3720.00	2160.00
J19_33	3840.00	2160.00
J19_34	3960.00	2160.00
J19_35	4080.00	2160.00
J19_36	4200.00	2160.00
J19_37	4320.00	2160.00
J19_38	4440.00	2160.00
J19_39	4560.00	2160.00
J19_40	4680.00	2160.00
J19_41	4800.00	2160.00
J19_42	4920.00	2160.00
J19_43	5040.00	2160.00
J19_44	5160.00	2160.00
J19_45	5280.00	2160.00
J19_46	5400.00	2160.00
J19_47	5520.00	2160.00
J19_48	5640.00	2160.00
J19_49	5760.00	2160.00
J19_50	5880.00	2160.00
J19_51	6000.00	2160.00
J19_52	6120.00	2160.00
J19_53	6240.00	2160.00
J19_54	6360.00	2160.00
J19_55	6480.00	2160.00
J19_56	6600.00	2160.00
J19_57	6720.00	2160.00
J19_58	6840.00	2160.00
J19_59	6960.00	2160.00
J19_60	7080.00	2160.00
J19_61	7200.00	2160.00
J19_62	7320.00	2160.00
J19_63	7440.00	2160.00
J19_64	7560.00	2160.00
J19_65	7680.00	2160.00
J19_66	7800.00	2160.00
J19_67	7920.00	2160.00
J19_68	8040.00	2160.00
J19_69	8160.00	2160.00
J19_70	8280.00	2160.00
J19_71	8400.00	2160.00
J19_72	8520.00	2160.00
J19_73	8640.00	2160.00
J19_74	8760.00	2160.00
J19_75	8880.00	2160.00
J19_76	9000.00	2160.00
J19_77	9120.00	2160.00
J19_78	9240.00	2160.00
J19_79	9360.00	2160.00
J19_80	9480.00	2160.00
J19_81	9600.00	2160.00
J19_82	9720.00	2160.00
J19_83	9840.00	2160.00
J19_84	9960.00	2160.00
J20_1	0.00	2280.00
J20_2	120.00	2280.00
J20_3	240.00	2280.00
J20_4	360.00	2280.00
J20_5	480.00	2280.00
J20_6	600.00	2280.00
J20_7	720.00	2280.00
J20_8	840.00	2280.00
J20_9	960.00	2280.00
J20_10	1080.00	2280.00
J20_11	1200.00	2280.00
J20_12	1320.00	2280.00
J20_13	1440.00	2280.00
J20_14	1560.00	2280.00
J20_15	1680.00	2280.00
J20_16	1800.00	2280.00
J20_17	1920.00	2280.00
J20_18	2040.00	2280.00
J20_19	2160.00	2280.00
J20_20	2280.00	2280.00
J20_21	2400.00	2280.00
J20_22	2520.00	2280.00
J20_23	2640.00	2280.00
J20_24	2760.00	2280.00
J20_25	2880.00	2280.00
J20_26	3000.00	2280.00
J20_27	3120.00	2280.00
J20_28	3240.00	2280.00
J20_29	3360.00	2280.00
J20_30	3480.00	2280.00
J20_31	3600.00	2280.00
J20_32	3720.00	2280.00
J20_33	3840.00	2280.00
J20_34	3960.00	2280.00
J20_35	4080.00	2280.00
J20_36	4200.00	2280.00
J20_37	4320.00	2280.00
J20_38	4440.00	2280.00
J20_39	4560.00	2280.00
J20_40	4680.00	2280.00
J20_41	4800.00	2280.00
J20_42	4920.00	2280.00
J20_43	5040.00	2280.00
J20_44	5160.00	2280.00
J20_45	5280.00	2280.00
J20_46	5400.00	2280.00
J20_47	5520.00	2280.00
J20_48	5640.00	2280.00
J20_49	5760.00	2280.00
J20_50	5880.00	2280.00
J20_51	6000.00	2280.00
J20_52	6120.00	2280.00
J20_53	6240.00	2280.00
J20_54	6360.00	2280.00
J20_55	6480.00	2280.00
J20_56	6600.00	2280.00
J20_57	6720.00	2280.00
J20_58	6840.00	2280.00
J20_59	6960.00	2280.00
J20_60	7080.00	2280.00
J20_61	7200.00	2280.00
J20_62	7320.00	2280.00
J20_63	7440.00	2280.00
J20_64	7560.00	2280.00
J20_65	7680.00	2280.00
J20_66	7800.00	2280.00
J20_67	7920.00	2280.00
J20_68	8040.00	2280.00
J20_69	8160.00	2280.00
J20_70	8280.00	2280.00
J20_71	8400.00	2280.00
J20_72	8520.00	2280.00
J20_73	8640.00	2280.00
J20_74	8760.00	2280.00
J20_75	8880.00	2280.00
J20_76	9000.00	2280.00
J20_77	9120.00	2280.00
J20_78	9240.00	2280.00
J20_79	9360.00	2280.00
J20_80	9480.00	2280.00
J20_81	9600.00	2280.00
J20_82	9720.00	2280.00
J20_83	9840.00	2280.00
J20_84	9960.00	2280.00
J21_1	0.00	2400.00
J21_2	120.00	2400.00
J21_3	240.00	2400.00
J21_4	360.00	2400.00
J21_5	480.00	2400.00
J21_6	600.00	2400.00
J21_7	720.00	2400.00
J21_8	840.00	2400.00
J21_9	960.00	2400.00
J21_10	1080.00	2400.00
J21_11	1200.00	2400.00
J21_12	1320.00	2400.00
J21_13	1440.00	2400.00
J21_14	1560.00	2400.00
J21_15	1680.00	2400.00
J21_16	1800.00	2400.00
J21_17	1920.00	2400.00
J21_18	2040.00	2400.00
J21_19	2160.00	2400.00
J21_20	2280.00	2400.00
J21_21	2400.00	2400.00
J21_22	2520.00	2400.00
J21_23	2640.00	2400.00
J21_24	2760.00	2400.00
J21_25	2880.00	2400.00
J21_26	3000.00	2400.00
J21_27	3120.00	2400.00
J21_28	3240.00	2400.00
J21_29	3360.00	2400.00
J21_30	3480.00	2400.00
J21_31	3600.00	2400.00
J21_32	3720.00	2400.00
J21_33	3840.00	2400.00
J21_34	3960.00	2400.00
J21_35	4080.00	2400.00
J21_36	4200.00	2400.00
J21_37	4320.00	2400.00
J21_38	4440.00	2400.00
J21_39	4560.00	2400.00
J21_40	4680.00	2400.00
J21_41	4800.00	2400.00
J21_42	4920.00	2400.00
J21_43	5040.00	2400.00
J21_44	5160.00	2400.00
J21_45	5280.00	2400.00
J21_46	5400.00	2400.00
J21_47	5520.00	2400.00
J21_48	5640.00	2400.00
J21_49	5760.00	2400.00
J21_50	5880.00	2400.00
J21_51	6000.00	2400.00
J21_52	6120.00	2400.00
J21_53	6240.00	2400.00
J21_54	6360.00	2400.00
J21_55	6480.00	2400.00
J21_56	6600.00	2400.00
J21_57	6720.00	2400.00
J21_58	6840.00	2400.00
J21_59	6960.00	2400.00
J21_60	7080.00	2400.00
J21_61	7200.00	2400.00
J21_62	7320.00	2400.00
J21_63	7440.00	2400.00
J21_64	7560.00	2400.00
J21_65	7680.00	2400.00
J21_66	7800.00	2400.00
J21_67	7920.00	2400.00
J21_68	8040.00	2400.00
J21_69	8160.00	2400.00
J21_70	8280.00	2400.00
J21_71	8400.00	2400.00
J21_72	8520.00	2400.00
J21_73	8640.00	2400.00
J21_74	8760.00	2400.00
J21_75	8880.00	2400.00
J21_76	9000.00	2400.00
J21_77	9120.00	2400.00
J21_78	9240.00	2400.00
J21_79	9360.00	2400.00
J21_80	9480.00	2400.00
J21_81	9600.00	2400.00
J21_82	9720.00	2400.00
J21_83	9840.00	2400.00
J21_84	9960.00	2400.00
J22_1	0.00	2520.00
J22_2	120.00	2520.00
J22_3	240.00	2520.00
J22_4	360.00	2520.00
J22_5	480.00	2520.00
J22_6	600.00	2520.00
J22_7	720.00	2520.00
J22_8	840.00	2520.00
J22_9	960.00	2520.00
J22_10	1080.00	2520.00
J22_11	1200.00	2520.00
J22_12	1320.00	2520.00
J22_13	1440.00	2520.00
J22_14	1560.00	2520.00
J22_15	1680.00	2520.00
J22_16	1800.00	2520.00
J22_17	1920.00	2520.00
J22_18	2040.00	2520.00
J22_19	2160.00	2520.00
J22_20	2280.00	2520.00
J22_21	2400.00	2520.00
J22_22	2520.00	2520.00
J22_23	2640.00	2520.00
J22_24	2760.00	2520.00
J22_25	2880.00	2520.00
J22_26	3000.00	2520.00
J22_27	3120.00	2520.00
J22_28	3240.00	2520.00
J22_29	3360.00	2520.00
J22_30	3480.00	2520.00
J22_31	3600.00	2520.00
J22_32	3720.00	2520.00
J22_33	3840.00	2520.00
J22_34	3960.00	2520.00
J22_35	4080.00	2520.00
J22_36	4200.00	2520.00
J22_37	4320.00	2520.00
J22_38	4440.00	2520.00
J22_39	4560.00	2520.00
J22_40	4680.00	2520.00
J22_41	4800.00	2520.00
J22_42	4920.00	2520.00
J22_43	5040.00	2520.00
J22_44	5160.00	2520.00
J22_45	5280.00	2520.00
J22_46	5400.00	2520.00
J22_47	5520.00	2520.00
J22_48	5640.00	2520.00
J22_49	5760.00	2520.00
J22_50	5880.00	2520.00
J22_51	6000.00	2520.00
J22_52	6120.00	2520.00
J22_53	6240.00	2520.00
J22_54	6360.00	2520.00
J22_55	6480.00	2520.00
J22_56	6600.00	2520.00
J22_57	6720.00	2520.00
J22_58	6840.00	2520.00
J22_59	6960.00	2520.00
J22_60	7080.00	2520.00
J22_61	7200.00	2520.00
J22_62	7320.00	2520.00
J22_63	7440.00	2520.00
J22_64	7560.00	2520.00
J22_65	7680.00	2520.00
J22_66	7800.00	2520.00
J22_67	7920.00	2520.00
J22_68	8040.00	2520.00
J22_69	8160.00	2520.00
J22_70	8280.00	2520.00
J22_71	8400.00	2520.00
J22_72	8520.00	2520.00
J22_73	8640.00	2520.00
J22_74	8760.00	2520.00
J22_75	8880.00	2520.00
J22_76	9000.00	2520.00
J22_77	9120.00	2520.00
J22_78	9240.00	2520.00
J22_79	9360.00	2520.00
J22_80	9480.00	2520.00
J22_81	9600.00	2520.00
J22_82	9720.00	2520.00
J22_83	9840.00	2520.00
J22_84	9960.00	2520.00
J23_1	0.00	2640.00
J23_2	120.00	2640.00
J23_3	240.00	2640.00
J23_4	360.00	2640.00
J23_5	480.00	2640.00
J23_6	600.00	2640.00
J23_7	720.00	2640.00
J23_8	840.00	2640.00
J23_9	960.00	2640.00
J23_10	1080.00	2640.00
J23_11	1200.00	2640.00
J23_12	1320.00	2640.00
J23_13	1440.00	2640.00
J23_14	1560.00	2640.00
J23_15	1680.00	2640.00
J23_16	1800.00	2640.00
J23_17	1920.00	2640.00
J23_18	2040.00	2640.00
J23_19	2160.00	2640.00
J23_20	2280.00	2640.00
J23_21	2400.00	2640.00
J23_22	2520.00	2640.00
J23_23	2640.00	2640.00
J23_24	2760.00	2640.00
J23_25	2880.00	2640.00
J23_26	3000.00	2640.00
J23_27	3120.00	2640.00
J23_28	3240.00	2640.00
J23_29	3360.00	2640.00
J23_30	3480.00	2640.00
J23_31	3600.00	2640.00
J23_32	3720.00	2640.00
J23_33	3840.00	2640.00
J23_34	3960.00	2640.00
J23_35	4080.00	2640.00
J23_36	4200.00	2640.00
J23_37	4320.00	2640.00
J23_38	4440.00	2640.00
J23_39	4560.00	2640.00
J23_40	4680.00	2640.00
J23_41	4800.00	2640.00
J23_42	4920.00	2640.00
J23_43	5040.00	2640.00
J23_44	5160.00	2640.00
J23_45	5280.00	2640.00
J23_46	5400.00	2640.00
J23_47	5520.00	2640.00
J23_48	5640.00	2640.00
J23_49	5760.00	2640.00
J23_50	5880.00	2640.00
J23_51	6000.00	2640.00
J23_52	6120.00	2640.00
J23_53	6240.00	2640.00
J23_54	6360.00	2640.00
J23_55	6480.00	2640.00
J23_56	6600.00	2640.00
J23_57	6720.00	2640.00
J23_58	6840.00	2640.00
J23_59	6960.00	2640.00
J23_60	7080.00	2640.00
J23_61	7200.00	2640.00
J23_62	7320.00	2640.00
J23_63	7440.00	2640.00
J23_64	7560.00	2640.00
J23_65	7680.00	2640.00
J23_66	7800.00	2640.00
J23_67	7920.00	2640.00
J23_68	8040.00	2640.00
J23_69	8160.00	2640.00
J23_70	8280.00	2640.00
J23_71	8400.00	2640.00
J23_72	8520.00	2640.00
J23_73	8640.00	2640.00
J23_74	8760.00	2640.00
J23_75	8880.00	2640.00
J23_76	9000.00	2640.00
J23_77	9120.00	2640.00
J23_78	9240.00	2640.00
J23_79	9360.00	2640.00
J23_80	9480.00	2640.00
J23_81	9600.00	2640.00
J23_82	9720.00	2640.00
J23_83	9840.00	2640.00
J23_84	9960.00	2640.00
J24_1	0.00	2760.00
J24_2	120.00	2760.00
J24_3	240.00	2760.00
J24_4	360.00	2760.00
J24_5	480.00	2760.00
J24_6	600.00	2760.00
J24_7	720.00	2760.00
J24_8	840.00	2760.00
J24_9	960.00	2760.00
J24_10	1080.00	2760.00
J24_11	1200.00	2760.00
J24_12	1320.00	2760.00
J24_13	1440.00	2760.00
J24_14	1560.00	2760.00
J24_15	1680.00	2760.00
J24_16	1800.00	2760.00
J24_17	1920.00	2760.00
J24_18	2040.00	2760.00
J24_19	2160.00	2760.00
J24_20	2280.00	2760.00
J24_21	2400.00	2760.00
J24_22	2520.00	2760.00
J24_23	2640.00	2760.00
J24_24	2760.00	2760.00
J24_25	2880.00	2760.00
J24_26	3000.00	2760.00
J24_27	3120.00	2760.00
J24_28	3240.00	2760.00
J24_29	3360.00	2760.00
J24_30	3480.00	2760.00
J24_31	3600.00	2760.00
J24_32	3720.00	2760.00
J24_33	3840.00	2760.00
J24_34	3960.00	2760.00
J24_35	4080.00	2760.00
J24_36	4200.00	2760.00
J24_37	4320.00	2760.00
J24_38	4440.00	2760.00
J24_39	4560.00	2760.00
J24_40	4680.00	2760.00
J24_41	4800.00	2760.00
J24_42	4920.00	2760.00
J24_43	5040.00	2760.00
J24_44	5160.00	2760.00
J24_45	5280.00	2760.00
J24_46	5400.00	2760.00
J24_47	5520.00	2760.00
J24_48	5640.00	2760.00
J24_49	5760.00	2760.00
J24_50	5880.00	2760.00
J24_51	6000.00	2760.00
J24_52	6120.00	2760.00
J24_53	6240.00	2760.00
J24_54	6360.00	2760.00
J24_55	6480.00	2760.00
J24_56	6600.00	2760.00
J24_57	6720.00	2760.00
J24_58	6840.00	2760.00
J24_59	6960.00	2760.00
J24_60	7080.00	2760.00
J24_61	7200.00	2760.00
J24_62	7320.00	2760.00
J24_63	7440.00	2760.00
J24_64	7560.00	2760.00
J24_65	7680.00	2760.00
J24_66	7800.00	2760.00
J24_67	7920.00	2760.00
J24_68	8040.00	2760.00
J24_69	8160.00	2760.00
J24_70	8280.00	2760.00
J24_71	8400.00	2760.00
J24_72	8520.00	2760.00
J24_73	8640.00	2760.00
J24_74	8760.00	2760.00
J24_75	8880.00	2760.00
J24_76	9000.00	2760.00
J24_77	9120.00	2760.00
J24_78	9240.00	2760.00
J24_79	9360.00	2760.00
J24_80	9480.00	2760.00
J24_81	9600.00	2760.00
J24_82	9720.00	2760.00
J24_83	9840.00	2760.00
J24_84	9960.00	2760.00
J25_1	0.00	2880.00
J25_2	120.00	2880.00
J25_3	240.00	2880.00
J25_4	360.00	2880.00
J25_5	480.00	2880.00
J25_6	600.00	2880.00
J25_7	720.00	2880.00
J25_8	840.00	2880.00
J25_9	960.00	2880.00
J25_10	1080.00	2880.00
J25_11	1200.00	2880.00
J25_12	1320.00	2880.00
J25_13	1440.00	2880.00
J25_14	1560.00	2880.00
J25_15	1680.00	2880.00
J25_16	1800.00	2880.00
J25_17	1920.00	2880.00
J25_18	2040.00	2880.00
J25_19	2160.00	2880.00
J25_20	2280.00	2880.00
J25_21	2400.00	2880.00
J25_22	2520.00	2880.00
J25_23	2640.00	2880.00
J25_24	2760.00	2880.00
J25_25	2880.00	2880.00
J25_26	3000.00	2880.00
J25_27	3120.00	2880.00
J25_28	3240.00	2880.00
J25_29	3360.00	2880.00
J25_30	3480.00	2880.00
J25_31	3600.00	2880.00
J25_32	3720.00	2880.00
J25_33	3840.00	2880.00
J25_34	3960.00	2880.00
J25_35	4080.00	2880.00
J25_36	4200.00	2880.00
J25_37	4320.00	2880.00
J25_38	4440.00	2880.00
J25_39	4560.00	2880.00
J25_40	4680.00	2880.00
J25_41	4800.00	2880.00
J25_42	4920.00	2880.00
J25_43	5040.00	2880.00
J25_44	5160.00	2880.00
J25_45	5280.00	2880.00
J25_46	5400.00	2880.00
J25_47	5520.00	2880.00
J25_48	5640.00	2880.00
J25_49	5760.00	2880.00
J25_50	5880.00	2880.00
J25_51	6000.00	2880.00
J25_52	6120.00	2880.00
J25_53	6240.00	2880.00
J25_54	6360.00	2880.00
J25_55	6480.00	2880.00
J25_56	6600.00	2880.00
J25_57	6720.00	2880.00
J25_58	6840.00	2880.00
J25_59	6960.00	2880.00
J25_60	7080.00	2880.00
J25_61	7200.00	2880.00
J25_62	7320.00	2880.00
J25_63	7440.00	2880.00
J25_64	7560.00	2880.00
J25_65	7680.00	2880.00
J25_66	7800.00	2880.00
J25_67	7920.00	2880.00
J25_68	8040.00	2880.00
J25_69	8160.00	2880.00
J25_70	8280.00	2880.00
J25_71	8400.00	2880.00
J25_72	8520.00	2880.00
J25_73	8640.00	2880.00
J25_74	8760.00	2880.00
J25_75	8880.00	2880.00
J25_76	9000.00	2880.00
J25_77	9120.00	2880.00
J25_78	9240.00	2880.00
J25_79	9360.00	2880.00
J25_80	9480.00	2880.00
J25_81	9600.00	2880.00
J25_82	9720.00	2880.00
J25_83	9840.00	2880.00
J25_84	9960.00	2880.00
J26_1	0.00	3000.00
J26_2	120.00	3000.00
J26_3	240.00	3000.00
J26_4	360.00	3000.00
J26_5	480.00	3000.00
J26_6	600.00	3000.00
J26_7	720.00	3000.00
J26_8	840.00	3000.00
J26_9	960.00	3000.00
J26_10	1080.00	3000.00
J26_11	1200.00	3000.00
J26_12	1320.00	3000.00
J26_13	1440.00	3000.00
J26_14	1560.00	3000.00
J26_15	1680.00	3000.00
J26_16	1800.00	3000.00
J26_17	1920.00	3000.00
J26_18	2040.00	3000.00
J26_19	2160.00	3000.00
J26_20	2280.00	3000.00
J26_21	2400.00	3000.00
J26_22	2520.00	3000.00
J26_23	2640.00	3000.00
J26_24	2760.00	3000.00
J26_25	2880.00	3000.00
J26_26	3000.00	3000.00
J26_27	3120.00	3000.00
J26_28	3240.00	3000.00
J26_29	3360.00	3000.00
J26_30	3480.00	3000.00
J26_31	3600.00	3000.00
J26_32	3720.00	3000.00
J26_33	3840.00	3000.00
J26_34	3960.00	3000.00
J26_35	4080.00	3000.00
J26_36	4200.00	3000.00
J26_37	4320.00	3000.00
J26_38	4440.00	3000.00
J26_39	4560.00	3000.00
J26_40	4680.00	3000.00
J26_41	4800.00	3000.00
J26_42	4920.00	3000.00
J26_43	5040.00	3000.00
J26_44	5160.00	3000.00
J26_45	5280.00	3000.00
J26_46	5400.00	3000.00
J26_47	5520.00	3000.00
J26_48	5640.00	3000.00
J26_49	5760.00	3000.00
J26_50	5880.00	3000.00
J26_51	6000.00	3000.00
J26_52	6120.00	3000.00
J26_53	6240.00	3000.00
J26_54	6360.00	3000.00
J26_55	6480.00	3000.00
J26_56	6600.00	3000.00
J26_57	6720.00	3000.00
J26_58	6840.00	3000.00
J26_59	6960.00	3000.00
J26_60	7080.00	3000.00
J26_61	7200.00	3000.00
J26_62	7320.00	3000.00
J26_63	7440.00	3000.00
J26_64	7560.00	3000.00
J26_65	7680.00	3000.00
J26_66	7800.00	3000.00
J26_67	7920.00	3000.00
J26_68	8040.00	3000.00
J26_69	8160.00	3000.00
J26_70	8280.00	3000.00
J26_71	8400.00	3000.00
J26_72	8520.00	3000.00
J26_73	8640.00	3000.00
J26_74	8760.00	3000.00
J26_75	8880.00	3000.00
J26_76	9000.00	3000.00
J26_77	9120.00	3000.00
J26_78	9240.00	3000.00
J26_79	9360.00	3000.00
J26_80	9480.00	3000.00
J26_81	9600.00	3000.00
J26_82	9720.00	3000.00
J26_83	9840.00	3000.00
J26_84	9960.00	3000.00
J27_1	0.00	3120.00
J27_2	120.00	3120.00
J27_3	240.00	3120.00
J27_4	360.00	3120.00
J27_5	480.00	3120.00
J27_6	600.00	3120.00
J27_7	720.00	3120.00
J27_8	840.00	3120.00
J27_9	960.00	3120.00
J27_10	1080.00	3120.00
J27_11	1200.00	3120.00
J27_12	1320.00	3120.00
J27_13	1440.00	3120.00
J27_14	1560.00	3120.00
J27_15	1680.00	3120.00
J27_16	1800.00	3120.00
J27_17	1920.00	3120.00
J27_18	2040.00	3120.00
J27_19	2160.00	3120.00
J27_20	2280.00	3120.00
J27_21	2400.00	3120.00
J27_22	2520.00	3120.00
J27_23	2640.00	3120.00
J27_24	2760.00	3120.00
J27_25	2880.00	3120.00
J27_26	3000.00	3120.00
J27_27	3120.00	3120.00
J27_28	3240.00	3120.00
J27_29	3360.00	3120.00
J27_30	3480.00	3120.00
J27_31	3600.00	3120.00
J27_32	3720.00	3120.00
J27_33	3840.00	3120.00
J27_34	3960.00	3120.00
J27_35	4080.00	3120.00
J27_36	4200.00	3120.00
J27_37	4320.00	3120.00
J27_38	4440.00	3120.00
J27_39	4560.00	3120.00
J27_40	4680.00	3120.00
J27_41	4800.00	3120.00
J27_42	4920.00	3120.00
J27_43	5040.00	3120.00
J27_44	5160.00	3120.00
J27_45	5280.00	3120.00
J27_46	5400.00	3120.00
J27_47	5520.00	3120.00
J27_48	5640.00	3120.00
J27_49	5760.00	3120.00
J27_50	5880.00	3120.00
J27_51	6000.00	3120.00
J27_52	6120.00	3120.00
J27_53	6240.00	3120.00
J27_54	6360.00	3120.00
J27_55	6480.00	3120.00
J27_56	6600.00	3120.00
J27_57	6720.00	3120.00
J27_58	6840.00	3120.00
J27_59	6960.00	3120.00
J27_60	7080.00	3120.00
J27_61	7200.00	3120.00
J27_62	7320.00	3120.00
J27_63	7440.00	3120.00
J27_64	7560.00	3120.00
J27_65	7680.00	3120.00
J27_66	7800.00	3120.00
J27_67	7920.00	3120.00
J27_68	8040.00	3120.00
J27_69	8160.00	3120.00
J27_70	8280.00	3120.00
J27_71	8400.00	3120.00
J27_72	8520.00	3120.00
J27_73	8640.00	3120.00
J27_74	8760.00	3120.00
J27_75	8880.00	3120.00
J27_76	9000.00	3120.00
J27_77	9120.00	3120.00
J27_78	9240.00	3120.00
J27_79	9360.00	3120.00
J27_80	9480.00	3120.00
J27_81	9600.00	3120.00
J27_82	9720.00	3120.00
J27_83	9840.00	3120.00
J27_84	9960.00	3120.00
J28_1	0.00	3240.00
J28_2	120.00	3240.00
J28_3	240.00	3240.00
J28_4	360.00	3240.00
J28_5	480.00	3240.00
J28_6	600.00	3240.00
J28_7	720.00	3240.00
J28_8	840.00	3240.00
J28_9	960.00	3240.00
J28_10	1080.00	3240.00
J28_11	1200.00	3240.00
J28_12	1320.00	3240.00
J28_13	1440.00	3240.00
J28_14	1560.00	3240.00
J28_15	1680.00	3240.00
J28_16	1800.00	3240.00
J28_17	1920.00	3240.00
J28_18	2040.00	3240.00
J28_19	2160.00	3240.00
J28_20	2280.00	3240.00
J28_21	2400.00	3240.00
J28_22	2520.00	3240.00
J28_23	2640.00	3240.00
J28_24	2760.00	3240.00
J28_25	2880.00	3240.00
J28_26	3000.00	3240.00
J28_27	3120.00	3240.00
J28_28	3240.00	3240.00
J28_29	3360.00	3240.00
J28_30	3480.00	3240.00
J28_31	3600.00	3240.00
J28_32	3720.00	3240.00
J28_33	3840.00	3240.00
J28_34	3960.00	3240.00
J28_35	4080.00	3240.00
J28_36	4200.00	3240.00
J28_37	4320.00	3240.00
J28_38	4440.00	3240.00
J28_39	4560.00	3240.00
J28_40	4680.00	3240.00
J28_41	4800.00	3240.00
J28_42	4920.00	3240.00
J28_43	5040.00	3240.00
J28_44	5160.00	3240.00
J28_45	5280.00	3240.00
J28_46	5400.00	3240.00
J28_47	5520.00	3240.00
J28_48	5640.00	3240.00
J28_49	5760.00	3240.00
J28_50	5880.00	3240.00
J28_51	6000.00	3240.00
J28_52	6120.00	3240.00
J28_53	6240.00	3240.00
J28_54	6360.00	3240.00
J28_55	6480.00	3240.00
J28_56	6600.00	3240.00
J28_57	6720.00	3240.00
J28_58	6840.00	3240.00
J28_59	6960.00	3240.00
J28_60	7080.00	3240.00
J28_61	7200.00	3240.00
J28_62	7320.00	3240.00
J28_63	7440.00	3240.00
J28_64	7560.00	3240.00
J28_65	7680.00	3240.00
J28_66	7800.00	3240.00
J28_67	7920.00	3240.00
J28_68	8040.00	3240.00
J28_69	8160.00	3240.00
J28_70	8280.00	3240.00
J28_71	8400.00	3240.00
J28_72	8520.00	3240.00
J28_73	8640.00	3240.00
J28_74	8760.00	3240.00
J28_75	8880.00	3240.00
J28_76	9000.00	3240.00
J28_77	9120.00	3240.00
J28_78	9240.00	3240.00
J28_79	9360.00	3240.00
J28_80	9480.00	3240.00
J28_81	9600.00	3240.00
J28_82	9720.00	3240.00
J28_83	9840.00	3240.00
J28_84	9960.00	3240.00
J29_1	0.00	3360.00
J29_2	120.00	3360.00
J29_3	240.00	3360.00
J29_4	360.00	3360.00
J29_5	480.00	3360.00
J29_6	600.00	3360.00
J29_7	720.00	3360.00
J29_8	840.00	3360.00
J29_9	960.00	3360.00
J29_10	1080.00	3360.00
J29_11	1200.00	3360.00
J29_12	1320.00	3360.00
J29_13	1440.00	3360.00
J29_14	1560.00	3360.00
J29_15	1680.00	3360.00
J29_16	1800.00	3360.00
J29_17	1920.00	3360.00
J29_18	2040.00	3360.00
J29_19	2160.00	3360.00
J29_20	2280.00	3360.00
J29_21	2400.00	3360.00
J29_22	2520.00	3360.00
J29_23	2640.00	3360.00
J29_24	2760.00	3360.00
J29_25	2880.00	3360.00
J29_26	3000.00	3360.00
J29_27	3120.00	3360.00
J29_28	3240.00	3360.00
J29_29	3360.00	3360.00
J29_30	3480.00	3360.00
J29_31	3600.00	3360.00
J29_32	3720.00	3360.00
J29_33	3840.00	3360.00
J29_34	3960.00	3360.00
J29_35	4080.00	3360.00
J29_36	4200.00	3360.00
J29_37	4320.00	3360.00
J29_38	4440.00	3360.00
J29_39	4560.00	3360.00
J29_40	4680.00	3360.00
J29_41	4800.00	3360.00
J29_42	4920.00	3360.00
J29_43	5040.00	3360.00
J29_44	5160.00	3360.00
J29_45	5280.00	3360.00
J29_46	5400.00	3360.00
J29_47	5520.00	3360.00
J29_48	5640.00	3360.00
J29_49	5760.00	3360.00
J29_50	5880.00	3360.00
J29_51	6000.00	3360.00
J29_52	6120.00	3360.00
J29_53	6240.00	3360.00
J29_54	6360.00	3360.00
J29_55	6480.00	3360.00
J29_56	6600.00	3360.00
J29_57	6720.00	3360.00
J29_58	6840.00	3360.00
J29_59	6960.00	3360.00
J29_60	7080.00	3360.00
J29_61	7200.00	3360.00
J29_62	7320.00	3360.00
J29_63	7440.00	3360.00
J29_64	7560.00	3360.00
J29_65	7680.00	3360.00
J29_66	7800.00	3360.00
J29_67	7920.00	3360.00
J29_68	8040.00	3360.00
J29_69	8160.00	3360.00
J29_70	8280.00	3360.00
J29_71	8400.00	3360.00
J29_72	8520.00	3360.00
J29_73	8640.00	3360.00
J29_74	8760.00	3360.00
J29_75	8880.00	3360.00
J29_76	9000.00	3360.00
J29_77	9120.00	3360.00
J29_78	9240.00	3360.00
J29_79	9360.00	3360.00
J29_80	9480.00	3360.00
J29_81	9600.00	3360.00
J29_82	9720.00	3360.00
J29_83	9840.00	3360.00
J29_84	9960.00	3360.00
J30_1	0.00	3480.00
J30_2	120.00	3480.00
J30_3	240.00	3480.00
J30_4	360.00	3480.00
J30_5	480.00	3480.00
J30_6	600.00	3480.00
J30_7	720.00	3480.00
J30_8	840.00	3480.00
J30_9	960.00	3480.00
J30_10	1080.00	3480.00
J30_11	1200.00	3480.00
J30_12	1320.00	3480.00
J30_13	1440.00	3480.00
J30_14	1560.00	3480.00
J30_15	1680.00	3480.00
J30_16	1800.00	3480.00
J30_17	1920.00	3480.00
J30_18	2040.00	3480.00
J30_19	2160.00	3480.00
J30_20	2280.00	3480.00
J30_21	2400.00	3480.00
J30_22	2520.00	3480.00
J30_23	2640.00	3480.00
J30_24	2760.00	3480.00
J30_25	2880.00	3480.00
J30_26	3000.00	3480.00
J30_27	3120.00	3480.00
J30_28	3240.00	3480.00
J30_29	3360.00	3480.00
J30_30	3480.00	3480.00
J30_31	3600.00	3480.00
J30_32	3720.00	3480.00
J30_33	3840.00	3480.00
J30_34	3960.00	3480.00
J30_35	4080.00	3480.00
J30_36	4200.00	3480.00
J30_37	4320.00	3480.00
J30_38	4440.00	3480.00
J30_39	4560.00	3480.00
J30_40	4680.00	3480.00
J30_41	4800.00	3480.00
J30_42	4920.00	3480.00
J30_43	5040.00	3480.00
J30_44	5160.00	3480.00
J30_45	5280.00	3480.00
J30_46	5400.00	3480.00
J30_47	5520.00	3480.00
J30_48	5640.00	3480.00
J30_49	5760.00	3480.00
J30_50	5880.00	3480.00
J30_51	6000.00	3480.00
J30_52	6120.00	3480.00
J30_53	6240.00	3480.00
J30_54	6360.00	3480.00
J30_55	6480.00	3480.00
J30_56	6600.00	3480.00
J30_57	6720.00	3480.00
J30_58	6840.00	3480.00
J30_59	6960.00	3480.00
J30_60	7080.00	3480.00
J30_61	7200.00	3480.00
J30_62	7320.00	3480.00
J30_63	7440.00	3480.00
J30_64	7560.00	3480.00
J30_65	7680.00	3480.00
J30_66	7800.00	3480.00
J30_67	7920.00	3480.00
J30_68	8040.00	3480.00
J30_69	8160.00	3480.00
J30_70	8280.00	3480.00
J30_71	8400.00	3480.00
J30_72	8520.00	3480.00
J30_73	8640.00	3480.00
J30_74	8760.00	3480.00
J30_75	8880.00	3480.00
J30_76	9000.00	3480.00
J30_77	9120.00	3480.00
J30_78	9240.00	3480.00
J30_79	9360.00	3480.00
J30_80	9480.00	3480.00
J30_81	9600.00	3480.00
J30_82	9720.00	3480.00
J30_83	9840.00	3480.00
J30_84	9960.00	3480.00
J31_1	0.00	3600.00
J31_2	120.00	3600.00
J31_3	240.00	3600.00
J31_4	360.00	3600.00
J31_5	480.00	3600.00
J31_6	600.00	3600.00
J31_7	720.00	3600.00
J31_8	840.00	3600.00
J31_9	960.00	3600.00
J31_10	1080.00	3600.00
J31_11	1200.00	3600.00
J31_12	1320.00	3600.00
J31_13	1440.00	3600.00
J31_14	1560.00	3600.00
J31_15	1680.00	3600.00
J31_16	1800.00	3600.00
J31_17	1920.00	3600.00
J31_18	2040.00	3600.00
J31_19	2160.00	3600.00
J31_20	2280.00	3600.00
J31_21	2400.00	3600.00
J31_22	2520.00	3600.00
J31_23	2640.00	3600.00
J31_24	2760.00	3600.00
J31_25	2880.00	3600.00
J31_26	3000.00	3600.00
J31_27	3120.00	3600.00
J31_28	3240.00	3600.00
J31_29	3360.00	3600.00
J31_30	3480.00	3600.00
J31_31	3600.00	3600.00
J31_32	3720.00	3600.00
J31_33	3840.00	3600.00
J31_34	3960.00	3600.00
J31_35	4080.00	3600.00
J31_36	4200.00	3600.00
J31_37	4320.00	3600.00
J31_38	4440.00	3600.00
J31_39	4560.00	3600.00
J31_40	4680.00	3600.00
J31_41	4800.00	3600.00
J31_42	4920.00	3600.00
J31_43	5040.00	3600.00
J31_44	5160.00	3600.00
J31_45	5280.00	3600.00
J31_46	5400.00	3600.00
J31_47	5520.00	3600.00
J31_48	5640.00	3600.00
J31_49	5760.00	3600.00
J31_50	5880.00	3600.00
J31_51	6000.00	3600.00
J31_52	6120.00	3600.00
J31_53	6240.00	3600.00
J31_54	6360.00	3600.00
J31_55	6480.00	3600.00
J31_56	6600.00	3600.00
J31_57	6720.00	3600.00
J31_58	6840.00	3600.00
J31_59	6960.00	3600.00
J31_60	7080.00	3600.00
J31_61	7200.00	3600.00
J31_62	7320.00	3600.00
J31_63	7440.00	3600.00
J31_64	7560.00	3600.00
J31_65	7680.00	3600.00
J31_66	7800.00	3600.00
J31_67	7920.00	3600.00
J31_68	8040.00	3600.00
J31_69	8160.00	3600.00
J31_70	8280.00	3600.00
J31_71	8400.00	3600.00
J31_72	8520.00	3600.00
J31_73	8640.00	3600.00
J31_74	8760.00	3600.00
J31_75	8880.00	3600.00
J31_76	9000.00	3600.00
J31_77	9120.00	3600.00
J31_78	9240.00	3600.00
J31_79	9360.00	3600.00
J31_80	9480.00	3600.00
J31_81	9600.00	3600.00
J31_82	9720.00	3600.00
J31_83	9840.00	3600.00
J31_84	9960.00	3600.00
J32_1	0.00	3720.00
J32_2	120.00	3720.00
J32_3	240.00	3720.00
J32_4	360.00	3720.00
J32_5	480.00	3720.00
J32_6	600.00	3720.00
J32_7	720.00	3720.00
J32_8	840.00	3720.00
J32_9	960.00	3720.00
J32_10	1080.00	3720.00
J32_11	1200.00	3720.00
J32_12	1320.00	3720.00
J32_13	1440.00	3720.00
J32_14	1560.00	3720.00
J32_15	1680.00	3720.00
J32_16	1800.00	3720.00
J32_17	1920.00	3720.00
J32_18	2040.00	3720.00
J32_19	2160.00	3720.00
J32_20	2280.00	3720.00
J32_21	2400.00	3720.00
J32_22	2520.00	3720.00
J32_23	2640.00	3720.00
J32_24	2760.00	3720.00
J32_25	2880.00	3720.00
J32_26	3000.00	3720.00
J32_27	3120.00	3720.00
J32_28	3240.00	3720.00
J32_29	3360.00	3720.00
J32_30	3480.00	3720.00
J32_31	3600.00	3720.00
J32_32	3720.00	3720.00
J32_33	3840.00	3720.00
J32_34	3960.00	3720.00
J32_35	4080.00	3720.00
J32_36	4200.00	3720.00
J32_37	4320.00	3720.00
J32_38	4440.00	3720.00
J32_39	4560.00	3720.00
J32_40	4680.00	3720.00
J32_41	4800.00	3720.00
J32_42	4920.00	3720.00
J32_43	5040.00	3720.00
J32_44	5160.00	3720.00
J32_45	5280.00	3720.00
J32_46	5400.00	3720.00
J32_47	5520.00	3720.00
J32_48	5640.00	3720.00
J32_49	5760.00	3720.00
J32_50	5880.00	3720.00
J32_51	6000.00	3720.00
J32_52	6120.00	3720.00
J32_53	6240.00	3720.00
J32_54	6360.00	3720.00
J32_55	6480.00	3720.00
J32_56	6600.00	3720.00
J32_57	6720.00	3720.00
J32_58	6840.00	3720.00
J32_59	6960.00	3720.00
J32_60	7080.00	3720.00
J32_61	7200.00	3720.00
J32_62	7320.00	3720.00
J32_63	7440.00	3720.00
J32_64	7560.00	3720.00
J32_65	7680.00	3720.00
J32_66	7800.00	3720.00
J32_67	7920.00	3720.00
J32_68	8040.00	3720.00
J32_69	8160.00	3720.00
J32_70	8280.00	3720.00
J32_71	8400.00	3720.00
J32_72	8520.00	3720.00
J32_73	8640.00	3720.00
J32_74	8760.00	3720.00
J32_75	8880.00	3720.00
J32_76	9000.00	3720.00
J32_77	9120.00	3720.00
J32_78	9240.00	3720.00
J32_79	9360.00	3720.00
J32_80	9480.00	3720.00
J32_81	9600.00	3720.00
J32_82	9720.00	3720.00
J32_83	9840.00	3720.00
J32_84	9960.00	3720.00
J33_1	0.00	3840.00
J33_2	120.00	3840.00
J33_3	240.00	3840.00
J33_4	360.00	3840.00
J33_5	480.00	3840.00
J33_6	600.00	3840.00
J33_7	720.00	3840.00
J33_8	840.00	3840.00
J33_9	960.00	3840.00
J33_10	1080.00	3840.00
J33_11	1200.00	3840.00
J33_12	1320.00	3840.00
J33_13	1440.00	3840.00
J33_14	1560.00	3840.00
J33_15	1680.00	3840.00
J33_16	1800.00	3840.00
J33_17	1920.00	3840.00
J33_18	2040.00	3840.00
J33_19	2160.00	3840.00
J33_20	2280.00	3840.00
J33_21	2400.00	3840.00
J33_22	2520.00	3840.00
J33_23	2640.00	3840.00
J33_24	2760.00	3840.00
J33_25	2880.00	3840.00
J33_26	3000.00	3840.00
J33_27	3120.00	3840.00
J33_28	3240.00	3840.00
J33_29	3360.00	3840.00
J33_30	3480.00	3840.00
J33_31	3600.00	3840.00
J33_32	3720.00	3840.00
J33_33	3840.00	3840.00
J33_34	3960.00	3840.00
J33_35	4080.00	3840.00
J33_36	4200.00	3840.00
J33_37	4320.00	3840.00
J33_38	4440.00	3840.00
J33_39	4560.00	3840.00
J33_40	4680.00	3840.00
J33_41	4800.00	3840.00
J33_42	4920.00	3840.00
J33_43	5040.00	3840.00
J33_44	5160.00	3840.00
J33_45	5280.00	3840.00
J33_46	5400.00	3840.00
J33_47	5520.00	3840.00
J33_48	5640.00	3840.00
J33_49	5760.00	3840.00
J33_50	5880.00	3840.00
J33_51	6000.00	3840.00
J33_52	6120.00	3840.00
J33_53	6240.00	3840.00
J33_54	6360.00	3840.00
J33_55	6480.00	3840.00
J33_56	6600.00	3840.00
J33_57	6720.00	3840.00
J33_58	6840.00	3840.00
J33_59	6960.00	3840.00
J33_60	7080.00	3840.00
J33_61	7200.00	3840.00
J33_62	7320.00	3840.00
J33_63	7440.00	3840.00
J33_64	7560.00	3840.00
J33_65	7680.00	3840.00
J33_66	7800.00	3840.00
J33_67	7920.00	3840.00
J33_68	8040.00	3840.00
J33_69	8160.00	3840.00
J33_70	8280.00	3840.00
J33_71	8400.00	3840.00
J33_72	8520.00	3840.00
J33_73	8640.00	3840.00
J33_74	8760.00	3840.00
J33_75	8880.00	3840.00
J33_76	9000.00	3840.00
J33_77	9120.00	3840.00
J33_78	9240.00	3840.00
J33_79	9360.00	3840.00
J33_80	9480.00	3840.00
J33_81	9600.00	3840.00
J33_82	9720.00	3840.00
J33_83	9840.00	3840.00
J33_84	9960.00	3840.00
J34_1	0.00	3960.00
J34_2	120.00	3960.00
J34_3	240.00	3960.00
J34_4	360.00	3960.00
J34_5	480.00	3960.00
J34_6	600.00	3960.00
J34_7	720.00	3960.00
J34_8	840.00	3960.00
J34_9	960.00	3960.00
J34_10	1080.00	3960.00
J34_11	1200.00	3960.00
J34_12	1320.00	3960.00
J34_13	1440.00	3960.00
J34_14	1560.00	3960.00
J34_15	1680.00	3960.00
J34_16	1800.00	3960.00
J34_17	1920.00	3960.00
J34_18	2040.00	3960.00
J34_19	2160.00	3960.00
J34_20	2280.00	3960.00
J34_21	2400.00	3960.00
J34_22	2520.00	3960.00
J34_23	2640.00	3960.00
J34_24	2760.00	3960.00
J34_25	2880.00	3960.00
J34_26	3000.00	3960.00
J34_27	3120.00	3960.00
J34_28	3240.00	3960.00
J34_29	3360.00	3960.00
J34_30	3480.00	3960.00
J34_31	3600.00	3960.00
J34_32	3720.00	3960.00
J34_33	3840.00	3960.00
J34_34	3960.00	3960.00
J34_35	4080.00	3960.00
J34_36	4200.00	3960.00
J34_37	4320.00	3960.00
J34_38	4440.00	3960.00
J34_39	4560.00	3960.00
J34_40	4680.00	3960.00
J34_41	4800.00	3960.00
J34_42	4920.00	3960.00
J34_43	5040.00	3960.00
J34_44	5160.00	3960.00
J34_45	5280.00	3960.00
J34_46	5400.00	3960.00
J34_47	5520.00	3960.00
J34_48	5640.00	3960.00
J34_49	5760.00	3960.00
J34_50	5880.00	3960.00
J34_51	6000.00	3960.00
J34_52	6120.00	3960.00
J34_53	6240.00	3960.00
J34_54	6360.00	3960.00
J34_55	6480.00	3960.00
J34_56	6600.00	3960.00
J34_57	6720.00	3960.00
J34_58	6840.00	3960.00
J34_59	6960.00	3960.00
J34_60	7080.00	3960.00
J34_61	7200.00	3960.00
J34_62	7320.00	3960.00
J34_63	7440.00	3960.00
J34_64	7560.00	3960.00
J34_65	7680.00	3960.00
J34_66	7800.00	3960.00
J34_67	7920.00	3960.00
J34_68	8040.00	3960.00
J34_69	8160.00	3960.00
J34_70	8280.00	3960.00
J34_71	8400.00	3960.00
J34_72	8520.00	3960.00
J34_73	8640.00	3960.00
J34_74	8760.00	3960.00
J34_75	8880.00	3960.00
J34_76	9000.00	3960.00
J34_77	9120.00	3960.00
J34_78	9240.00	3960.00
J34_79	9360.00	3960.00
J34_80	9480.00	3960.00
J34_81	9600.00	3960.00
J34_82	9720.00	3960.00
J34_83	9840.00	3960.00
J34_84	9960.00	3960.00
J35_1	0.00	4080.00
J35_2	120.00	4080.00
J35_3	240.00	4080.00
J35_4	360.00	4080.00
J35_5	480.00	4080.00
J35_6	600.00	4080.00
J35_7	720.00	4080.00
J35_8	840.00	4080.00
J35_9	960.00	4080.00
J35_10	1080.00	4080.00
J35_11	1200.00	4080.00
J35_12	1320.00	4080.00
J35_13	1440.00	4080.00
J35_14	1560.00	4080.00
J35_15	1680.00	4080.00
J35_16	1800.00	4080.00
J35_17	1920.00	4080.00
J35_18	2040.00	4080.00
J35_19	2160.00	4080.00
J35_20	2280.00	4080.00
J35_21	2400.00	4080.00
J35_22	2520.00	4080.00
J35_23	2640.00	4080.00
J35_24	2760.00	4080.00
J35_25	2880.00	4080.00
J35_26	3000.00	4080.00
J35_27	3120.00	4080.00
J35_28	3240.00	4080.00
J35_29	3360.00	4080.00
J35_30	3480.00	4080.00
J35_31	3600.00	4080.00
J35_32	3720.00	4080.00
J35_33	3840.00	4080.00
J35_34	3960.00	4080.00
J35_35	4080.00	4080.00
J35_36	4200.00	4080.00
J35_37	4320.00	4080.00
J35_38	4440.00	4080.00
J35_39	4560.00	4080.00
J35_40	4680.00	4080.00
J35_41	4800.00	4080.00
J35_42	4920.00	4080.00
J35_43	5040.00	4080.00
J35_44	5160.00	4080.00
J35_45	5280.00	4080.00
J35_46	5400.00	4080.00
J35_47	5520.00	4080.00
J35_48	5640.00	4080.00
J35_49	5760.00	4080.00
J35_50	5880.00	4080.00
J35_51	6000.00	4080.00
J35_52	6120.00	4080.00
J35_53	6240.00	4080.00
J35_54	6360.00	4080.00
J35_55	6480.00	4080.00
J35_56	6600.00	4080.00
J35_57	6720.00	4080.00
J35_58	6840.00	4080.00
J35_59	6960.00	4080.00
J35_60	7080.00	4080.00
J35_61	7200.00	4080.00
J35_62	7320.00	4080.00
J35_63	7440.00	4080.00
J35_64	7560.00	4080.00
J35_65	7680.00	4080.00
J35_66	7800.00	4080.00
J35_67	7920.00	4080.00
J35_68	8040.00	4080.00
J35_69	8160.00	4080.00
J35_70	8280.00	4080.00
J35_71	8400.00	4080.00
J35_72	8520.00	4080.00
J35_73	8640.00	4080.00
J35_74	8760.00	4080.00
J35_75	8880.00	4080.00
J35_76	9000.00	4080.00
J35_77	9120.00	4080.00
J35_78	9240.00	4080.00
J35_79	9360.00	4080.00
J35_80	9480.00	4080.00
J35_81	9600.00	4080.00
J35_82	9720.00	4080.00
J35_83	9840.00	4080.00
J35_84	9960.00	4080.00
J36_1	0.00	4200.00
J36_2	120.00	4200.00
J36_3	240.00	4200.00
J36_4	360.00	4200.00
J36_5	480.00	4200.00
J36_6	600.00	4200.00
J36_7	720.00	4200.00
J36_8	840.00	4200.00
J36_9	960.00	4200.00
J36_10	1080.00	4200.00
J36_11	1200.00	4200.00
J36_12	1320.00	4200.00
J36_13	1440.00	4200.00
J36_14	1560.00	4200.00
J36_15	1680.00	4200.00
J36_16	1800.00	4200.00
J36_17	1920.00	4200.00
J36_18	2040.00	4200.00
J36_19	2160.00	4200.00
J36_20	2280.00	4200.00
J36_21	2400.00	4200.00
J36_22	2520.00	4200.00
J36_23	2640.00	4200.00
J36_24	2760.00	4200.00
J36_25	2880.00	4200.00
J36_26	3000.00	4200.00
J36_27	3120.00	4200.00
J36_28	3240.00	4200.00
J36_29	3360.00	4200.00
J36_30	3480.00	4200.00
J36_31	3600.00	4200.00
J36_32	3720.00	4200.00
J36_33	3840.00	4200.00
J36_34	3960.00	4200.00
J36_35	4080.00	4200.00
J36_36	4200.00	4200.00
J36_37	4320.00	4200.00
J36_38	4440.00	4200.00
J36_39	4560.00	4200.00
J36_40	4680.00	4200.00
J36_41	4800.00	4200.00
J36_42	4920.00	4200.00
J36_43	5040.00	4200.00
J36_44	5160.00	4200.00
J36_45	5280.00	4200.00
J36_46	5400.00	4200.00
J36_47	5520.00	4200.00
J36_48	5640.00	4200.00
J36_49	5760.00	4200.00
J36_50	5880.00	4200.00
J36_51	6000.00	4200.00
J36_52	6120.00	4200.00
J36_53	6240.00	4200.00
J36_54	6360.00	4200.00
J36_55	6480.00	4200.00
J36_56	6600.00	4200.00
J36_57	6720.00	4200.00
J36_58	6840.00	4200.00
J36_59	6960.00	4200.00
J36_60	7080.00	4200.00
J36_61	7200.00	4200.00
J36_62	7320.00	4200.00
J36_63	7440.00	4200.00
J36_64	7560.00	4200.00
J36_65	7680.00	4200.00
J36_66	7800.00	4200.00
J36_67	7920.00	4200.00
J36_68	8040.00	4200.00
J36_69	8160.00	4200.00
J36_70	8280.00	4200.00
J36_71	8400.00	4200.00
J36_72	8520.00	4200.00
J36_73	8640.00	4200.00
J36_74	8760.00	4200.00
J36_75	8880.00	4200.00
J36_76	9000.00	4200.00
J36_77	9120.00	4200.00
J36_78	9240.00	4200.00
J36_79	9360.00	4200.00
J36_80	9480.00	4200.00
J36_81	9600.00	4200.00
J36_82	9720.00	4200.00
J36_83	9840.00	4200.00
J36_84	9960.00	4200.00
J37_1	0.00	4320.00
J37_2	120.00	4320.00
J37_3	240.00	4320.00
J37_4	360.00	4320.00
J37_5	480.00	4320.00
J37_6	600.00	4320.00
J37_7	720.00	4320.00
J37_8	840.00	4320.00
J37_9	960.00	4320.00
J37_10	1080.00	4320.00
J37_11	1200.00	4320.00
J37_12	1320.00	4320.00
J37_13	1440.00	4320.00
J37_14	1560.00	4320.00
J37_15	1680.00	4320.00
J37_16	1800.00	4320.00
J37_17	1920.00	4320.00
J37_18	2040.00	4320.00
J37_19	2160.00	4320.00
J37_20	2280.00	4320.00
J37_21	2400.00	4320.00
J37_22	2520.00	4320.00
J37_23	2640.00	4320.00
J37_24	2760.00	4320.00
J37_25	2880.00	4320.00
J37_26	3000.00	4320.00
J37_27	3120.00	4320.00
J37_28	3240.00	4320.00
J37_29	3360.00	4320.00
J37_30	3480.00	4320.00
J37_31	3600.00	4320.00
J37_32	3720.00	4320.00
J37_33	3840.00	4320.00
J37_34	3960.00	4320.00
J37_35	4080.00	4320.00
J37_36	4200.00	4320.00
J37_37	4320.00	4320.00
J37_38	4440.00	4320.00
J37_39	4560.00	4320.00
J37_40	4680.00	4320.00
J37_41	4800.00	4320.00
J37_42	4920.00	4320.00
J37_43	5040.00	4320.00
J37_44	5160.00	4320.00
J37_45	5280.00	4320.00
J37_46	5400.00	4320.00
J37_47	5520.00	4320.00
J37_48	5640.00	4320.00
J37_49	5760.00	4320.00
J37_50	5880.00	4320.00
J37_51	6000.00	4320.00
J37_52	6120.00	4320.00
J37_53	6240.00	4320.00
J37_54	6360.00	4320.00
J37_55	6480.00	4320.00
J37_56	6600.00	4320.00
J37_57	6720.00	4320.00
J37_58	6840.00	4320.00
J37_59	6960.00	4320.00
J37_60	7080.00	4320.00
J37_61	7200.00	4320.00
J37_62	7320.00	4320.00
J37_63	7440.00	4320.00
J37_64	7560.00	4320.00
J37_65	7680.00	4320.00
J37_66	7800.00	4320.00
J37_67	7920.00	4320.00
J37_68	8040.00	4320.00
J37_69	8160.00	4320.00
J37_70	8280.00	4320.00
J37_71	8400.00	4320.00
J37_72	8520.00	4320.00
J37_73	8640.00	4320.00
J37_74	8760.00	4320.00
J37_75	8880.00	4320.00
J37_76	9000.00	4320.00
J37_77	9120.00	4320.00
J37_78	9240.00	4320.00
J37_79	9360.00	4320.00
J37_80	9480.00	4320.00
J37_81	9600.00	4320.00
J37_82	9720.00	4320.00
J37_83	9840.00	4320.00
J37_84	9960.00	4320.00
J38_1	0.00	4440.00
J38_2	120.00	4440.00
J38_3	240.00	4440.00
J38_4	360.00	4440.00
J38_5	480.00	4440.00
J38_6	600.00	4440.00
J38_7	720.00	4440.00
J38_8	840.00	4440.00
J38_9	960.00	4440.00
J38_10	1080.00	4440.00
J38_11	1200.00	4440.00
J38_12	1320.00	4440.00
J38_13	1440.00	4440.00
J38_14	1560.00	4440.00
J38_15	1680.00	4440.00
J38_16	1800.00	4440.00
J38_17	1920.00	4440.00
J38_18	2040.00	4440.00
J38_19	2160.00	4440.00
J38_20	2280.00	4440.00
J38_21	2400.00	4440.00
J38_22	2520.00	4440.00
J38_23	2640.00	4440.00
J38_24	2760.00	4440.00
J38_25	2880.00	4440.00
J38_26	3000.00	4440.00
J38_27	3120.00	4440.00
J38_28	3240.00	4440.00
J38_29	3360.00	4440.00
J38_30	3480.00	4440.00
J38_31	3600.00	4440.00
J38_32	3720.00	4440.00
J38_33	3840.00	4440.00
J38_34	3960.00	4440.00
J38_35	4080.00	4440.00
J38_36	4200.00	4440.00
J38_37	4320.00	4440.00
J38_38	4440.00	4440.00
J38_39	4560.00	4440.00
J38_40	4680.00	4440.00
J38_41	4800.00	4440.00
J38_42	4920.00	4440.00
J38_43	5040.00	4440.00
J38_44	5160.00	4440.00
J38_45	5280.00	4440.00
J38_46	5400.00	4440.00
J38_47	5520.00	4440.00
J38_48	5640.00	4440.00
J38_49	5760.00	4440.00
J38_50	5880.00	4440.00
J38_51	6000.00	4440.00
J38_52	6120.00	4440.00
J38_53	6240.00	4440.00
J38_54	6360.00	4440.00
J38_55	6480.00	4440.00
J38_56	6600.00	4440.00
J38_57	6720.00	4440.00
J38_58	6840.00	4440.00
J38_59	6960.00	4440.00
J38_60	7080.00	4440.00
J38_61	7200.00	4440.00
J38_62	7320.00	4440.00
J38_63	7440.00	4440.00
J38_64	7560.00	4440.00
J38_65	7680.00	4440.00
J38_66	7800.00	4440.00
J38_67	7920.00	4440.00
J38_68	8040.00	4440.00
J38_69	8160.00	4440.00
J38_70	8280.00	4440.00
J38_71	8400.00	4440.00
J38_72	8520.00	4440.00
J38_73	8640.00	4440.00
J38_74	8760.00	4440.00
J38_75	8880.00	4440.00
J38_76	9000.00	4440.00
J38_77	9120.00	4440.00
J38_78	9240.00	4440.00
J38_79	9360.00	4440.00
J38_80	9480.00	4440.00
J38_81	9600.00	4440.00
J38_82	9720.00	4440.00
J38_83	9840.00	4440.00
J38_84	9960.00	4440.00
J39_1	0.00	4560.00
J39_2	120.00	4560.00
J39_3	240.00	4560.00
J39_4	360.00	4560.00
J39_5	480.00	4560.00
J39_6	600.00	4560.00
J39_7	720.00	4560.00
J39_8	840.00	4560.00
J39_9	960.00	4560.00
J39_10	1080.00	4560.00
J39_11	1200.00	4560.00
J39_12	1320.00	4560.00
J39_13	1440.00	4560.00
J39_14	1560.00	4560.00
J39_15	1680.00	4560.00
J39_16	1800.00	4560.00
J39_17	1920.00	4560.00
J39_18	2040.00	4560.00
J39_19	2160.00	4560.00
J39_20	2280.00	4560.00
J39_21	2400.00	4560.00
J39_22	2520.00	4560.00
J39_23	2640.00	4560.00
J39_24	2760.00	4560.00
J39_25	2880.00	4560.00
J39_26	3000.00	4560.00
J39_27	3120.00	4560.00
J39_28	3240.00	4560.00
J39_29	3360.00	4560.00
J39_30	3480.00	4560.00
J39_31	3600.00	4560.00
J39_32	3720.00	4560.00
J39_33	3840.00	4560.00
J39_34	3960.00	4560.00
J39_35	4080.00	4560.00
J39_36	4200.00	4560.00
J39_37	4320.00	4560.00
J39_38	4440.00	4560.00
J39_39	4560.00	4560.00
J39_40	4680.00	4560.00
J39_41	4800.00	4560.00
J39_42	4920.00	4560.00
J39_43	5040.00	4560.00
J39_44	5160.00	4560.00
J39_45	5280.00	4560.00
J39_46	5400.00	4560.00
J39_47	5520.00	4560.00
J39_48	5640.00	4560.00
J39_49	5760.00	4560.00
J39_50	5880.00	4560.00
J39_51	6000.00	4560.00
J39_52	6120.00	4560.00
J39_53	6240.00	4560.00
J39_54	6360.00	4560.00
J39_55	6480.00	4560.00
J39_56	6600.00	4560.00
J39_57	6720.00	4560.00
J39_58	6840.00	4560.00
J39_59	6960.00	4560.00
J39_60	7080.00	4560.00
J39_61	7200.00	4560.00
J39_62	7320.00	4560.00
J39_63	7440.00	4560.00
J39_64	7560.00	4560.00
J39_65	7680.00	4560.00
J39_66	7800.00	4560.00
J39_67	7920.00	4560.00
J39_68	8040.00	4560.00
J39_69	8160.00	4560.00
J39_70	8280.00	4560.00
J39_71	8400.00	4560.00
J39_72	8520.00	4560.00
J39_73	8640.00	4560.00
J39_74	8760.00	4560.00
J39_75	8880.00	4560.00
J39_76	9000.00	4560.00
J39_77	9120.00	4560.00
J39_78	9240.00	4560.00
J39_79	9360.00	4560.00
J39_80	9480.00	4560.00
J39_81	9600.00	4560.00
J39_82	9720.00	4560.00
J39_83	9840.00	4560.00
J39_84	9960.00	4560.00
J40_1	0.00	4680.00
J40_2	120.00	4680.00
J40_3	240.00	4680.00
J40_4	360.00	4680.00
J40_5	480.00	4680.00
J40_6	600.00	4680.00
J40_7	720.00	4680.00
J40_8	840.00	4680.00
J40_9	960.00	4680.00
J40_10	1080.00	4680.00
J40_11	1200.00	4680.00
J40_12	1320.00	4680.00
J40_13	1440.00	4680.00
J40_14	1560.00	4680.00
J40_15	1680.00	4680.00
J40_16	1800.00	4680.00
J40_17	1920.00	4680.00
J40_18	2040.00	4680.00
J40_19	2160.00	4680.00
J40_20	2280.00	4680.00
J40_21	2400.00	4680.00
J40_22	2520.00	4680.00
J40_23	2640.00	4680.00
J40_24	2760.00	4680.00
J40_25	2880.00	4680.00
J40_26	3000.00	4680.00
J40_27	3120.00	4680.00
J40_28	3240.00	4680.00
J40_29	3360.00	4680.00
J40_30	3480.00	4680.00
J40_31	3600.00	4680.00
J40_32	3720.00	4680.00
J40_33	3840.00	4680.00
J40_34	3960.00	4680.00
J40_35	4080.00	4680.00
J40_36	4200.00	4680.00
J40_37	4320.00	4680.00
J40_38	4440.00	4680.00
J40_39	4560.00	4680.00
J40_40	4680.00	4680.00
J40_41	4800.00	4680.00
J40_42	4920.00	4680.00
J40_43	5040.00	4680.00
J40_44	5160.00	4680.00
J40_45	5280.00	4680.00
J40_46	5400.00	4680.00
J40_47	5520.00	4680.00
J40_48	5640.00	4680.00
J40_49	5760.00	4680.00
J40_50	5880.00	4680.00
J40_51	6000.00	4680.00
J40_52	6120.00	4680.00
J40_53	6240.00	4680.00
J40_54	6360.00	4680.00
J40_55	6480.00	4680.00
J40_56	6600.00	4680.00
J40_57	6720.00	4680.00
J40_58	6840.00	4680.00
J40_59	6960.00	4680.00
J40_60	7080.00	4680.00
J40_61	7200.00	4680.00
J40_62	7320.00	4680.00
J40_63	7440.00	4680.00
J40_64	7560.00	4680.00
J40_65	7680.00	4680.00
J40_66	7800.00	4680.00
J40_67	7920.00	4680.00
J40_68	8040.00	4680.00
J40_69	8160.00	4680.00
J40_70	8280.00	4680.00
J40_71	8400.00	4680.00
J40_72	8520.00	4680.00
J40_73	8640.00	4680.00
J40_74	8760.00	4680.00
J40_75	8880.00	4680.00
J40_76	9000.00	4680.00
J40_77	9120.00	4680.00
J40_78	9240.00	4680.00
J40_79	9360.00	4680.00
J40_80	9480.00	4680.00
J40_81	9600.00	4680.00
J40_82	9720.00	4680.00
J40_83	9840.00	4680.00
J40_84	9960.00	4680.00
J41_1	0.00	4800.00
J41_2	120.00	4800.00
J41_3	240.00	4800.00
J41_4	360.00	4800.00
J41_5	480.00	4800.00
J41_6	600.00	4800.00
J41_7	720.00	4800.00
J41_8	840.00	4800.00
J41_9	960.00	4800.00
J41_10	1080.00	4800.00
J41_11	1200.00	4800.00
J41_12	1320.00	4800.00
J41_13	1440.00	4800.00
J41_14	1560.00	4800.00
J41_15	1680.00	4800.00
J41_16	1800.00	4800.00
J41_17	1920.00	4800.00
J41_18	2040.00	4800.00
J41_19	2160.00	4800.00
J41_20	2280.00	4800.00
J41_21	2400.00	4800.00
J41_22	2520.00	4800.00
J41_23	2640.00	4800.00
J41_24	2760.00	4800.00
J41_25	2880.00	4800.00
J41_26	3000.00	4800.00
J41_27	3120.00	4800.00
J41_28	3240.00	4800.00
J41_29	3360.00	4800.00
J41_30	3480.00	4800.00
J41_31	3600.00	4800.00
J41_32	3720.00	4800.00
J41_33	3840.00	4800.00
J41_34	3960.00	4800.00
J41_35	4080.00	4800.00
J41_36	4200.00	4800.00
J41_37	4320.00	4800.00
J41_38	4440.00	4800.00
J41_39	4560.00	4800.00
J41_40	4680.00	4800.00
J41_41	4800.00	4800.00
J41_42	4920.00	4800.00
J41_43	5040.00	4800.00
J41_44	5160.00	4800.00
J41_45	5280.00	4800.00
J41_46	5400.00	4800.00
J41_47	5520.00	4800.00
J41_48	5640.00	4800.00
J41_49	5760.00	4800.00
J41_50	5880.00	4800.00
J41_51	6000.00	4800.00
J41_52	6120.00	4800.00
J41_53	6240.00	4800.00
J41_54	6360.00	4800.00
J41_55	6480.00	4800.00
J41_56	6600.00	4800.00
J41_57	6720.00	4800.00
J41_58	6840.00	4800.00
J41_59	6960.00	4800.00
J41_60	7080.00	4800.00
J41_61	7200.00	4800.00
J41_62	7320.00	4800.00
J41_63	7440.00	4800.00
J41_64	7560.00	4800.00
J41_65	7680.00	4800.00
J41_66	7800.00	4800.00
J41_67	7920.00	4800.00
J41_68	8040.00	4800.00
J41_69	8160.00	4800.00
J41_70	8280.00	4800.00
J41_71	8400.00	4800.00
J41_72	8520.00	4800.00
J41_73	8640.00	4800.00
J41_74	8760.00	4800.00
J41_75	8880.00	4800.00
J41_76	9000.00	4800.00
J41_77	9120.00	4800.00
J41_78	9240.00	4800.00
J41_79	9360.00	4800.00
J41_80	9480.00	4800.00
J41_81	9600.00	4800.00
J41_82	9720.00	4800.00
J41_83	9840.00	4800.00
J41_84	9960.00	4800.00
J42_1	0.00	4920.00
J42_2	120.00	4920.00
J42_3	240.00	4920.00
J42_4	360.00	4920.00
J42_5	480.00	4920.00
J42_6	600.00	4920.00
J42_7	720.00	4920.00
J42_8	840.00	4920.00
J42_9	960.00	4920.00
J42_10	1080.00	4920.00
J42_11	1200.00	4920.00
J42_12	1320.00	4920.00
J42_13	1440.00	4920.00
J42_14	1560.00	4920.00
J42_15	1680.00	4920.00
J42_16	1800.00	4920.00
J42_17	1920.00	4920.00
J42_18	2040.00	4920.00
J42_19	2160.00	4920.00
J42_20	2280.00	4920.00
J42_21	2400.00	4920.00
J42_22	2520.00	4920.00
J42_23	2640.00	4920.00
J42_24	2760.00	4920.00
J42_25	2880.00	4920.00
J42_26	3000.00	4920.00
J42_27	3120.00	4920.00
J42_28	3240.00	4920.00
J42_29	3360.00	4920.00
J42_30	3480.00	4920.00
J42_31	3600.00	4920.00
J42_32	3720.00	4920.00
J42_33	3840.00	4920.00
J42_34	3960.00	4920.00
J42_35	4080.00	4920.00
J42_36	4200.00	4920.00
J42_37	4320.00	4920.00
J42_38	4440.00	4920.00
J42_39	4560.00	4920.00
J42_40	4680.00	4920.00
J42_41	4800.00	4920.00
J42_42	4920.00	4920.00
J42_43	5040.00	4920.00
J42_44	5160.00	4920.00
J42_45	5280.00	4920.00
J42_46	5400.00	4920.00
J42_47	5520.00	4920.00
J42_48	5640.00	4920.00
J42_49	5760.00	4920.00
J42_50	5880.00	4920.00
J42_51	6000.00	4920.00
J42_52	6120.00	4920.00
J42_53	6240.00	4920.00
J42_54	6360.00	4920.00
J42_55	6480.00	4920.00
J42_56	6600.00	4920.00
J42_57	6720.00	4920.00
J42_58	6840.00	4920.00
J42_59	6960.00	4920.00
J42_60	7080.00	4920.00
J42_61	7200.00	4920.00
J42_62	7320.00	4920.00
J42_63	7440.00	4920.00
J42_64	7560.00	4920.00
J42_65	7680.00	4920.00
J42_66	7800.00	4920.00
J42_67	7920.00	4920.00
J42_68	8040.00	4920.00
J42_69	8160.00	4920.00
J42_70	8280.00	4920.00
J42_71	8400.00	4920.00
J42_72	8520.00	4920.00
J42_73	8640.00	4920.00
J42_74	8760.00	4920.00
J42_75	8880.00	4920.00
J42_76	9000.00	4920.00
J42_77	9120.00	4920.00
J42_78	9240.00	4920.00
J42_79	9360.00	4920.00
J42_80	9480.00	4920.00
J42_81	9600.00	4920.00
J42_82	9720.00	4920.00
J42_83	9840.00	4920.00
J42_84	9960.00	4920.00
J43_1	0.00	5040.00
J43_2	120.00	5040.00
J43_3	240.00	5040.00
J43_4	360.00	5040.00
J43_5	480.00	5040.00
J43_6	600.00	5040.00
J43_7	720.00	5040.00
J43_8	840.00	5040.00
J43_9	960.00	5040.00
J43_10	1080.00	5040.00
J43_11	1200.00	5040.00
J43_12	1320.00	5040.00
J43_13	1440.00	5040.00
J43_14	1560.00	5040.00
J43_15	1680.00	5040.00
J43_16	1800.00	5040.00
J43_17	1920.00	5040.00
J43_18	2040.00	5040.00
J43_19	2160.00	5040.00
J43_20	2280.00	5040.00
J43_21	2400.00	5040.00
J43_22	2520.00	5040.00
J43_23	2640.00	5040.00
J43_24	2760.00	5040.00
J43_25	2880.00	5040.00
J43_26	3000.00	5040.00
J43_27	3120.00	5040.00
J43_28	3240.00	5040.00
J43_29	3360.00	5040.00
J43_30	3480.00	5040.00
J43_31	3600.00	5040.00
J43_32	3720.00	5040.00
J43_33	3840.00	5040.00
J43_34	3960.00	5040.00
J43_35	4080.00	5040.00
J43_36	4200.00	5040.00
J43_37	4320.00	5040.00
J43_38	4440.00	5040.00
J43_39	4560.00	5040.00
J43_40	4680.00	5040.00
J43_41	4800.00	5040.00
J43_42	4920.00	5040.00
J43_43	5040.00	5040.00
J43_44	5160.00	5040.00
J43_45	5280.00	5040.00
J43_46	5400.00	5040.00
J43_47	5520.00	5040.00
J43_48	5640.00	5040.00
J43_49	5760.00	5040.00
J43_50	5880.00	5040.00
J43_51	6000.00	5040.00
J43_52	6120.00	5040.00
J43_53	6240.00	5040.00
J43_54	6360.00	5040.00
J43_55	6480.00	5040.00
J43_56	6600.00	5040.00
J43_57	6720.00	5040.00
J43_58	6840.00	5040.00
J43_59	6960.00	5040.00
J43_60	7080.00	5040.00
J43_61	7200.00	5040.00
J43_62	7320.00	5040.00
J43_63	7440.00	5040.00
J43_64	7560.00	5040.00
J43_65	7680.00	5040.00
J43_66	7800.00	5040.00
J43_67	7920.00	5040.00
J43_68	8040.00	5040.00
J43_69	8160.00	5040.00
J43_70	8280.00	5040.00
J43_71	8400.00	5040.00
J43_72	8520.00	5040.00
J43_73	8640.00	5040.00
J43_74	8760.00	5040.00
J43_75	8880.00	5040.00
J43_76	9000.00	5040.00
J43_77	9120.00	5040.00
J43_78	9240.00	5040.00
J43_79	9360.00	5040.00
J43_80	9480.00	5040.00
J43_81	9600.00	5040.00
J43_82	9720.00	5040.00
J43_83	9840.00	5040.00
J43_84	9960.00	5040.00
J44_1	0.00	5160.00
J44_2	120.00	5160.00
J44_3	240.00	5160.00
J44_4	360.00	5160.00
J44_5	480.00	5160.00
J44_6	600.00	5160.00
J44_7	720.00	5160.00
J44_8	840.00	5160.00
J44_9	960.00	5160.00
J44_10	1080.00	5160.00
J44_11	1200.00	5160.00
J44_12	1320.00	5160.00
J44_13	1440.00	5160.00
J44_14	1560.00	5160.00
J44_15	1680.00	5160.00
J44_16	1800.00	5160.00
J44_17	1920.00	5160.00
J44_18	2040.00	5160.00
J44_19	2160.00	5160.00
J44_20	2280.00	5160.00
J44_21	2400.00	5160.00
J44_22	2520.00	5160.00
J44_23	2640.00	5160.00
J44_24	2760.00	5160.00
J44_25	2880.00	5160.00
J44_26	3000.00	5160.00
J44_27	3120.00	5160.00
J44_28	3240.00	5160.00
J44_29	3360.00	5160.00
J44_30	3480.00	5160.00
J44_31	3600.00	5160.00
J44_32	3720.00	5160.00
J44_33	3840.00	5160.00
J44_34	3960.00	5160.00
J44_35	4080.00	5160.00
J44_36	4200.00	5160.00
J44_37	4320.00	5160.00
J44_38	4440.00	5160.00
J44_39	4560.00	5160.00
J44_40	4680.00	5160.00
J44_41	4800.00	5160.00
J44_42	4920.00	5160.00
J44_43	5040.00	5160.00
J44_44	5160.00	5160.00
J44_45	5280.00	5160.00
J44_46	5400.00	5160.00
J44_47	5520.00	5160.00
J44_48	5640.00	5160.00
J44_49	5760.00	5160.00
J44_50	5880.00	5160.00
J44_51	6000.00	5160.00
J44_52	6120.00	5160.00
J44_53	6240.00	5160.00
J44_54	6360.00	5160.00
J44_55	6480.00	5160.00
J44_56	6600.00	5160.00
J44_57	6720.00	5160.00
J44_58	6840.00	5160.00
J44_59	6960.00	5160.00
J44_60	7080.00	5160.00
J44_61	7200.00	5160.00
J44_62	7320.00	5160.00
J44_63	7440.00	5160.00
J44_64	7560.00	5160.00
J44_65	7680.00	5160.00
J44_66	7800.00	5160.00
J44_67	7920.00	5160.00
J44_68	8040.00	5160.00
J44_69	8160.00	5160.00
J44_70	8280.00	5160.00
J44_71	8400.00	5160.00
J44_72	8520.00	5160.00
J44_73	8640.00	5160.00
J44_74	8760.00	5160.00
J44_75	8880.00	5160.00
J44_76	9000.00	5160.00
J44_77	9120.00	5160.00
J44_78	9240.00	5160.00
J44_79	9360.00	5160.00
J44_80	9480.00	5160.00
J44_81	9600.00	5160.00
J44_82	9720.00	5160.00
J44_83	9840.00	5160.00
J44_84	9960.00	5160.00
J45_1	0.00	5280.00
J45_2	120.00	5280.00
J45_3	240.00	5280.00
J45_4	360.00	5280.00
J45_5	480.00	5280.00
J45_6	600.00	5280.00
J45_7	720.00	5280.00
J45_8	840.00	5280.00
J45_9	960.00	5280.00
J45_10	1080.00	5280.00
J45_11	1200.00	5280.00
J45_12	1320.00	5280.00
J45_13	1440.00	5280.00
J45_14	1560.00	5280.00
J45_15	1680.00	5280.00
J45_16	1800.00	5280.00
J45_17	1920.00	5280.00
J45_18	2040.00	5280.00
J45_19	2160.00	5280.00
J45_20	2280.00	5280.00
J45_21	2400.00	5280.00
J45_22	2520.00	5280.00
J45_23	2640.00	5280.00
J45_24	2760.00	5280.00
J45_25	2880.00	5280.00
J45_26	3000.00	5280.00
J45_27	3120.00	5280.00
J45_28	3240.00	5280.00
J45_29	3360.00	5280.00
J45_30	3480.00	5280.00
J45_31	3600.00	5280.00
J45_32	3720.00	5280.00
J45_33	3840.00	5280.00
J45_34	3960.00	5280.00
J45_35	4080.00	5280.00
J45_36	4200.00	5280.00
J45_37	4320.00	5280.00
J45_38	4440.00	5280.00
J45_39	4560.00	5280.00
J45_40	4680.00	5280.00
J45_41	4800.00	5280.00
J45_42	4920.00	5280.00
J45_43	5040.00	5280.00
J45_44	5160.00	5280.00
J45_45	5280.00	5280.00
J45_46	5400.00	5280.00
J45_47	5520.00	5280.00
J45_48	5640.00	5280.00
J45_49	5760.00	5280.00
J45_50	5880.00	5280.00
J45_51	6000.00	5280.00
J45_52	6120.00	5280.00
J45_53	6240.00	5280.00
J45_54	6360.00	5280.00
J45_55	6480.00	5280.00
J45_56	6600.00	5280.00
J45_57	6720.00	5280.00
J45_58	6840.00	5280.00
J45_59	6960.00	5280.00
J45_60	7080.00	5280.00
J45_61	7200.00	5280.00
J45_62	7320.00	5280.00
J45_63	7440.00	5280.00
J45_64	7560.00	5280.00
J45_65	7680.00	5280.00
J45_66	7800.00	5280.00
J45_67	7920.00	5280.00
J45_68	8040.00	5280.00
J45_69	8160.00	5280.00
J45_70	8280.00	5280.00
J45_71	8400.00	5280.00
J45_72	8520.00	5280.00
J45_73	8640.00	5280.00
J45_74	8760.00	5280.00
J45_75	8880.00	5280.00
J45_76	9000.00	5280.00
J45_77	9120.00	5280.00
J45_78	9240.00	5280.00
J45_79	9360.00	5280.00
J45_80	9480.00	5280.00
J45_81	9600.00	5280.00
J45_82	9720.00	5280.00
J45_83	9840.00	5280.00
J45_84	9960.00	5280.00
J46_1	0.00	5400.00
J46_2	120.00	5400.00
J46_3	240.00	5400.00
J46_4	360.00	5400.00
J46_5	480.00	5400.00
J46_6	600.00	5400.00
J46_7	720.00	5400.00
J46_8	840.00	5400.00
J46_9	960.00	5400.00
J46_10	1080.00	5400.00
J46_11	1200.00	5400.00
J46_12	1320.00	5400.00
J46_13	1440.00	5400.00
J46_14	1560.00	5400.00
J46_15	1680.00	5400.00
J46_16	1800.00	5400.00
J46_17	1920.00	5400.00
J46_18	2040.00	5400.00
J46_19	2160.00	5400.00
J46_20	2280.00	5400.00
J46_21	2400.00	5400.00
J46_22	2520.00	5400.00
J46_23	2640.00	5400.00
J46_24	2760.00	5400.00
J46_25	2880.00	5400.00
J46_26	3000.00	5400.00
J46_27	3120.00	5400.00
J46_28	3240.00	5400.00
J46_29	3360.00	5400.00
J46_30	3480.00	5400.00
J46_31	3600.00	5400.00
J46_32	3720.00	5400.00
J46_33	3840.00	5400.00
J46_34	3960.00	5400.00
J46_35	4080.00	5400.00
J46_36	4200.00	5400.00
J46_37	4320.00	5400.00
J46_38	4440.00	5400.00
J46_39	4560.00	5400.00
J46_40	4680.00	5400.00
J46_41	4800.00	5400.00
J46_42	4920.00	5400.00
J46_43	5040.00	5400.00
J46_44	5160.00	5400.00
J46_45	5280.00	5400.00
J46_46	5400.00	5400.00
J46_47	5520.00	5400.00
J46_48	5640.00	5400.00
J46_49	5760.00	5400.00
J46_50	5880.00	5400.00
J46_51	6000.00	5400.00
J46_52	6120.00	5400.00
J46_53	6240.00	5400.00
J46_54	6360.00	5400.00
J46_55	6480.00	5400.00
J46_56	6600.00	5400.00
J46_57	6720.00	5400.00
J46_58	6840.00	5400.00
J46_59	6960.00	5400.00
J46_60	7080.00	5400.00
J46_61	7200.00	5400.00
J46_62	7320.00	5400.00
J46_63	7440.00	5400.00
J46_64	7560.00	5400.00
J46_65	7680.00	5400.00
J46_66	7800.00	5400.00
J46_67	7920.00	5400.00
J46_68	8040.00	5400.00
J46_69	8160.00	5400.00
J46_70	8280.00	5400.00
J46_71	8400.00	5400.00
J46_72	8520.00	5400.00
J46_73	8640.00	5400.00
J46_74	8760.00	5400.00
J46_75	8880.00	5400.00
J46_76	9000.00	5400.00
J46_77	9120.00	5400.00
J46_78	9240.00	5400.00
J46_79	9360.00	5400.00
J46_80	9480.00	5400.00
J46_81	9600.00	5400.00
J46_82	9720.00	5400.00
J46_83	9840.00	5400.00
J46_84	9960.00	5400.00
J47_1	0.00	5520.00
J47_2	120.00	5520.00
J47_3	240.00	5520.00
J47_4	360.00	5520.00
J47_5	480.00	5520.00
J47_6	600.00	5520.00
J47_7	720.00	5520.00
J47_8	840.00	5520.00
J47_9	960.00	5520.00
J47_10	1080.00	5520.00
J47_11	1200.00	5520.00
J47_12	1320.00	5520.00
J47_13	1440.00	5520.00
J47_14	1560.00	5520.00
J47_15	1680.00	5520.00
J47_16	1800.00	5520.00
J47_17	1920.00	5520.00
J47_18	2040.00	5520.00
J47_19	2160.00	5520.00
J47_20	2280.00	5520.00
J47_21	2400.00	5520.00
J47_22	2520.00	5520.00
J47_23	2640.00	5520.00
J47_24	2760.00	5520.00
J47_25	2880.00	5520.00
J47_26	3000.00	5520.00
J47_27	3120.00	5520.00
J47_28	3240.00	5520.00
J47_29	3360.00	5520.00
J47_30	3480.00	5520.00
J47_31	3600.00	5520.00
J47_32	3720.00	5520.00
J47_33	3840.00	5520.00
J47_34	3960.00	5520.00
J47_35	4080.00	5520.00
J47_36	4200.00	5520.00
J47_37	4320.00	5520.00
J47_38	4440.00	5520.00
J47_39	4560.00	5520.00
J47_40	4680.00	5520.00
J47_41	4800.00	5520.00
J47_42	4920.00	5520.00
J47_43	5040.00	5520.00
J47_44	5160.00	5520.00
J47_45	5280.00	5520.00
J47_46	5400.00	5520.00
J47_47	5520.00	5520.00
J47_48	5640.00	5520.00
J47_49	5760.00	5520.00
J47_50	5880.00	5520.00
J47_51	6000.00	5520.00
J47_52	6120.00	5520.00
J47_53	6240.00	5520.00
J47_54	6360.00	5520.00
J47_55	6480.00	5520.00
J47_56	6600.00	5520.00
J47_57	6720.00	5520.00
J47_58	6840.00	5520.00
J47_59	6960.00	5520.00
J47_60	7080.00	5520.00
J47_61	7200.00	5520.00
J47_62	7320.00	5520.00
J47_63	7440.00	5520.00
J47_64	7560.00	5520.00
J47_65	7680.00	5520.00
J47_66	7800.00	5520.00
J47_67	7920.00	5520.00
J47_68	8040.00	5520.00
J47_69	8160.00	5520.00
J47_70	8280.00	5520.00
J47_71	8400.00	5520.00
J47_72	8520.00	5520.00
J47_73	8640.00	5520.00
J47_74	8760.00	5520.00
J47_75	8880.00	5520.00
J47_76	9000.00	5520.00
J47_77	9120.00	5520.00
J47_78	9240.00	5520.00
J47_79	9360.00	5520.00
J47_80	9480.00	5520.00
J47_81	9600.00	5520.00
J47_82	9720.00	5520.00
J47_83	9840.00	5520.00
J47_84	9960.00	5520.00
J48_1	0.00	5640.00
J48_2	120.00	5640.00
J48_3	240.00	5640.00
J48_4	360.00	5640.00
J48_5	480.00	5640.00
J48_6	600.00	5640.00
J48_7	720.00	5640.00
J48_8	840.00	5640.00
J48_9	960.00	5640.00
J48_10	1080.00	5640.00
J48_11	1200.00	5640.00
J48_12	1320.00	5640.00
J48_13	1440.00	5640.00
J48_14	1560.00	5640.00
J48_15	1680.00	5640.00
J48_16	1800.00	5640.00
J48_17	1920.00	5640.00
J48_18	2040.00	5640.00
J48_19	2160.00	5640.00
J48_20	2280.00	5640.00
J48_21	2400.00	5640.00
J48_22	2520.00	5640.00
J48_23	2640.00	5640.00
J48_24	2760.00	5640.00
J48_25	2880.00	5640.00
J48_26	3000.00	5640.00
J48_27	3120.00	5640.00
J48_28	3240.00	5640.00
J48_29	3360.00	5640.00
J48_30	3480.00	5640.00
J48_31	3600.00	5640.00
J48_32	3720.00	5640.00
J48_33	3840.00	5640.00
J48_34	3960.00	5640.00
J48_35	4080.00	5640.00
J48_36	4200.00	5640.00
J48_37	4320.00	5640.00
J48_38	4440.00	5640.00
J48_39	4560.00	5640.00
J48_40	4680.00	5640.00
J48_41	4800.00	5640.00
J48_42	4920.00	5640.00
J48_43	5040.00	5640.00
J48_44	5160.00	5640.00
J48_45	5280.00	5640.00
J48_46	5400.00	5640.00
J48_47	5520.00	5640.00
J48_48	5640.00	5640.00
J48_49	5760.00	5640.00
J48_50	5880.00	5640.00
J48_51	6000.00	5640.00
J48_52	6120.00	5640.00
J48_53	6240.00	5640.00
J48_54	6360.00	5640.00
J48_55	6480.00	5640.00
J48_56	6600.00	5640.00
J48_57	6720.00	5640.00
J48_58	6840.00	5640.00
J48_59	6960.00	5640.00
J48_60	7080.00	5640.00
J48_61	7200.00	5640.00
J48_62	7320.00	5640.00
J48_63	7440.00	5640.00
J48_64	7560.00	5640.00
J48_65	7680.00	5640.00
J48_66	7800.00	5640.00
J48_67	7920.00	5640.00
J48_68	8040.00	5640.00
J48_69	8160.00	5640.00
J48_70	8280.00	5640.00
J48_71	8400.00	5640.00
J48_72	8520.00	5640.00
J48_73	8640.00	5640.00
J48_74	8760.00	5640.00
J48_75	8880.00	5640.00
J48_76	9000.00	5640.00
J48_77	9120.00	5640.00
J48_78	9240.00	5640.00
J48_79	9360.00	5640.00
J48_80	9480.00	5640.00
J48_81	9600.00	5640.00
J48_82	9720.00	5640.00
J48_83	9840.00	5640.00
J48_84	9960.00	5640.00
J49_1	0.00	5760.00
J49_2	120.00	5760.00
J49_3	240.00	5760.00
J49_4	360.00	5760.00
J49_5	480.00	5760.00
J49_6	600.00	5760.00
J49_7	720.00	5760.00
J49_8	840.00	5760.00
J49_9	960.00	5760.00
J49_10	1080.00	5760.00
J49_11	1200.00	5760.00
J49_12	1320.00	5760.00
J49_13	1440.00	5760.00
J49_14	1560.00	5760.00
J49_15	1680.00	5760.00
J49_16	1800.00	5760.00
J49_17	1920.00	5760.00
J49_18	2040.00	5760.00
J49_19	2160.00	5760.00
J49_20	2280.00	5760.00
J49_21	2400.00	5760.00
J49_22	2520.00	5760.00
J49_23	2640.00	5760.00
J49_24	2760.00	5760.00
J49_25	2880.00	5760.00
J49_26	3000.00	5760.00
J49_27	3120.00	5760.00
J49_28	3240.00	5760.00
J49_29	3360.00	5760.00
J49_30	3480.00	5760.00
J49_31	3600.00	5760.00
J49_32	3720.00	5760.00
J49_33	3840.00	5760.00
J49_34	3960.00	5760.00
J49_35	4080.00	5760.00
J49_36	4200.00	5760.00
J49_37	4320.00	5760.00
J49_38	4440.00	5760.00
J49_39	4560.00	5760.00
J49_40	4680.00	5760.00
J49_41	4800.00	5760.00
J49_42	4920.00	5760.00
J49_43	5040.00	5760.00
J49_44	5160.00	5760.00
J49_45	5280.00	5760.00
J49_46	5400.00	5760.00
J49_47	5520.00	5760.00
J49_48	5640.00	5760.00
J49_49	5760.00	5760.00
J49_50	5880.00	5760.00
J49_51	6000.00	5760.00
J49_52	6120.00	5760.00
J49_53	6240.00	5760.00
J49_54	6360.00	5760.00
J49_55	6480.00	5760.00
J49_56	6600.00	5760.00
J49_57	6720.00	5760.00
J49_58	6840.00	5760.00
J49_59	6960.00	5760.00
J49_60	7080.00	5760.00
J49_61	7200.00	5760.00
J49_62	7320.00	5760.00
J49_63	7440.00	5760.00
J49_64	7560.00	5760.00
J49_65	7680.00	5760.00
J49_66	7800.00	5760.00
J49_67	7920.00	5760.00
J49_68	8040.00	5760.00
J49_69	8160.00	5760.00
J49_70	8280.00	5760.00
J49_71	8400.00	5760.00
J49_72	8520.00	5760.00
J49_73	8640.00	5760.00
J49_74	8760.00	5760.00
J49_75	8880.00	5760.00
J49_76	9000.00	5760.00
J49_77	9120.00	5760.00
J49_78	9240.00	5760.00
J49_79	9360.00	5760.00
J49_80	9480.00	5760.00
J49_81	9600.00	5760.00
J49_82	9720.00	5760.00
J49_83	9840.00	5760.00
J49_84	9960.00	5760.00
J50_1	0.00	5880.00
J50_2	120.00	5880.00
J50_3	240.00	5880.00
J50_4	360.00	5880.00
J50_5	480.00	5880.00
J50_6	600.00	5880.00
J50_7	720.00	5880.00
J50_8	840.00	5880.00
J50_9	960.00	5880.00
J50_10	1080.00	5880.00
J50_11	1200.00	5880.00
J50_12	1320.00	5880.00
J50_13	1440.00	5880.00
J50_14	1560.00	5880.00
J50_15	1680.00	5880.00
J50_16	1800.00	5880.00
J50_17	1920.00	5880.00
J50_18	2040.00	5880.00
J50_19	2160.00	5880.00
J50_20	2280.00	5880.00
J50_21	2400.00	5880.00
J50_22	2520.00	5880.00
J50_23	2640.00	5880.00
J50_24	2760.00	5880.00
J50_25	2880.00	5880.00
J50_26	3000.00	5880.00
J50_27	3120.00	5880.00
J50_28	3240.00	5880.00
J50_29	3360.00	5880.00
J50_30	3480.00	5880.00
J50_31	3600.00	5880.00
J50_32	3720.00	5880.00
J50_33	3840.00	5880.00
J50_34	3960.00	5880.00
J50_35	4080.00	5880.00
J50_36	4200.00	5880.00
J50_37	4320.00	5880.00
J50_38	4440.00	5880.00
J50_39	4560.00	5880.00
J50_40	4680.00	5880.00
J50_41	4800.00	5880.00
J50_42	4920.00	5880.00
J50_43	5040.00	5880.00
J50_44	5160.00	5880.00
J50_45	5280.00	5880.00
J50_46	5400.00	5880.00
J50_47	5520.00	5880.00
J50_48	5640.00	5880.00
J50_49	5760.00	5880.00
J50_50	5880.00	5880.00
J50_51	6000.00	5880.00
J50_52	6120.00	5880.00
J50_53	6240.00	5880.00
J50_54	6360.00	5880.00
J50_55	6480.00	5880.00
J50_56	6600.00	5880.00
J50_57	6720.00	5880.00
J50_58	6840.00	5880.00
J50_59	6960.00	5880.00
J50_60	7080.00	5880.00
J50_61	7200.00	5880.00
J50_62	7320.00	5880.00
J50_63	7440.00	5880.00
J50_64	7560.00	5880.00
J50_65	7680.00	5880.00
J50_66	7800.00	5880.00
J50_67	7920.00	5880.00
J50_68	8040.00	5880.00
J50_69	8160.00	5880.00
J50_70	8280.00	5880.00
J50_71	8400.00	5880.00
J50_72	8520.00	5880.00
J50_73	8640.00	5880.00
J50_74	8760.00	5880.00
J50_75	8880.00	5880.00
J50_76	9000.00	5880.00
J50_77	9120.00	5880.00
J50_78	9240.00	5880.00
J50_79	9360.00	5880.00
J50_80	9480.00	5880.00
J50_81	9600.00	5880.00
J50_82	9720.00	5880.00
J50_83	9840.00	5880.00
J50_84	9960.00	5880.00
J51_1	0.00	6000.00
J51_2	120.00	6000.00
J51_3	240.00	6000.00
J51_4	360.00	6000.00
J51_5	480.00	6000.00
J51_6	600.00	6000.00
J51_7	720.00	6000.00
J51_8	840.00	6000.00
J51_9	960.00	6000.00
J51_10	1080.00	6000.00
J51_11	1200.00	6000.00
J51_12	1320.00	6000.00
J51_13	1440.00	6000.00
J51_14	1560.00	6000.00
J51_15	1680.00	6000.00
J51_16	1800.00	6000.00
J51_17	1920.00	6000.00
J51_18	2040.00	6000.00
J51_19	2160.00	6000.00
J51_20	2280.00	6000.00
J51_21	2400.00	6000.00
J51_22	2520.00	6000.00
J51_23	2640.00	6000.00
J51_24	2760.00	6000.00
J51_25	2880.00	6000.00
J51_26	3000.00	6000.00
J51_27	3120.00	6000.00
J51_28	3240.00	6000.00
J51_29	3360.00	6000.00
J51_30	3480.00	6000.00
J51_31	3600.00	6000.00
J51_32	3720.00	6000.00
J51_33	3840.00	6000.00
J51_34	3960.00	6000.00
J51_35	4080.00	6000.00
J51_36	4200.00	6000.00
J51_37	4320.00	6000.00
J51_38	4440.00	6000.00
J51_39	4560.00	6000.00
J51_40	4680.00	6000.00
J51_41	4800.00	6000.00
J51_42	4920.00	6000.00
J51_43	5040.00	6000.00
J51_44	5160.00	6000.00
J51_45	5280.00	6000.00
J51_46	5400.00	6000.00
J51_47	5520.00	6000.00
J51_48	5640.00	6000.00
J51_49	5760.00	6000.00
J51_50	5880.00	6000.00
J51_51	6000.00	6000.00
J51_52	6120.00	6000.00
J51_53	6240.00	6000.00
J51_54	6360.00	6000.00
J51_55	6480.00	6000.00
J51_56	6600.00	6000.00
J51_57	6720.00	6000.00
J51_58	6840.00	6000.00
J51_59	6960.00	6000.00
J51_60	7080.00	6000.00
J51_61	7200.00	6000.00
J51_62	7320.00	6000.00
J51_63	7440.00	6000.00
J51_64	7560.00	6000.00
J51_65	7680.00	6000.00
J51_66	7800.00	6000.00
J51_67	7920.00	6000.00
J51_68	8040.00	6000.00
J51_69	8160.00	6000.00
J51_70	8280.00	6000.00
J51_71	8400.00	6000.00
J51_72	8520.00	6000.00
J51_73	8640.00	6000.00
J51_74	8760.00	6000.00
J51_75	8880.00	6000.00
J51_76	9000.00	6000.00
J51_77	9120.00	6000.00
J51_78	9240.00	6000.00
J51_79	9360.00	6000.00
J51_80	9480.00	6000.00
J51_81	9600.00	6000.00
J51_82	9720.00	6000.00
J51_83	9840.00	6000.00
J51_84	9960.00	6000.00
J52_1	0.00	6120.00
J52_2	120.00	6120.00
J52_3	240.00	6120.00
J52_4	360.00	6120.00
J52_5	480.00	6120.00
J52_6	600.00	6120.00
J52_7	720.00	6120.00
J52_8	840.00	6120.00
J52_9	960.00	6120.00
J52_10	1080.00	6120.00
J52_11	1200.00	6120.00
J52_12	1320.00	6120.00
J52_13	1440.00	6120.00
J52_14	1560.00	6120.00
J52_15	1680.00	6120.00
J52_16	1800.00	6120.00
J52_17	1920.00	6120.00
J52_18	2040.00	6120.00
J52_19	2160.00	6120.00
J52_20	2280.00	6120.00
J52_21	2400.00	6120.00
J52_22	2520.00	6120.00
J52_23	2640.00	6120.00
J52_24	2760.00	6120.00
J52_25	2880.00	6120.00
J52_26	3000.00	6120.00
J52_27	3120.00	6120.00
J52_28	3240.00	6120.00
J52_29	3360.00	6120.00
J52_30	3480.00	6120.00
J52_31	3600.00	6120.00
J52_32	3720.00	6120.00
J52_33	3840.00	6120.00
J52_34	3960.00	6120.00
J52_35	4080.00	6120.00
J52_36	4200.00	6120.00
J52_37	4320.00	6120.00
J52_38	4440.00	6120.00
J52_39	4560.00	6120.00
J52_40	4680.00	6120.00
J52_41	4800.00	6120.00
J52_42	4920.00	6120.00
J52_43	5040.00	6120.00
J52_44	5160.00	6120.00
J52_45	5280.00	6120.00
J52_46	5400.00	6120.00
J52_47	5520.00	6120.00
J52_48	5640.00	6120.00
J52_49	5760.00	6120.00
J52_50	5880.00	6120.00
J52_51	6000.00	6120.00
J52_52	6120.00	6120.00
J52_53	6240.00	6120.00
J52_54	6360.00	6120.00
J52_55	6480.00	6120.00
J52_56	6600.00	6120.00
J52_57	6720.00	6120.00
J52_58	6840.00	6120.00
J52_59	6960.00	6120.00
J52_60	7080.00	6120.00
J52_61	7200.00	6120.00
J52_62	7320.00	6120.00
J52_63	7440.00	6120.00
J52_64	7560.00	6120.00
J52_65	7680.00	6120.00
J52_66	7800.00	6120.00
J52_67	7920.00	6120.00
J52_68	8040.00	6120.00
J52_69	8160.00	6120.00
J52_70	8280.00	6120.00
J52_71	8400.00	6120.00
J52_72	8520.00	6120.00
J52_73	8640.00	6120.00
J52_74	8760.00	6120.00
J52_75	8880.00	6120.00
J52_76	9000.00	6120.00
J52_77	9120.00	6120.00
J52_78	9240.00	6120.00
J52_79	9360.00	6120.00
J52_80	9480.00	6120.00
J52_81	9600.00	6120.00
J52_82	9720.00	6120.00
J52_83	9840.00	6120.00
J52_84	9960.00	6120.00
J53_1	0.00	6240.00
J53_2	120.00	6240.00
J53_3	240.00	6240.00
J53_4	360.00	6240.00
J53_5	480.00	6240.00
J53_6	600.00	6240.00
J53_7	720.00	6240.00
J53_8	840.00	6240.00
J53_9	960.00	6240.00
J53_10	1080.00	6240.00
J53_11	1200.00	6240.00
J53_12	1320.00	6240.00
J53_13	1440.00	6240.00
J53_14	1560.00	6240.00
J53_15	1680.00	6240.00
J53_16	1800.00	6240.00
J53_17	1920.00	6240.00
J53_18	2040.00	6240.00
J53_19	2160.00	6240.00
J53_20	2280.00	6240.00
J53_21	2400.00	6240.00
J53_22	2520.00	6240.00
J53_23	2640.00	6240.00
J53_24	2760.00	6240.00
J53_25	2880.00	6240.00
J53_26	3000.00	6240.00
J53_27	3120.00	6240.00
J53_28	3240.00	6240.00
J53_29	3360.00	6240.00
J53_30	3480.00	6240.00
J53_31	3600.00	6240.00
J53_32	3720.00	6240.00
J53_33	3840.00	6240.00
J53_34	3960.00	6240.00
J53_35	4080.00	6240.00
J53_36	4200.00	6240.00
J53_37	4320.00	6240.00
J53_38	4440.00	6240.00
J53_39	4560.00	6240.00
J53_40	4680.00	6240.00
J53_41	4800.00	6240.00
J53_42	4920.00	6240.00
J53_43	5040.00	6240.00
J53_44	5160.00	6240.00
J53_45	5280.00	6240.00
J53_46	5400.00	6240.00
J53_47	5520.00	6240.00
J53_48	5640.00	6240.00
J53_49	5760.00	6240.00
J53_50	5880.00	6240.00
J53_51	6000.00	6240.00
J53_52	6120.00	6240.00
J53_53	6240.00	6240.00
J53_54	6360.00	6240.00
J53_55	6480.00	6240.00
J53_56	6600.00	6240.00
J53_57	6720.00	6240.00
J53_58	6840.00	6240.00
J53_59	6960.00	6240.00
J53_60	7080.00	6240.00
J53_61	7200.00	6240.00
J53_62	7320.00	6240.00
J53_63	7440.00	6240.00
J53_64	7560.00	6240.00
J53_65	7680.00	6240.00
J53_66	7800.00	6240.00
J53_67	7920.00	6240.00
J53_68	8040.00	6240.00
J53_69	8160.00	6240.00
J53_70	8280.00	6240.00
J53_71	8400.00	6240.00
J53_72	8520.00	6240.00
J53_73	8640.00	6240.00
J53_74	8760.00	6240.00
J53_75	8880.00	6240.00
J53_76	9000.00	6240.00
J53_77	9120.00	6240.00
J53_78	9240.00	6240.00
J53_79	9360.00	6240.00
J53_80	9480.00	6240.00
J53_81	9600.00	6240.00
J53_82	9720.00	6240.00
J53_83	9840.00	6240.00
J53_84	9960.00	6240.00
J54_1	0.00	6360.00
J54_2	120.00	6360.00
J54_3	240.00	6360.00
J54_4	360.00	6360.00
J54_5	480.00	6360.00
J54_6	600.00	6360.00
J54_7	720.00	6360.00
J54_8	840.00	6360.00
J54_9	960.00	6360.00
J54_10	1080.00	6360.00
J54_11	1200.00	6360.00
J54_12	1320.00	6360.00
J54_13	1440.00	6360.00
J54_14	1560.00	6360.00
J54_15	1680.00	6360.00
J54_16	1800.00	6360.00
J54_17	1920.00	6360.00
J54_18	2040.00	6360.00
J54_19	2160.00	6360.00
J54_20	2280.00	6360.00
J54_21	2400.00	6360.00
J54_22	2520.00	6360.00
J54_23	2640.00	6360.00
J54_24	2760.00	6360.00
J54_25	2880.00	6360.00
J54_26	3000.00	6360.00
J54_27	3120.00	6360.00
J54_28	3240.00	6360.00
J54_29	3360.00	6360.00
J54_30	3480.00	6360.00
J54_31	3600.00	6360.00
J54_32	3720.00	6360.00
J54_33	3840.00	6360.00
J54_34	3960.00	6360.00
J54_35	4080.00	6360.00
J54_36	4200.00	6360.00
J54_37	4320.00	6360.00
J54_38	4440.00	6360.00
J54_39	4560.00	6360.00
J54_40	4680.00	6360.00
J54_41	4800.00	6360.00
J54_42	4920.00	6360.00
J54_43	5040.00	6360.00
J54_44	5160.00	6360.00
J54_45	5280.00	6360.00
J54_46	5400.00	6360.00
J54_47	5520.00	6360.00
J54_48	5640.00	6360.00
J54_49	5760.00	6360.00
J54_50	5880.00	6360.00
J54_51	6000.00	6360.00
J54_52	6120.00	6360.00
J54_53	6240.00	6360.00
J54_54	6360.00	6360.00
J54_55	6480.00	6360.00
J54_56	6600.00	6360.00
J54_57	6720.00	6360.00
J54_58	6840.00	6360.00
J54_59	6960.00	6360.00
J54_60	7080.00	6360.00
J54_61	7200.00	6360.00
J54_62	7320.00	6360.00
J54_63	7440.00	6360.00
J54_64	7560.00	6360.00
J54_65	7680.00	6360.00
J54_66	7800.00	6360.00
J54_67	7920.00	6360.00
J54_68	8040.00	6360.00
J54_69	8160.00	6360.00
J54_70	8280.00	6360.00
J54_71	8400.00	6360.00
J54_72	8520.00	6360.00
J54_73	8640.00	6360.00
J54_74	8760.00	6360.00
J54_75	8880.00	6360.00
J54_76	9000.00	6360.00
J54_77	9120.00	6360.00
J54_78	9240.00	6360.00
J54_79	9360.00	6360.00
J54_80	9480.00	6360.00
J54_81	9600.00	6360.00
J54_82	9720.00	6360.00
J54_83	9840.00	6360.00
J54_84	9960.00	6360.00
J55_1	0.00	6480.00
J55_2	120.00	6480.00
J55_3	240.00	6480.00
J55_4	360.00	6480.00
J55_5	480.00	6480.00
J55_6	600.00	6480.00
J55_7	720.00	6480.00
J55_8	840.00	6480.00
J55_9	960.00	6480.00
J55_10	1080.00	6480.00
J55_11	1200.00	6480.00
J55_12	1320.00	6480.00
J55_13	1440.00	6480.00
J55_14	1560.00	6480.00
J55_15	1680.00	6480.00
J55_16	1800.00	6480.00
J55_17	1920.00	6480.00
J55_18	2040.00	6480.00
J55_19	2160.00	6480.00
J55_20	2280.00	6480.00
J55_21	2400.00	6480.00
J55_22	2520.00	6480.00
J55_23	2640.00	6480.00
J55_24	2760.00	6480.00
J55_25	2880.00	6480.00
J55_26	3000.00	6480.00
J55_27	3120.00	6480.00
J55_28	3240.00	6480.00
J55_29	3360.00	6480.00
J55_30	3480.00	6480.00
J55_31	3600.00	6480.00
J55_32	3720.00	6480.00
J55_33	3840.00	6480.00
J55_34	3960.00	6480.00
J55_35	4080.00	6480.00
J55_36	4200.00	6480.00
J55_37	4320.00	6480.00
J55_38	4440.00	6480.00
J55_39	4560.00	6480.00
J55_40	4680.00	6480.00
J55_41	4800.00	6480.00
J55_42	4920.00	6480.00
J55_43	5040.00	6480.00
J55_44	5160.00	6480.00
J55_45	5280.00	6480.00
J55_46	5400.00	6480.00
J55_47	5520.00	6480.00
J55_48	5640.00	6480.00
J55_49	5760.00	6480.00
J55_50	5880.00	6480.00
J55_51	6000.00	6480.00
J55_52	6120.00	6480.00
J55_53	6240.00	6480.00
J55_54	6360.00	6480.00
J55_55	6480.00	6480.00
J55_56	6600.00	6480.00
J55_57	6720.00	6480.00
J55_58	6840.00	6480.00
J55_59	6960.00	6480.00
J55_60	7080.00	6480.00
J55_61	7200.00	6480.00
J55_62	7320.00	6480.00
J55_63	7440.00	6480.00
J55_64	7560.00	6480.00
J55_65	7680.00	6480.00
J55_66	7800.00	6480.00
J55_67	7920.00	6480.00
J55_68	8040.00	6480.00
J55_69	8160.00	6480.00
J55_70	8280.00	6480.00
J55_71	8400.00	6480.00
J55_72	8520.00	6480.00
J55_73	8640.00	6480.00
J55_74	8760.00	6480.00
J55_75	8880.00	6480.00
J55_76	9000.00	6480.00
J55_77	9120.00	6480.00
J55_78	9240.00	6480.00
J55_79	9360.00	6480.00
J55_80	9480.00	6480.00
J55_81	9600.00	6480.00
J55_82	9720.00	6480.00
J55_83	9840.00	6480.00
J55_84	9960.00	6480.00
J56_1	0.00	6600.00
J56_2	120.00	6600.00
J56_3	240.00	6600.00
J56_4	360.00	6600.00
J56_5	480.00	6600.00
J56_6	600.00	6600.00
J56_7	720.00	6600.00
J56_8	840.00	6600.00
J56_9	960.00	6600.00
J56_10	1080.00	6600.00
J56_11	1200.00	6600.00
J56_12	1320.00	6600.00
J56_13	1440.00	6600.00
J56_14	1560.00	6600.00
J56_15	1680.00	6600.00
J56_16	1800.00	6600.00
J56_17	1920.00	6600.00
J56_18	2040.00	6600.00
J56_19	2160.00	6600.00
J56_20	2280.00	6600.00
J56_21	2400.00	6600.00
J56_22	2520.00	6600.00
J56_23	2640.00	6600.00
J56_24	2760.00	6600.00
J56_25	2880.00	6600.00
J56_26	3000.00	6600.00
J56_27	3120.00	6600.00
J56_28	3240.00	6600.00
J56_29	3360.00	6600.00
J56_30	3480.00	6600.00
J56_31	3600.00	6600.00
J56_32	3720.00	6600.00
J56_33	3840.00	6600.00
J56_34	3960.00	6600.00
J56_35	4080.00	6600.00
J56_36	4200.00	6600.00
J56_37	4320.00	6600.00
J56_38	4440.00	6600.00
J56_39	4560.00	6600.00
J56_40	4680.00	6600.00
J56_41	4800.00	6600.00
J56_42	4920.00	6600.00
J56_43	5040.00	6600.00
J56_44	5160.00	6600.00
J56_45	5280.00	6600.00
J56_46	5400.00	6600.00
J56_47	5520.00	6600.00
J56_48	5640.00	6600.00
J56_49	5760.00	6600.00
J56_50	5880.00	6600.00
J56_51	6000.00	6600.00
J56_52	6120.00	6600.00
J56_53	6240.00	6600.00
J56_54	6360.00	6600.00
J56_55	6480.00	6600.00
J56_56	6600.00	6600.00
J56_57	6720.00	6600.00
J56_58	6840.00	6600.00
J56_59	6960.00	6600.00
J56_60	7080.00	6600.00
J56_61	7200.00	6600.00
J56_62	7320.00	6600.00
J56_63	7440.00	6600.00
J56_64	7560.00	6600.00
J56_65	7680.00	6600.00
J56_66	7800.00	6600.00
J56_67	7920.00	6600.00
J56_68	8040.00	6600.00
J56_69	8160.00	6600.00
J56_70	8280.00	6600.00
J56_71	8400.00	6600.00
J56_72	8520.00	6600.00
J56_73	8640.00	6600.00
J56_74	8760.00	6600.00
J56_75	8880.00	6600.00
J56_76	9000.00	6600.00
J56_77	9120.00	6600.00
J56_78	9240.00	6600.00
J56_79	9360.00	6600.00
J56_80	9480.00	6600.00
J56_81	9600.00	6600.00
J56_82	9720.00	6600.00
J56_83	9840.00	6600.00
J56_84	9960.00	6600.00
T1	1023.19	3831.83
T2	2966.84	3314.86
T3	4983.31	3311.21
T4	7002.21	3315.49
T5	8924.43	2726.55


[END]
