[TITLE]
Complex Suite Scenario: dw_cmh_chlorine_long
seed=505 districts=3x3 size=24

[JUNCTIONS]
;ID	Elev	Demand	Pattern
J1_1	184.159	0.0013279	P_COM
J1_2	191.362	0.0024450	P_COM
J1_3	199.814	0.0019102	P_COM
J1_4	206.099	0.0032674	P_COM
J1_5	211.267	0.0005102	P_RES
J1_6	219.921	0.0021199	P_IND
J1_7	226.892	0.0010225	P_RES
J1_8	231.936	0.0040474	P_COM
J1_9	239.569	0.0016459	P_RES
J1_10	247.763	0.0016732	P_RES
J1_11	253.805	0.0013064	P_RES
J1_12	260.170	0.0015972	P_RES
J1_13	268.269	0.0031174	P_IND
J1_14	273.925	0.0015437	P_COM
J1_15	280.452	0.0016224	P_COM
J1_16	288.348	0.0015650	P_RES
J1_17	294.289	0.0013566	P_RES
J1_18	300.174	0.0039618	P_IND
J1_19	306.813	0.0012988	P_RES
J1_20	314.504	0.0039564	P_COM
J1_21	321.735	0.0017960	P_RES
J1_22	329.107	0.0008168	P_RES
J1_23	335.746	0.0016089	P_RES
J1_24	340.828	0.0012639	P_RES
J1_25	347.496	0.0013352	P_RES
J1_26	354.488	0.0028765	P_RES
J1_27	361.289	0.0007785	P_RES
J1_28	369.545	0.0011965	P_COM
J1_29	374.288	0.0003697	P_RES
J1_30	382.161	0.0024759	P_RES
J1_31	388.355	0.0022904	P_RES
J1_32	393.915	0.0020019	P_RES
J1_33	401.536	0.0021456	P_RES
J1_34	408.685	0.0007049	P_RES
J1_35	413.693	0.0017228	P_COM
J1_36	422.482	0.0035484	P_COM
J1_37	427.720	0.0017310	P_COM
J1_38	435.592	0.0022980	P_IND
J1_39	440.309	0.0012984	P_RES
J1_40	447.998	0.0015948	P_COM
J1_41	454.297	0.0022793	P_RES
J1_42	461.066	0.0012642	P_RES
J1_43	466.617	0.0036298	P_IND
J1_44	473.679	0.0012062	P_RES
J1_45	479.939	0.0011051	P_RES
J1_46	485.748	0.0032635	P_COM
J1_47	491.514	0.0021600	P_IND
J1_48	499.508	0.0010090	P_RES
J1_49	505.203	0.0018375	P_IND
J1_50	512.437	0.0008372	P_RES
J1_51	518.399	0.0029802	P_COM
J1_52	525.214	0.0016985	P_COM
J1_53	530.882	0.0015011	P_RES
J1_54	538.057	0.0019320	P_IND
J1_55	543.935	0.0015368	P_RES
J1_56	549.745	0.0022277	P_RES
J1_57	555.929	0.0008563	P_RES
J1_58	563.611	0.0031587	P_RES
J1_59	569.932	0.0017744	P_COM
J1_60	575.883	0.0012934	P_RES
J1_61	581.599	0.0020425	P_RES
J1_62	587.048	0.0012378	P_RES
J1_63	592.729	0.0019598	P_COM
J1_64	599.420	0.0019080	P_RES
J1_65	605.581	0.0020055	P_RES
J1_66	611.598	0.0022041	P_RES
J1_67	619.215	0.0009902	P_RES
J1_68	624.335	0.0009097	P_COM
J1_69	630.339	0.0016117	P_RES
J1_70	637.560	0.0007732	P_RES
J1_71	643.869	0.0014406	P_RES
J1_72	649.369	0.0007923	P_RES
J2_1	182.858	0.0011469	P_RES
J2_2	189.417	0.0010995	P_RES
J2_3	198.012	0.0012019	P_COM
J2_4	203.857	0.0023580	P_COM
J2_5	209.664	0.0036362	P_RES
J2_6	217.356	0.0009768	P_RES
J2_7	224.767	0.0014440	P_RES
J2_8	230.117	0.0009907	P_RES
J2_9	237.675	0.0005355	P_RES
J2_10	245.965	0.0022100	P_COM
J2_11	251.020	0.0009698	P_COM
J2_12	258.576	0.0038687	P_RES
J2_13	265.634	0.0012745	P_RES
J2_14	271.057	0.0013470	P_RES
J2_15	278.529	0.0012680	P_RES
J2_16	286.534	0.0012444	P_RES
J2_17	291.503	0.0018229	P_RES
J2_18	299.383	0.0014222	P_COM
J2_19	305.587	0.0029804	P_RES
J2_20	312.024	0.0025854	P_COM
J2_21	320.764	0.0051545	P_COM
J2_22	325.910	0.0020350	P_RES
J2_23	332.049	0.0026346	P_COM
J2_24	340.945	0.0015487	P_RES
J2_25	346.009	0.0007351	P_RES
J2_26	354.245	0.0012182	P_RES
J2_27	360.102	0.0017821	P_COM
J2_28	367.811	0.0007220	P_RES
J2_29	372.493	0.0016482	P_COM
J2_30	380.574	0.0008750	P_RES
J2_31	385.818	0.0026782	P_RES
J2_32	392.793	0.0017952	P_RES
J2_33	399.071	0.0010569	P_RES
J2_34	406.985	0.0014026	P_COM
J2_35	412.104	0.0039044	P_RES
J2_36	418.932	0.0058477	P_COM
J2_37	426.706	0.0036169	P_COM
J2_38	433.713	0.0015739	P_RES
J2_39	439.845	0.0016063	P_RES
J2_40	446.848	0.0008691	P_RES
J2_41	452.736	0.0011154	P_RES
J2_42	458.691	0.0026051	P_COM
J2_43	465.682	0.0010701	P_RES
J2_44	472.147	0.0007312	P_RES
J2_45	478.760	0.0058891	P_IND
J2_46	484.215	0.0023772	P_RES
J2_47	489.962	0.0027834	P_RES
J2_48	497.749	0.0005845	P_RES
J2_49	504.868	0.0018382	P_RES
J2_50	509.692	0.0013265	P_RES
J2_51	516.783	0.0030596	P_COM
J2_52	523.447	0.0018829	P_RES
J2_53	528.751	0.0007177	P_RES
J2_54	534.915	0.0025414	P_RES
J2_55	542.824	0.0012175	P_RES
J2_56	547.316	0.0021905	P_COM
J2_57	554.574	0.0007274	P_RES
J2_58	561.539	0.0012562	P_RES
J2_59	567.197	0.0016319	P_COM
J2_60	573.320	0.0017862	P_COM
J2_61	578.524	0.0019994	P_RES
J2_62	586.320	0.0013268	P_COM
J2_63	591.082	0.0020310	P_RES
J2_64	597.613	0.0009073	P_RES
J2_65	603.632	0.0016780	P_COM
J2_66	611.098	0.0031354	P_RES
J2_67	617.055	0.0013834	P_RES
J2_68	622.290	0.0023705	P_COM
J2_69	628.474	0.0009242	P_RES
J2_70	635.986	0.0016270	P_RES
J2_71	641.510	0.0016429	P_RES
J2_72	647.027	0.0012845	P_COM
J3_1	182.479	0.0025354	P_COM
J3_2	187.483	0.0006367	P_RES
J3_3	195.519	0.0005059	P_RES
J3_4	201.093	0.0007723	P_RES
J3_5	208.676	0.0007936	P_RES
J3_6	216.165	0.0022577	P_COM
J3_7	221.448	0.0016322	P_COM
J3_8	230.264	0.0002256	P_RES
J3_9	235.150	0.0039632	P_COM
J3_10	243.909	0.0026433	P_IND
J3_11	249.969	0.0021075	P_RES
J3_12	256.611	0.0011196	P_RES
J3_13	264.238	0.0021763	P_RES
J3_14	270.076	0.0008031	P_RES
J3_15	277.166	0.0010701	P_RES
J3_16	283.458	0.0026366	P_IND
J3_17	290.893	0.0014712	P_RES
J3_18	297.434	0.0011162	P_RES
J3_19	303.248	0.0010721	P_RES
J3_20	310.585	0.0027529	P_COM
J3_21	317.944	0.0028041	P_COM
J3_22	324.729	0.0005594	P_RES
J3_23	330.725	0.0004499	P_RES
J3_24	337.851	0.0015497	P_RES
J3_25	345.646	0.0013577	P_RES
J3_26	350.434	0.0023187	P_IND
J3_27	358.393	0.0006444	P_RES
J3_28	364.503	0.0009785	P_RES
J3_29	370.845	0.0004714	P_RES
J3_30	377.774	0.0054591	P_COM
J3_31	385.334	0.0068965	P_IND
J3_32	391.332	0.0022139	P_COM
J3_33	398.567	0.0024350	P_IND
J3_34	404.114	0.0026477	P_COM
J3_35	410.467	0.0011871	P_RES
J3_36	418.978	0.0008462	P_RES
J3_37	424.178	0.0009096	P_RES
J3_38	430.461	0.0030598	P_IND
J3_39	436.999	0.0015367	P_RES
J3_40	444.119	0.0031642	P_RES
J3_41	450.785	0.0010537	P_RES
J3_42	457.457	0.0022291	P_RES
J3_43	462.625	0.0014455	P_RES
J3_44	470.262	0.0016095	P_RES
J3_45	477.335	0.0022805	P_RES
J3_46	483.194	0.0004303	P_RES
J3_47	488.566	0.0011247	P_RES
J3_48	495.255	0.0020314	P_RES
J3_49	503.124	0.0013144	P_RES
J3_50	507.345	0.0024461	P_COM
J3_51	514.533	0.0027263	P_RES
J3_52	521.198	0.0012059	P_RES
J3_53	528.180	0.0013709	P_RES
J3_54	534.037	0.0006729	P_RES
J3_55	539.027	0.0011992	P_RES
J3_56	545.940	0.0020320	P_RES
J3_57	551.666	0.0013649	P_RES
J3_58	560.025	0.0007819	P_RES
J3_59	565.386	0.0012992	P_RES
J3_60	571.161	0.0017858	P_RES
J3_61	578.933	0.0008182	P_RES
J3_62	584.047	0.0013973	P_RES
J3_63	591.442	0.0021161	P_COM
J3_64	595.477	0.0031355	P_IND
J3_65	603.522	0.0030865	P_RES
J3_66	609.348	0.0006456	P_RES
J3_67	616.099	0.0020227	P_COM
J3_68	620.573	0.0017820	P_RES
J3_69	628.696	0.0011520	P_COM
J3_70	635.061	0.0014768	P_RES
J3_71	639.597	0.0005533	P_RES
J3_72	647.207	0.0011463	P_RES
J4_1	180.162	0.0017215	P_RES
J4_2	187.531	0.0015374	P_RES
J4_3	193.598	0.0025843	P_COM
J4_4	200.677	0.0011387	P_COM
J4_5	206.210	0.0011309	P_RES
J4_6	214.179	0.0022162	P_RES
J4_7	220.888	0.0010668	P_RES
J4_8	228.492	0.0041421	P_IND
J4_9	234.932	0.0009084	P_RES
J4_10	241.160	0.0028700	P_RES
J4_11	247.891	0.0025366	P_RES
J4_12	254.302	0.0015686	P_COM
J4_13	261.050	0.0032598	P_RES
J4_14	268.684	0.0020092	P_COM
J4_15	276.340	0.0014661	P_RES
J4_16	282.107	0.0014264	P_COM
J4_17	288.008	0.0015227	P_RES
J4_18	295.440	0.0013550	P_RES
J4_19	303.672	0.0025039	P_COM
J4_20	309.349	0.0015262	P_RES
J4_21	317.274	0.0044033	P_COM
J4_22	322.161	0.0014066	P_RES
J4_23	330.429	0.0006346	P_COM
J4_24	335.254	0.0008096	P_RES
J4_25	342.279	0.0033821	P_IND
J4_26	350.304	0.0006758	P_RES
J4_27	356.201	0.0035206	P_IND
J4_28	362.668	0.0052119	P_IND
J4_29	368.798	0.0010460	P_RES
J4_30	377.376	0.0013126	P_RES
J4_31	383.817	0.0015355	P_COM
J4_32	390.528	0.0015725	P_RES
J4_33	396.513	0.0040944	P_RES
J4_34	403.102	0.0012716	P_RES
J4_35	408.820	0.0011733	P_RES
J4_36	415.217	0.0009517	P_RES
J4_37	422.968	0.0016114	P_RES
J4_38	428.549	0.0013300	P_RES
J4_39	434.652	0.0014577	P_RES
J4_40	442.647	0.0022418	P_IND
J4_41	447.844	0.0011947	P_RES
J4_42	455.009	0.0005691	P_RES
J4_43	461.020	0.0015215	P_COM
J4_44	468.752	0.0041182	P_RES
J4_45	475.611	0.0019224	P_RES
J4_46	481.612	0.0028446	P_COM
J4_47	486.853	0.0015132	P_RES
J4_48	492.700	0.0018122	P_RES
J4_49	499.505	0.0013872	P_RES
J4_50	507.174	0.0038649	P_IND
J4_51	512.587	0.0020900	P_RES
J4_52	519.446	0.0016473	P_RES
J4_53	525.969	0.0011580	P_RES
J4_54	532.943	0.0022727	P_COM
J4_55	537.398	0.0019280	P_RES
J4_56	544.106	0.0020441	P_RES
J4_57	551.087	0.0009600	P_RES
J4_58	557.967	0.0045676	P_COM
J4_59	562.530	0.0031056	P_RES
J4_60	570.014	0.0023484	P_RES
J4_61	577.052	0.0012750	P_RES
J4_62	581.278	0.0014700	P_RES
J4_63	588.516	0.0016196	P_COM
J4_64	593.726	0.0029720	P_COM
J4_65	602.014	0.0045213	P_COM
J4_66	606.970	0.0008196	P_RES
J4_67	614.171	0.0005244	P_RES
J4_68	618.755	0.0031516	P_RES
J4_69	625.643	0.0026322	P_COM
J4_70	632.324	0.0016742	P_RES
J4_71	637.376	0.0020807	P_COM
J4_72	643.696	0.0009432	P_RES
J5_1	177.196	0.0012876	P_RES
J5_2	183.810	0.0017605	P_COM
J5_3	190.629	0.0013704	P_RES
J5_4	199.429	0.0026164	P_COM
J5_5	204.477	0.0026756	P_COM
J5_6	212.995	0.0009469	P_RES
J5_7	219.095	0.0008112	P_RES
J5_8	224.904	0.0013438	P_RES
J5_9	232.946	0.0015653	P_RES
J5_10	238.539	0.0008535	P_RES
J5_11	245.657	0.0007601	P_RES
J5_12	252.868	0.0020255	P_RES
J5_13	259.144	0.0006996	P_RES
J5_14	265.927	0.0022426	P_IND
J5_15	273.258	0.0022002	P_RES
J5_16	280.396	0.0014437	P_RES
J5_17	287.453	0.0021302	P_RES
J5_18	294.367	0.0007222	P_RES
J5_19	300.483	0.0011760	P_RES
J5_20	307.800	0.0022585	P_IND
J5_21	314.173	0.0019766	P_COM
J5_22	321.190	0.0011203	P_RES
J5_23	328.596	0.0022864	P_COM
J5_24	334.425	0.0014461	P_RES
J5_25	341.068	0.0027437	P_COM
J5_26	346.817	0.0023309	P_IND
J5_27	355.178	0.0020168	P_RES
J5_28	362.426	0.0006420	P_RES
J5_29	367.273	0.0007747	P_RES
J5_30	375.775	0.0012912	P_RES
J5_31	382.396	0.0015116	P_RES
J5_32	387.725	0.0008353	P_RES
J5_33	393.443	0.0013927	P_RES
J5_34	402.135	0.0007195	P_RES
J5_35	406.704	0.0012003	P_RES
J5_36	415.257	0.0022263	P_COM
J5_37	421.910	0.0012421	P_RES
J5_38	427.421	0.0023672	P_RES
J5_39	433.638	0.0009192	P_RES
J5_40	440.761	0.0022294	P_RES
J5_41	447.210	0.0011857	P_RES
J5_42	452.376	0.0004168	P_RES
J5_43	459.424	0.0008967	P_RES
J5_44	465.535	0.0020275	P_RES
J5_45	473.409	0.0018230	P_RES
J5_46	478.275	0.0007957	P_RES
J5_47	486.148	0.0017271	P_IND
J5_48	491.176	0.0014382	P_RES
J5_49	498.760	0.0022591	P_RES
J5_50	505.483	0.0007631	P_RES
J5_51	510.222	0.0013023	P_RES
J5_52	516.472	0.0023263	P_RES
J5_53	522.938	0.0008423	P_RES
J5_54	531.295	0.0019151	P_RES
J5_55	536.422	0.0028607	P_RES
J5_56	543.822	0.0018298	P_RES
J5_57	550.253	0.0017793	P_COM
J5_58	556.147	0.0070510	P_IND
J5_59	561.111	0.0047194	P_COM
J5_60	568.657	0.0045646	P_IND
J5_61	575.248	0.0034713	P_COM
J5_62	579.842	0.0022833	P_COM
J5_63	585.910	0.0003648	P_RES
J5_64	593.129	0.0034327	P_COM
J5_65	600.102	0.0018099	P_COM
J5_66	605.079	0.0022170	P_RES
J5_67	612.507	0.0022014	P_COM
J5_68	617.972	0.0015256	P_RES
J5_69	624.191	0.0012746	P_RES
J5_70	631.062	0.0023737	P_COM
J5_71	637.134	0.0032518	P_IND
J5_72	642.485	0.0011072	P_RES
J6_1	175.561	0.0032885	P_RES
J6_2	182.344	0.0023828	P_COM
J6_3	189.425	0.0007781	P_RES
J6_4	197.837	0.0021686	P_RES
J6_5	203.139	0.0007711	P_COM
J6_6	210.162	0.0021389	P_RES
J6_7	217.468	0.0011946	P_RES
J6_8	223.483	0.0006373	P_RES
J6_9	230.408	0.0011587	P_RES
J6_10	237.712	0.0062516	P_IND
J6_11	243.638	0.0013262	P_RES
J6_12	250.243	0.0032843	P_IND
J6_13	258.366	0.0007747	P_RES
J6_14	265.991	0.0013178	P_RES
J6_15	271.753	0.0021744	P_RES
J6_16	277.989	0.0017105	P_COM
J6_17	285.354	0.0019573	P_RES
J6_18	293.179	0.0014675	P_COM
J6_19	299.629	0.0015682	P_RES
J6_20	305.714	0.0013622	P_RES
J6_21	312.071	0.0008247	P_RES
J6_22	319.873	0.0014477	P_COM
J6_23	325.683	0.0013944	P_RES
J6_24	331.993	0.0022756	P_RES
J6_25	339.795	0.0022189	P_COM
J6_26	346.052	0.0034517	P_COM
J6_27	353.876	0.0036098	P_COM
J6_28	359.095	0.0008972	P_COM
J6_29	365.985	0.0017516	P_RES
J6_30	373.098	0.0011949	P_RES
J6_31	380.095	0.0039475	P_COM
J6_32	385.973	0.0004898	P_RES
J6_33	393.216	0.0020284	P_IND
J6_34	399.591	0.0011030	P_RES
J6_35	405.229	0.0050771	P_COM
J6_36	412.226	0.0029515	P_COM
J6_37	418.384	0.0012472	P_RES
J6_38	426.580	0.0007853	P_RES
J6_39	431.543	0.0004529	P_RES
J6_40	439.681	0.0023202	P_COM
J6_41	445.912	0.0030068	P_IND
J6_42	451.202	0.0010153	P_RES
J6_43	458.366	0.0028741	P_COM
J6_44	465.538	0.0009336	P_RES
J6_45	471.864	0.0006765	P_RES
J6_46	476.729	0.0035678	P_IND
J6_47	483.664	0.0020788	P_COM
J6_48	489.710	0.0019440	P_RES
J6_49	496.217	0.0016001	P_RES
J6_50	503.541	0.0033271	P_RES
J6_51	508.831	0.0033080	P_IND
J6_52	515.975	0.0025119	P_IND
J6_53	520.995	0.0009701	P_RES
J6_54	528.771	0.0008358	P_RES
J6_55	534.588	0.0020803	P_RES
J6_56	540.448	0.0026126	P_RES
J6_57	546.418	0.0013322	P_RES
J6_58	554.811	0.0020151	P_RES
J6_59	559.929	0.0030447	P_RES
J6_60	565.201	0.0010477	P_RES
J6_61	573.115	0.0011763	P_RES
J6_62	579.431	0.0037947	P_COM
J6_63	585.721	0.0014691	P_RES
J6_64	591.172	0.0028293	P_IND
J6_65	597.001	0.0008826	P_RES
J6_66	604.466	0.0037679	P_COM
J6_67	609.139	0.0017457	P_COM
J6_68	616.888	0.0016988	P_RES
J6_69	622.374	0.0020602	P_RES
J6_70	628.582	0.0022386	P_RES
J6_71	634.586	0.0011400	P_RES
J6_72	640.438	0.0034936	P_COM
J7_1	174.783	0.0013483	P_COM
J7_2	181.955	0.0025344	P_RES
J7_3	187.783	0.0033906	P_IND
J7_4	194.492	0.0013563	P_RES
J7_5	200.900	0.0017070	P_COM
J7_6	207.996	0.0017128	P_RES
J7_7	215.687	0.0012753	P_RES
J7_8	222.785	0.0014072	P_RES
J7_9	229.314	0.0017564	P_COM
J7_10	235.441	0.0013261	P_RES
J7_11	242.396	0.0032961	P_COM
J7_12	248.462	0.0011577	P_RES
J7_13	256.236	0.0047313	P_IND
J7_14	264.213	0.0060105	P_COM
J7_15	269.433	0.0012057	P_RES
J7_16	276.453	0.0014479	P_RES
J7_17	283.996	0.0036860	P_COM
J7_18	289.267	0.0024836	P_RES
J7_19	297.053	0.0028903	P_IND
J7_20	304.324	0.0018517	P_RES
J7_21	311.484	0.0015414	P_RES
J7_22	317.010	0.0022286	P_IND
J7_23	324.656	0.0010119	P_RES
J7_24	331.383	0.0005759	P_RES
J7_25	337.699	0.0015376	P_RES
J7_26	345.416	0.0012099	P_COM
J7_27	350.605	0.0011470	P_RES
J7_28	358.325	0.0028444	P_COM
J7_29	364.801	0.0007657	P_RES
J7_30	372.029	0.0023515	P_COM
J7_31	377.324	0.0024618	P_RES
J7_32	384.812	0.0005244	P_RES
J7_33	389.712	0.0013591	P_RES
J7_34	396.822	0.0015107	P_RES
J7_35	404.654	0.0017597	P_COM
J7_36	410.790	0.0010906	P_RES
J7_37	416.824	0.0011904	P_RES
J7_38	423.887	0.0032430	P_IND
J7_39	430.433	0.0013293	P_COM
J7_40	437.740	0.0014851	P_RES
J7_41	442.331	0.0036772	P_COM
J7_42	450.920	0.0012315	P_RES
J7_43	455.789	0.0013852	P_RES
J7_44	463.216	0.0016352	P_COM
J7_45	468.079	0.0047183	P_RES
J7_46	474.857	0.0022252	P_COM
J7_47	483.023	0.0015250	P_RES
J7_48	488.001	0.0008595	P_RES
J7_49	493.787	0.0011788	P_RES
J7_50	500.730	0.0016377	P_RES
J7_51	508.522	0.0007043	P_RES
J7_52	515.152	0.0026893	P_COM
J7_53	521.318	0.0023560	P_RES
J7_54	526.944	0.0011158	P_RES
J7_55	533.393	0.0010500	P_COM
J7_56	539.228	0.0032118	P_COM
J7_57	544.676	0.0017926	P_COM
J7_58	552.549	0.0026762	P_RES
J7_59	557.017	0.0012145	P_RES
J7_60	564.680	0.0019746	P_IND
J7_61	571.276	0.0010337	P_COM
J7_62	577.467	0.0006349	P_RES
J7_63	583.116	0.0010048	P_RES
J7_64	589.843	0.0034249	P_COM
J7_65	594.704	0.0016018	P_RES
J7_66	602.711	0.0015167	P_RES
J7_67	608.796	0.0020135	P_RES
J7_68	613.608	0.0020334	P_COM
J7_69	621.111	0.0031241	P_RES
J7_70	626.055	0.0044857	P_COM
J7_71	634.147	0.0035897	P_IND
J7_72	640.402	0.0032089	P_RES
J8_1	172.540	0.0011374	P_RES
J8_2	179.170	0.0016777	P_RES
J8_3	185.445	0.0006569	P_RES
J8_4	193.468	0.0022979	P_RES
J8_5	199.119	0.0030338	P_COM
J8_6	206.720	0.0012979	P_RES
J8_7	213.863	0.0019985	P_RES
J8_8	220.259	0.0017230	P_COM
J8_9	228.477	0.0015184	P_RES
J8_10	235.334	0.0029542	P_COM
J8_11	241.647	0.0008379	P_RES
J8_12	248.182	0.0017328	P_RES
J8_13	253.698	0.0017766	P_IND
J8_14	261.114	0.0045747	P_IND
J8_15	267.403	0.0013058	P_RES
J8_16	274.945	0.0026186	P_IND
J8_17	281.941	0.0038756	P_COM
J8_18	289.497	0.0014837	P_COM
J8_19	295.738	0.0024826	P_COM
J8_20	302.143	0.0029091	P_COM
J8_21	308.319	0.0023705	P_COM
J8_22	315.034	0.0011679	P_RES
J8_23	322.239	0.0007741	P_RES
J8_24	329.986	0.0012936	P_COM
J8_25	335.712	0.0024222	P_RES
J8_26	342.718	0.0013931	P_RES
J8_27	348.450	0.0006498	P_RES
J8_28	356.857	0.0009618	P_COM
J8_29	361.979	0.0013373	P_RES
J8_30	368.999	0.0009228	P_RES
J8_31	375.203	0.0016828	P_RES
J8_32	383.589	0.0019626	P_COM
J8_33	388.417	0.0048010	P_IND
J8_34	394.555	0.0021932	P_COM
J8_35	401.611	0.0013043	P_RES
J8_36	408.012	0.0031147	P_COM
J8_37	414.536	0.0009664	P_RES
J8_38	422.640	0.0032957	P_RES
J8_39	429.635	0.0029052	P_COM
J8_40	434.189	0.0027034	P_COM
J8_41	440.495	0.0005927	P_RES
J8_42	448.042	0.0011448	P_RES
J8_43	453.495	0.0008202	P_RES
J8_44	460.683	0.0012880	P_RES
J8_45	467.361	0.0029988	P_COM
J8_46	472.651	0.0014310	P_RES
J8_47	481.269	0.0014739	P_RES
J8_48	487.551	0.0007650	P_RES
J8_49	493.023	0.0017287	P_RES
J8_50	498.807	0.0013656	P_RES
J8_51	506.259	0.0012801	P_RES
J8_52	512.824	0.0013967	P_RES
J8_53	518.277	0.0025636	P_IND
J8_54	523.778	0.0020782	P_RES
J8_55	531.210	0.0019432	P_RES
J8_56	538.338	0.0011023	P_RES
J8_57	543.048	0.0020240	P_RES
J8_58	550.238	0.0019109	P_RES
J8_59	556.427	0.0036162	P_IND
J8_60	563.326	0.0030802	P_IND
J8_61	569.892	0.0012783	P_COM
J8_62	575.719	0.0006573	P_RES
J8_63	581.991	0.0035388	P_RES
J8_64	586.555	0.0012581	P_RES
J8_65	593.818	0.0033508	P_COM
J8_66	600.372	0.0013542	P_RES
J8_67	605.267	0.0007737	P_RES
J8_68	612.754	0.0008100	P_RES
J8_69	619.326	0.0006958	P_RES
J8_70	625.409	0.0016381	P_RES
J8_71	630.083	0.0032929	P_COM
J8_72	638.429	0.0021381	P_RES
J9_1	170.152	0.0020063	P_COM
J9_2	177.865	0.0012094	P_RES
J9_3	184.124	0.0008421	P_RES
J9_4	190.739	0.0008031	P_RES
J9_5	197.779	0.0028309	P_RES
J9_6	205.776	0.0008473	P_RES
J9_7	211.329	0.0019937	P_COM
J9_8	218.484	0.0037242	P_IND
J9_9	224.640	0.0015700	P_RES
J9_10	232.181	0.0009580	P_RES
J9_11	238.233	0.0011342	P_RES
J9_12	246.678	0.0011637	P_RES
J9_13	252.446	0.0012164	P_RES
J9_14	259.606	0.0027348	P_RES
J9_15	266.484	0.0010956	P_RES
J9_16	272.195	0.0016210	P_RES
J9_17	279.519	0.0008005	P_RES
J9_18	287.347	0.0021931	P_COM
J9_19	294.560	0.0008363	P_RES
J9_20	299.217	0.0022320	P_RES
J9_21	306.067	0.0024206	P_IND
J9_22	313.737	0.0022145	P_RES
J9_23	321.017	0.0025643	P_COM
J9_24	326.928	0.0026604	P_RES
J9_25	334.451	0.0017982	P_RES
J9_26	339.542	0.0017727	P_RES
J9_27	347.781	0.0020271	P_RES
J9_28	354.394	0.0015424	P_RES
J9_29	360.599	0.0010532	P_RES
J9_30	368.496	0.0005163	P_RES
J9_31	374.460	0.0012305	P_COM
J9_32	379.557	0.0036266	P_IND
J9_33	388.192	0.0014994	P_RES
J9_34	393.574	0.0046641	P_COM
J9_35	400.444	0.0004200	P_RES
J9_36	406.451	0.0009070	P_RES
J9_37	413.925	0.0036558	P_RES
J9_38	420.716	0.0030897	P_IND
J9_39	427.813	0.0009634	P_RES
J9_40	432.259	0.0003874	P_RES
J9_41	438.941	0.0016622	P_COM
J9_42	446.253	0.0029258	P_IND
J9_43	453.395	0.0022676	P_RES
J9_44	460.223	0.0028047	P_IND
J9_45	466.098	0.0019268	P_RES
J9_46	471.905	0.0013059	P_RES
J9_47	478.729	0.0027811	P_COM
J9_48	483.913	0.0027909	P_IND
J9_49	490.838	0.0005510	P_RES
J9_50	497.937	0.0019673	P_RES
J9_51	504.407	0.0015371	P_RES
J9_52	509.821	0.0027437	P_IND
J9_53	517.395	0.0012563	P_RES
J9_54	523.386	0.0069102	P_RES
J9_55	530.072	0.0009947	P_RES
J9_56	535.324	0.0033430	P_COM
J9_57	542.318	0.0009595	P_RES
J9_58	548.345	0.0017777	P_IND
J9_59	554.550	0.0012048	P_RES
J9_60	560.279	0.0014498	P_COM
J9_61	566.947	0.0010787	P_RES
J9_62	574.250	0.0010862	P_RES
J9_63	578.782	0.0024655	P_COM
J9_64	585.011	0.0015864	P_RES
J9_65	591.198	0.0009491	P_COM
J9_66	597.206	0.0009776	P_RES
J9_67	604.082	0.0010783	P_RES
J9_68	611.823	0.0011587	P_RES
J9_69	617.149	0.0018895	P_RES
J9_70	622.407	0.0014689	P_RES
J9_71	629.220	0.0016056	P_COM
J9_72	635.549	0.0013993	P_RES
J10_1	168.142	0.0016373	P_RES
J10_2	176.716	0.0012405	P_RES
J10_3	182.009	0.0027273	P_RES
J10_4	189.654	0.0005478	P_RES
J10_5	197.131	0.0030472	P_RES
J10_6	202.482	0.0005394	P_RES
J10_7	210.952	0.0006476	P_RES
J10_8	216.668	0.0026238	P_COM
J10_9	223.945	0.0030046	P_IND
J10_10	231.074	0.0023373	P_IND
J10_11	236.206	0.0013121	P_COM
J10_12	244.124	0.0016896	P_COM
J10_13	249.787	0.0010297	P_RES
J10_14	257.434	0.0008901	P_RES
J10_15	264.543	0.0020880	P_RES
J10_16	271.904	0.0021221	P_RES
J10_17	278.428	0.0006873	P_RES
J10_18	284.684	0.0037147	P_RES
J10_19	291.320	0.0015459	P_RES
J10_20	298.020	0.0046814	P_COM
J10_21	304.070	0.0015596	P_RES
J10_22	312.563	0.0009494	P_RES
J10_23	319.191	0.0023535	P_RES
J10_24	326.544	0.0008124	P_RES
J10_25	332.864	0.0021236	P_RES
J10_26	339.173	0.0020614	P_IND
J10_27	345.958	0.0020460	P_RES
J10_28	351.263	0.0017266	P_RES
J10_29	359.034	0.0010938	P_RES
J10_30	365.848	0.0029158	P_RES
J10_31	371.678	0.0012691	P_COM
J10_32	379.690	0.0028548	P_RES
J10_33	384.423	0.0019816	P_COM
J10_34	391.973	0.0018239	P_RES
J10_35	399.124	0.0017381	P_RES
J10_36	404.164	0.0026617	P_RES
J10_37	412.651	0.0023957	P_COM
J10_38	418.737	0.0048975	P_RES
J10_39	423.695	0.0020589	P_COM
J10_40	430.841	0.0017462	P_RES
J10_41	437.584	0.0036623	P_COM
J10_42	443.271	0.0025688	P_COM
J10_43	449.617	0.0005595	P_RES
J10_44	457.846	0.0006110	P_RES
J10_45	464.613	0.0022853	P_RES
J10_46	470.201	0.0013334	P_RES
J10_47	477.597	0.0010001	P_RES
J10_48	483.106	0.0037269	P_IND
J10_49	489.390	0.0006703	P_RES
J10_50	494.798	0.0017120	P_RES
J10_51	502.387	0.0012258	P_RES
J10_52	509.017	0.0009862	P_RES
J10_53	515.377	0.0034741	P_COM
J10_54	522.312	0.0013904	P_RES
J10_55	527.845	0.0016794	P_COM
J10_56	533.169	0.0018119	P_RES
J10_57	541.106	0.0012328	P_RES
J10_58	545.970	0.0032620	P_COM
J10_59	553.113	0.0010099	P_RES
J10_60	558.312	0.0008399	P_RES
J10_61	565.547	0.0008480	P_RES
J10_62	571.711	0.0010141	P_RES
J10_63	576.798	0.0015735	P_RES
J10_64	583.974	0.0007927	P_RES
J10_65	589.612	0.0010457	P_RES
J10_66	597.369	0.0025024	P_COM
J10_67	602.350	0.0016846	P_COM
J10_68	609.375	0.0015568	P_RES
J10_69	616.132	0.0010736	P_RES
J10_70	622.302	0.0030172	P_COM
J10_71	626.706	0.0006526	P_RES
J10_72	634.839	0.0024880	P_COM
J11_1	167.785	0.0023281	P_COM
J11_2	173.386	0.0030539	P_COM
J11_3	181.609	0.0013419	P_RES
J11_4	187.727	0.0013496	P_RES
J11_5	195.299	0.0010690	P_RES
J11_6	201.032	0.0008926	P_RES
J11_7	209.169	0.0013794	P_RES
J11_8	213.772	0.0022740	P_RES
J11_9	221.069	0.0028131	P_IND
J11_10	228.518	0.0005774	P_RES
J11_11	234.320	0.0010706	P_RES
J11_12	243.195	0.0015231	P_RES
J11_13	249.975	0.0013779	P_COM
J11_14	255.916	0.0006567	P_RES
J11_15	262.881	0.0019441	P_IND
J11_16	269.444	0.0028030	P_RES
J11_17	276.361	0.0010090	P_RES
J11_18	282.576	0.0024438	P_RES
J11_19	289.916	0.0028419	P_IND
J11_20	296.901	0.0018295	P_RES
J11_21	303.526	0.0014681	P_RES
J11_22	311.194	0.0023122	P_COM
J11_23	317.391	0.0006845	P_RES
J11_24	324.061	0.0026094	P_RES
J11_25	329.966	0.0014469	P_RES
J11_26	336.584	0.0013766	P_RES
J11_27	343.283	0.0010306	P_RES
J11_28	349.355	0.0013376	P_RES
J11_29	357.519	0.0006670	P_RES
J11_30	364.126	0.0014516	P_COM
J11_31	369.997	0.0013873	P_RES
J11_32	376.325	0.0009264	P_RES
J11_33	382.430	0.0008466	P_RES
J11_34	389.971	0.0007782	P_RES
J11_35	397.786	0.0006403	P_RES
J11_36	402.480	0.0011461	P_RES
J11_37	410.931	0.0033870	P_IND
J11_38	416.177	0.0028250	P_RES
J11_39	422.885	0.0008830	P_RES
J11_40	430.649	0.0014019	P_RES
J11_41	435.665	0.0020968	P_RES
J11_42	443.024	0.0024734	P_COM
J11_43	449.545	0.0018671	P_COM
J11_44	455.319	0.0011222	P_RES
J11_45	460.971	0.0073184	P_IND
J11_46	468.569	0.0012861	P_RES
J11_47	473.848	0.0016014	P_RES
J11_48	482.244	0.0007739	P_RES
J11_49	486.368	0.0040670	P_IND
J11_50	494.892	0.0017858	P_COM
J11_51	499.327	0.0007899	P_RES
J11_52	507.794	0.0010671	P_RES
J11_53	512.593	0.0022239	P_RES
J11_54	520.018	0.0029387	P_COM
J11_55	525.691	0.0008931	P_RES
J11_56	532.857	0.0009415	P_RES
J11_57	538.580	0.0012684	P_RES
J11_58	544.663	0.0009782	P_RES
J11_59	550.411	0.0019761	P_COM
J11_60	556.078	0.0011977	P_RES
J11_61	562.982	0.0024458	P_COM
J11_62	570.068	0.0014567	P_RES
J11_63	575.693	0.0026057	P_RES
J11_64	581.319	0.0021502	P_RES
J11_65	587.368	0.0015426	P_RES
J11_66	595.252	0.0031227	P_RES
J11_67	600.757	0.0033976	P_IND
J11_68	607.379	0.0010504	P_RES
J11_69	613.893	0.0011886	P_RES
J11_70	618.655	0.0012152	P_COM
J11_71	625.027	0.0009728	P_RES
J11_72	631.865	0.0024268	P_RES
J12_1	165.003	0.0011944	P_RES
J12_2	170.920	0.0021938	P_RES
J12_3	179.910	0.0016374	P_COM
J12_4	185.143	0.0035736	P_IND
J12_5	191.758	0.0038288	P_IND
J12_6	199.179	0.0011027	P_RES
J12_7	205.054	0.0025194	P_COM
J12_8	212.037	0.0019397	P_RES
J12_9	220.311	0.0011580	P_RES
J12_10	226.875	0.0034012	P_COM
J12_11	232.581	0.0027632	P_COM
J12_12	239.754	0.0011622	P_RES
J12_13	246.189	0.0013355	P_RES
J12_14	254.864	0.0022273	P_COM
J12_15	260.454	0.0013924	P_RES
J12_16	267.488	0.0011894	P_RES
J12_17	274.868	0.0007688	P_RES
J12_18	280.707	0.0021298	P_RES
J12_19	287.972	0.0018768	P_RES
J12_20	294.267	0.0009178	P_RES
J12_21	302.119	0.0011740	P_RES
J12_22	308.253	0.0017158	P_RES
J12_23	315.930	0.0043535	P_IND
J12_24	320.651	0.0021306	P_RES
J12_25	327.420	0.0019164	P_RES
J12_26	334.860	0.0013540	P_COM
J12_27	342.320	0.0010015	P_RES
J12_28	348.869	0.0005843	P_RES
J12_29	356.033	0.0028151	P_IND
J12_30	361.175	0.0020296	P_IND
J12_31	368.258	0.0009437	P_RES
J12_32	376.013	0.0016926	P_COM
J12_33	380.722	0.0012390	P_RES
J12_34	389.038	0.0029511	P_COM
J12_35	394.651	0.0006112	P_RES
J12_36	400.809	0.0011487	P_RES
J12_37	408.017	0.0013103	P_IND
J12_38	414.232	0.0014504	P_RES
J12_39	422.094	0.0010561	P_RES
J12_40	428.483	0.0013428	P_RES
J12_41	433.861	0.0020419	P_RES
J12_42	441.682	0.0021916	P_RES
J12_43	447.559	0.0018615	P_RES
J12_44	452.855	0.0033788	P_COM
J12_45	458.837	0.0009764	P_RES
J12_46	465.892	0.0019055	P_RES
J12_47	472.531	0.0005461	P_RES
J12_48	480.393	0.0016499	P_RES
J12_49	485.609	0.0010652	P_RES
J12_50	492.374	0.0009817	P_RES
J12_51	497.889	0.0013702	P_COM
J12_52	503.829	0.0010910	P_RES
J12_53	510.557	0.0016637	P_RES
J12_54	517.874	0.0015247	P_RES
J12_55	523.967	0.0019929	P_COM
J12_56	529.802	0.0012937	P_RES
J12_57	535.597	0.0021614	P_RES
J12_58	543.345	0.0019717	P_RES
J12_59	548.998	0.0019750	P_RES
J12_60	555.168	0.0016140	P_RES
J12_61	562.238	0.0019664	P_RES
J12_62	568.661	0.0016361	P_COM
J12_63	574.611	0.0008952	P_RES
J12_64	580.626	0.0016628	P_RES
J12_65	585.502	0.0009593	P_RES
J12_66	592.982	0.0021611	P_RES
J12_67	598.284	0.0015242	P_RES
J12_68	605.570	0.0024691	P_COM
J12_69	611.178	0.0025433	P_IND
J12_70	617.967	0.0028827	P_RES
J12_71	624.136	0.0006549	P_RES
J12_72	629.481	0.0021953	P_RES
J13_1	164.199	0.0027202	P_COM
J13_2	169.114	0.0036595	P_IND
J13_3	175.885	0.0015922	P_IND
J13_4	183.950	0.0022542	P_IND
J13_5	189.546	0.0027100	P_RES
J13_6	196.703	0.0013146	P_COM
J13_7	205.147	0.0013644	P_RES
J13_8	211.914	0.0018893	P_COM
J13_9	217.169	0.0021655	P_COM
J13_10	225.799	0.0009896	P_RES
J13_11	231.310	0.0030901	P_RES
J13_12	239.216	0.0010549	P_RES
J13_13	245.989	0.0012457	P_RES
J13_14	251.190	0.0015371	P_RES
J13_15	257.864	0.0008856	P_RES
J13_16	265.812	0.0023098	P_RES
J13_17	273.302	0.0031688	P_IND
J13_18	279.841	0.0034336	P_COM
J13_19	286.111	0.0014740	P_RES
J13_20	291.861	0.0026060	P_RES
J13_21	298.970	0.0021967	P_RES
J13_22	305.954	0.0017115	P_RES
J13_23	312.207	0.0018034	P_COM
J13_24	319.663	0.0020943	P_COM
J13_25	327.349	0.0015284	P_RES
J13_26	332.549	0.0027878	P_IND
J13_27	339.321	0.0021359	P_RES
J13_28	346.063	0.0028791	P_RES
J13_29	354.152	0.0012703	P_RES
J13_30	360.380	0.0007744	P_RES
J13_31	366.540	0.0012530	P_COM
J13_32	373.490	0.0037382	P_COM
J13_33	378.990	0.0027651	P_COM
J13_34	387.161	0.0010588	P_RES
J13_35	393.302	0.0038671	P_COM
J13_36	399.447	0.0022703	P_COM
J13_37	406.485	0.0012291	P_RES
J13_38	412.448	0.0009501	P_RES
J13_39	419.025	0.0040968	P_RES
J13_40	426.186	0.0052228	P_IND
J13_41	431.197	0.0018475	P_COM
J13_42	437.556	0.0024485	P_IND
J13_43	444.119	0.0007179	P_RES
J13_44	451.365	0.0014579	P_RES
J13_45	457.645	0.0013747	P_COM
J13_46	464.343	0.0018696	P_RES
J13_47	470.867	0.0028490	P_IND
J13_48	477.774	0.0012944	P_RES
J13_49	484.034	0.0007136	P_RES
J13_50	490.681	0.0014579	P_COM
J13_51	495.542	0.0012887	P_RES
J13_52	502.315	0.0010383	P_RES
J13_53	508.328	0.0013766	P_RES
J13_54	516.382	0.0034499	P_RES
J13_55	522.555	0.0023167	P_COM
J13_56	528.715	0.0018515	P_COM
J13_57	535.477	0.0008310	P_RES
J13_58	539.687	0.0034750	P_COM
J13_59	547.562	0.0015652	P_RES
J13_60	552.304	0.0011260	P_RES
J13_61	559.024	0.0024360	P_IND
J13_62	565.975	0.0022102	P_RES
J13_63	572.516	0.0016505	P_IND
J13_64	579.331	0.0018627	P_RES
J13_65	585.606	0.0004503	P_RES
J13_66	591.341	0.0037045	P_IND
J13_67	597.493	0.0019746	P_COM
J13_68	604.474	0.0020542	P_RES
J13_69	609.926	0.0018966	P_IND
J13_70	616.691	0.0011019	P_RES
J13_71	621.309	0.0027025	P_COM
J13_72	629.216	0.0015496	P_RES
J14_1	160.565	0.0012379	P_RES
J14_2	169.118	0.0026681	P_IND
J14_3	175.330	0.0027174	P_RES
J14_4	181.886	0.0004687	P_RES
J14_5	187.993	0.0009438	P_RES
J14_6	196.443	0.0044159	P_RES
J14_7	201.647	0.0014026	P_RES
J14_8	208.473	0.0026080	P_COM
J14_9	216.807	0.0014306	P_RES
J14_10	223.486	0.0014574	P_RES
J14_11	229.223	0.0006731	P_RES
J14_12	237.254	0.0029734	P_RES
J14_13	244.633	0.0015902	P_RES
J14_14	249.190	0.0012684	P_RES
J14_15	257.709	0.0012209	P_RES
J14_16	264.167	0.0018177	P_COM
J14_17	269.555	0.0017746	P_RES
J14_18	277.625	0.0009350	P_RES
J14_19	284.148	0.0024076	P_COM
J14_20	291.204	0.0006581	P_RES
J14_21	297.097	0.0018732	P_COM
J14_22	303.397	0.0016007	P_RES
J14_23	311.106	0.0026857	P_IND
J14_24	318.655	0.0013237	P_RES
J14_25	325.822	0.0037087	P_IND
J14_26	330.795	0.0007309	P_RES
J14_27	337.588	0.0010917	P_RES
J14_28	344.678	0.0009848	P_RES
J14_29	352.571	0.0017820	P_RES
J14_30	358.272	0.0008215	P_RES
J14_31	364.377	0.0022176	P_RES
J14_32	372.144	0.0021536	P_RES
J14_33	378.213	0.0015942	P_COM
J14_34	384.169	0.0009130	P_RES
J14_35	390.788	0.0016640	P_COM
J14_36	397.419	0.0008914	P_RES
J14_37	403.202	0.0013892	P_RES
J14_38	410.846	0.0013594	P_RES
J14_39	418.104	0.0019496	P_RES
J14_40	424.035	0.0030175	P_COM
J14_41	430.767	0.0013624	P_RES
J14_42	435.849	0.0014391	P_RES
J14_43	443.939	0.0008888	P_RES
J14_44	450.328	0.0033499	P_COM
J14_45	456.343	0.0019845	P_COM
J14_46	461.983	0.0009345	P_RES
J14_47	469.627	0.0010400	P_RES
J14_48	474.952	0.0010819	P_RES
J14_49	481.027	0.0009427	P_RES
J14_50	487.520	0.0005349	P_RES
J14_51	493.507	0.0011152	P_RES
J14_52	500.306	0.0012376	P_IND
J14_53	506.273	0.0021893	P_RES
J14_54	514.711	0.0013390	P_RES
J14_55	520.848	0.0011605	P_RES
J14_56	526.677	0.0030377	P_IND
J14_57	533.339	0.0013265	P_RES
J14_58	539.478	0.0012156	P_RES
J14_59	545.931	0.0021491	P_RES
J14_60	551.177	0.0025311	P_COM
J14_61	557.936	0.0028607	P_COM
J14_62	565.189	0.0012278	P_RES
J14_63	569.911	0.0011897	P_RES
J14_64	576.702	0.0031583	P_COM
J14_65	582.815	0.0016956	P_RES
J14_66	588.001	0.0013505	P_RES
J14_67	595.366	0.0036266	P_IND
J14_68	600.463	0.0011613	P_RES
J14_69	606.863	0.0021031	P_COM
J14_70	613.141	0.0051700	P_COM
J14_71	619.147	0.0019532	P_COM
J14_72	625.134	0.0024053	P_COM
J15_1	158.730	0.0014711	P_RES
J15_2	167.176	0.0005376	P_RES
J15_3	173.231	0.0006144	P_RES
J15_4	179.510	0.0010352	P_RES
J15_5	186.855	0.0018136	P_RES
J15_6	194.763	0.0052402	P_COM
J15_7	199.893	0.0012157	P_RES
J15_8	207.121	0.0015552	P_RES
J15_9	214.380	0.0010978	P_RES
J15_10	220.442	0.0012695	P_RES
J15_11	228.191	0.0024584	P_COM
J15_12	235.469	0.0005105	P_RES
J15_13	240.861	0.0017208	P_COM
J15_14	247.871	0.0036809	P_COM
J15_15	255.216	0.0017615	P_RES
J15_16	262.498	0.0012844	P_COM
J15_17	269.929	0.0012340	P_RES
J15_18	274.452	0.0006934	P_RES
J15_19	281.679	0.0022861	P_RES
J15_20	289.733	0.0026960	P_RES
J15_21	295.404	0.0027322	P_COM
J15_22	303.410	0.0010703	P_RES
J15_23	308.987	0.0008318	P_RES
J15_24	316.279	0.0027744	P_RES
J15_25	322.646	0.0012361	P_RES
J15_26	328.864	0.0011128	P_RES
J15_27	336.406	0.0019581	P_COM
J15_28	342.831	0.0028614	P_COM
J15_29	348.935	0.0015870	P_RES
J15_30	356.264	0.0006194	P_RES
J15_31	361.599	0.0008295	P_RES
J15_32	369.016	0.0010373	P_RES
J15_33	374.887	0.0018258	P_COM
J15_34	383.357	0.0025419	P_RES
J15_35	389.086	0.0020256	P_COM
J15_36	395.209	0.0006471	P_RES
J15_37	402.517	0.0009099	P_RES
J15_38	409.324	0.0009120	P_COM
J15_39	414.727	0.0017289	P_RES
J15_40	420.784	0.0026683	P_RES
J15_41	428.614	0.0033291	P_COM
J15_42	434.696	0.0013568	P_COM
J15_43	440.876	0.0016617	P_RES
J15_44	447.837	0.0035361	P_IND
J15_45	453.463	0.0015913	P_RES
J15_46	461.765	0.0007506	P_RES
J15_47	467.514	0.0014318	P_RES
J15_48	474.385	0.0031278	P_COM
J15_49	479.091	0.0029229	P_COM
J15_50	486.157	0.0009350	P_RES
J15_51	493.629	0.0018310	P_COM
J15_52	499.272	0.0008618	P_RES
J15_53	505.258	0.0012982	P_RES
J15_54	511.575	0.0020813	P_RES
J15_55	518.492	0.0009326	P_RES
J15_56	524.079	0.0021385	P_RES
J15_57	529.771	0.0015809	P_RES
J15_58	537.417	0.0011258	P_RES
J15_59	544.431	0.0016455	P_RES
J15_60	550.566	0.0009930	P_RES
J15_61	555.088	0.0011982	P_RES
J15_62	561.507	0.0026831	P_COM
J15_63	568.605	0.0014800	P_RES
J15_64	574.056	0.0028054	P_COM
J15_65	579.872	0.0022753	P_RES
J15_66	586.165	0.0016931	P_RES
J15_67	593.375	0.0028727	P_COM
J15_68	599.249	0.0007204	P_RES
J15_69	606.782	0.0024079	P_IND
J15_70	611.520	0.0011284	P_RES
J15_71	618.825	0.0008519	P_RES
J15_72	624.063	0.0023304	P_COM
J16_1	158.436	0.0032297	P_IND
J16_2	165.333	0.0018805	P_RES
J16_3	170.349	0.0027628	P_IND
J16_4	178.065	0.0021802	P_RES
J16_5	184.288	0.0022185	P_RES
J16_6	191.355	0.0019187	P_RES
J16_7	197.850	0.0048943	P_IND
J16_8	205.532	0.0057585	P_IND
J16_9	212.712	0.0012636	P_RES
J16_10	219.851	0.0039111	P_IND
J16_11	225.476	0.0017394	P_COM
J16_12	232.605	0.0041854	P_COM
J16_13	240.237	0.0009737	P_RES
J16_14	247.517	0.0009554	P_RES
J16_15	252.447	0.0006473	P_RES
J16_16	259.365	0.0005113	P_RES
J16_17	266.241	0.0018580	P_COM
J16_18	273.402	0.0012688	P_RES
J16_19	279.345	0.0047151	P_COM
J16_20	287.583	0.0013116	P_RES
J16_21	293.731	0.0023815	P_RES
J16_22	299.956	0.0012202	P_RES
J16_23	306.632	0.0018622	P_COM
J16_24	313.209	0.0017024	P_COM
J16_25	320.032	0.0024292	P_IND
J16_26	327.050	0.0025572	P_RES
J16_27	333.334	0.0009824	P_RES
J16_28	341.000	0.0016311	P_RES
J16_29	348.370	0.0008876	P_RES
J16_30	354.760	0.0026201	P_IND
J16_31	361.920	0.0011667	P_RES
J16_32	368.103	0.0027234	P_IND
J16_33	373.735	0.0021160	P_COM
J16_34	379.809	0.0011128	P_RES
J16_35	387.608	0.0011641	P_RES
J16_36	393.651	0.0017932	P_RES
J16_37	401.562	0.0014688	P_RES
J16_38	406.302	0.0014491	P_RES
J16_39	414.034	0.0014653	P_RES
J16_40	421.062	0.0006931	P_RES
J16_41	427.376	0.0014160	P_RES
J16_42	432.212	0.0013597	P_RES
J16_43	439.990	0.0022321	P_RES
J16_44	444.874	0.0009638	P_RES
J16_45	451.934	0.0046039	P_IND
J16_46	458.488	0.0009914	P_RES
J16_47	465.300	0.0017889	P_COM
J16_48	471.220	0.0019132	P_RES
J16_49	477.602	0.0011458	P_RES
J16_50	485.517	0.0022683	P_IND
J16_51	491.000	0.0004984	P_RES
J16_52	497.341	0.0018129	P_RES
J16_53	502.493	0.0017553	P_RES
J16_54	509.761	0.0013739	P_RES
J16_55	517.179	0.0007417	P_RES
J16_56	522.956	0.0021371	P_RES
J16_57	528.776	0.0006864	P_RES
J16_58	534.316	0.0014620	P_RES
J16_59	542.492	0.0011033	P_COM
J16_60	547.421	0.0008542	P_RES
J16_61	553.452	0.0014239	P_RES
J16_62	559.083	0.0011179	P_RES
J16_63	567.279	0.0009255	P_RES
J16_64	571.940	0.0045165	P_IND
J16_65	577.762	0.0024399	P_RES
J16_66	585.827	0.0023126	P_COM
J16_67	590.655	0.0008914	P_RES
J16_68	598.130	0.0014604	P_RES
J16_69	602.863	0.0050927	P_COM
J16_70	609.572	0.0007286	P_RES
J16_71	617.184	0.0021049	P_IND
J16_72	621.712	0.0023515	P_IND
J17_1	155.134	0.0018423	P_RES
J17_2	161.828	0.0021045	P_COM
J17_3	170.471	0.0019700	P_RES
J17_4	176.410	0.0013938	P_RES
J17_5	183.084	0.0023016	P_RES
J17_6	190.883	0.0020474	P_COM
J17_7	195.935	0.0025543	P_RES
J17_8	202.492	0.0005891	P_RES
J17_9	209.701	0.0007060	P_RES
J17_10	216.798	0.0014417	P_RES
J17_11	225.088	0.0023236	P_RES
J17_12	230.278	0.0017763	P_RES
J17_13	238.164	0.0011009	P_COM
J17_14	245.448	0.0010299	P_RES
J17_15	251.690	0.0020103	P_RES
J17_16	258.779	0.0015545	P_RES
J17_17	264.652	0.0010002	P_RES
J17_18	272.724	0.0019017	P_RES
J17_19	278.185	0.0012374	P_RES
J17_20	284.348	0.0015476	P_COM
J17_21	291.789	0.0017811	P_IND
J17_22	298.955	0.0014871	P_RES
J17_23	305.346	0.0010557	P_RES
J17_24	312.058	0.0019090	P_RES
J17_25	319.395	0.0006867	P_RES
J17_26	324.597	0.0006505	P_RES
J17_27	331.899	0.0008113	P_RES
J17_28	338.794	0.0012611	P_COM
J17_29	346.864	0.0015906	P_RES
J17_30	353.235	0.0013549	P_RES
J17_31	358.423	0.0014044	P_RES
J17_32	366.415	0.0005811	P_RES
J17_33	372.911	0.0040780	P_IND
J17_34	379.012	0.0014697	P_RES
J17_35	385.527	0.0031554	P_COM
J17_36	390.768	0.0005471	P_RES
J17_37	398.047	0.0004589	P_RES
J17_38	405.432	0.0020870	P_RES
J17_39	410.723	0.0011228	P_RES
J17_40	418.758	0.0012554	P_RES
J17_41	424.940	0.0010012	P_RES
J17_42	429.943	0.0015202	P_RES
J17_43	436.996	0.0018832	P_RES
J17_44	442.889	0.0071331	P_IND
J17_45	450.342	0.0019309	P_RES
J17_46	456.521	0.0022106	P_RES
J17_47	463.237	0.0013471	P_RES
J17_48	469.081	0.0008351	P_RES
J17_49	475.287	0.0016830	P_RES
J17_50	481.508	0.0007633	P_RES
J17_51	487.882	0.0007477	P_RES
J17_52	495.277	0.0006429	P_RES
J17_53	502.520	0.0023104	P_RES
J17_54	506.860	0.0035650	P_COM
J17_55	514.651	0.0005994	P_RES
J17_56	520.518	0.0010660	P_RES
J17_57	526.867	0.0058039	P_COM
J17_58	533.176	0.0007339	P_RES
J17_59	539.195	0.0009685	P_RES
J17_60	546.058	0.0009687	P_RES
J17_61	551.348	0.0012682	P_RES
J17_62	559.176	0.0010835	P_RES
J17_63	565.360	0.0017499	P_IND
J17_64	571.856	0.0021452	P_COM
J17_65	578.061	0.0025883	P_COM
J17_66	584.268	0.0024743	P_RES
J17_67	588.592	0.0018565	P_RES
J17_68	595.665	0.0045979	P_IND
J17_69	601.433	0.0012317	P_RES
J17_70	606.957	0.0015164	P_RES
J17_71	613.559	0.0022564	P_COM
J17_72	620.611	0.0009111	P_RES
J18_1	154.787	0.0006694	P_RES
J18_2	159.451	0.0031782	P_IND
J18_3	166.380	0.0014500	P_RES
J18_4	175.198	0.0007171	P_RES
J18_5	180.937	0.0010525	P_RES
J18_6	187.726	0.0025724	P_RES
J18_7	195.954	0.0016585	P_RES
J18_8	202.211	0.0033054	P_RES
J18_9	207.683	0.0017620	P_RES
J18_10	215.622	0.0017011	P_COM
J18_11	221.445	0.0008314	P_RES
J18_12	230.166	0.0013169	P_RES
J18_13	236.428	0.0030868	P_COM
J18_14	241.522	0.0009559	P_RES
J18_15	249.034	0.0029010	P_IND
J18_16	257.246	0.0012817	P_COM
J18_17	263.875	0.0030727	P_COM
J18_18	270.592	0.0005801	P_RES
J18_19	275.588	0.0012054	P_COM
J18_20	283.083	0.0010181	P_RES
J18_21	290.136	0.0010502	P_RES
J18_22	296.004	0.0022747	P_COM
J18_23	304.733	0.0017651	P_RES
J18_24	310.743	0.0011078	P_RES
J18_25	317.593	0.0039806	P_IND
J18_26	323.301	0.0020964	P_RES
J18_27	329.588	0.0007964	P_RES
J18_28	337.793	0.0031928	P_IND
J18_29	343.019	0.0012385	P_RES
J18_30	349.954	0.0008360	P_COM
J18_31	356.477	0.0012646	P_COM
J18_32	363.959	0.0006922	P_RES
J18_33	370.679	0.0021448	P_RES
J18_34	376.621	0.0007680	P_RES
J18_35	383.089	0.0012646	P_RES
J18_36	390.113	0.0016815	P_IND
J18_37	396.903	0.0011415	P_RES
J18_38	403.297	0.0026070	P_IND
J18_39	410.373	0.0010679	P_RES
J18_40	415.813	0.0016972	P_RES
J18_41	421.953	0.0012334	P_RES
J18_42	428.100	0.0038736	P_IND
J18_43	435.188	0.0008686	P_RES
J18_44	442.395	0.0007548	P_RES
J18_45	448.791	0.0013386	P_RES
J18_46	454.086	0.0011977	P_RES
J18_47	462.226	0.0015979	P_IND
J18_48	467.450	0.0006965	P_RES
J18_49	474.578	0.0006191	P_RES
J18_50	479.957	0.0011224	P_RES
J18_51	487.332	0.0042355	P_IND
J18_52	494.070	0.0039833	P_IND
J18_53	498.786	0.0014832	P_RES
J18_54	506.761	0.0024437	P_IND
J18_55	512.063	0.0020755	P_RES
J18_56	517.988	0.0027301	P_IND
J18_57	525.965	0.0009870	P_RES
J18_58	530.550	0.0021387	P_RES
J18_59	537.742	0.0017001	P_RES
J18_60	543.781	0.0005570	P_RES
J18_61	549.800	0.0023517	P_COM
J18_62	555.543	0.0017977	P_RES
J18_63	561.903	0.0010618	P_RES
J18_64	569.156	0.0011965	P_RES
J18_65	574.003	0.0016091	P_RES
J18_66	582.275	0.0009177	P_RES
J18_67	586.401	0.0007206	P_RES
J18_68	592.604	0.0014627	P_COM
J18_69	599.266	0.0009788	P_RES
J18_70	606.942	0.0007483	P_RES
J18_71	612.184	0.0008979	P_RES
J18_72	618.565	0.0027369	P_COM
J19_1	152.673	0.0011431	P_RES
J19_2	158.852	0.0019315	P_COM
J19_3	165.642	0.0004395	P_RES
J19_4	172.028	0.0007976	P_RES
J19_5	179.139	0.0024912	P_IND
J19_6	186.074	0.0016570	P_IND
J19_7	194.050	0.0034841	P_COM
J19_8	200.322	0.0022316	P_COM
J19_9	207.507	0.0035585	P_IND
J19_10	213.082	0.0021292	P_COM
J19_11	219.633	0.0021027	P_COM
J19_12	227.523	0.0045746	P_IND
J19_13	234.336	0.0022257	P_RES
J19_14	240.320	0.0010049	P_RES
J19_15	248.399	0.0028373	P_RES
J19_16	253.222	0.0013951	P_COM
J19_17	261.048	0.0007857	P_RES
J19_18	268.726	0.0022417	P_RES
J19_19	275.281	0.0015786	P_RES
J19_20	281.376	0.0007652	P_RES
J19_21	286.991	0.0012288	P_RES
J19_22	295.337	0.0016137	P_RES
J19_23	301.451	0.0024473	P_IND
J19_24	309.395	0.0014695	P_RES
J19_25	316.124	0.0007198	P_RES
J19_26	320.908	0.0019058	P_COM
J19_27	328.866	0.0025335	P_RES
J19_28	335.931	0.0008795	P_RES
J19_29	341.626	0.0021009	P_RES
J19_30	349.281	0.0014110	P_COM
J19_31	354.043	0.0009363	P_RES
J19_32	362.034	0.0007633	P_RES
J19_33	368.297	0.0013679	P_RES
J19_34	374.516	0.0022657	P_RES
J19_35	381.779	0.0018131	P_RES
J19_36	387.699	0.0023444	P_IND
J19_37	395.672	0.0009328	P_RES
J19_38	402.225	0.0010696	P_RES
J19_39	408.148	0.0014161	P_RES
J19_40	414.627	0.0015178	P_RES
J19_41	421.211	0.0045070	P_RES
J19_42	426.819	0.0024343	P_COM
J19_43	434.096	0.0020403	P_RES
J19_44	440.885	0.0018508	P_RES
J19_45	447.521	0.0021126	P_COM
J19_46	452.033	0.0010098	P_RES
J19_47	460.139	0.0009350	P_RES
J19_48	466.330	0.0031389	P_IND
J19_49	472.577	0.0016659	P_RES
J19_50	477.707	0.0014283	P_RES
J19_51	484.781	0.0009411	P_RES
J19_52	491.720	0.0007256	P_RES
J19_53	498.338	0.0016193	P_RES
J19_54	502.935	0.0018766	P_RES
J19_55	510.563	0.0010179	P_RES
J19_56	515.939	0.0014934	P_COM
J19_57	522.617	0.0021422	P_COM
J19_58	528.643	0.0044747	P_COM
J19_59	536.280	0.0013405	P_RES
J19_60	541.045	0.0013058	P_RES
J19_61	548.172	0.0017567	P_RES
J19_62	553.239	0.0020725	P_RES
J19_63	560.174	0.0020496	P_RES
J19_64	566.148	0.0016978	P_RES
J19_65	572.642	0.0018082	P_RES
J19_66	580.058	0.0017061	P_COM
J19_67	585.354	0.0016182	P_RES
J19_68	592.488	0.0011944	P_RES
J19_69	597.923	0.0020420	P_RES
J19_70	604.569	0.0006341	P_RES
J19_71	610.845	0.0007552	P_RES
J19_72	616.298	0.0027622	P_RES
J20_1	150.151	0.0016585	P_RES
J20_2	156.065	0.0014037	P_RES
J20_3	163.563	0.0033321	P_COM
J20_4	170.818	0.0006141	P_RES
J20_5	177.648	0.0020440	P_COM
J20_6	184.900	0.0013837	P_RES
J20_7	191.521	0.0007729	P_RES
J20_8	196.710	0.0018948	P_IND
J20_9	204.701	0.0012486	P_RES
J20_10	210.346	0.0012422	P_RES
J20_11	218.072	0.0010315	P_COM
J20_12	224.869	0.0007001	P_RES
J20_13	232.446	0.0011621	P_RES
J20_14	239.859	0.0010679	P_RES
J20_15	245.480	0.0013307	P_RES
J20_16	251.217	0.0010513	P_RES
J20_17	260.042	0.0005450	P_RES
J20_18	265.492	0.0020787	P_COM
J20_19	273.848	0.0010469	P_RES
J20_20	279.537	0.0008439	P_RES
J20_21	285.158	0.0018780	P_RES
J20_22	291.829	0.0021168	P_RES
J20_23	299.439	0.0007974	P_RES
J20_24	306.526	0.0030866	P_RES
J20_25	312.441	0.0008707	P_RES
J20_26	320.425	0.0032048	P_IND
J20_27	327.068	0.0020945	P_RES
J20_28	332.549	0.0018514	P_RES
J20_29	339.971	0.0022871	P_RES
J20_30	346.424	0.0108957	P_IND
J20_31	352.096	0.0010830	P_RES
J20_32	360.284	0.0030623	P_IND
J20_33	367.070	0.0010812	P_RES
J20_34	373.463	0.0015397	P_RES
J20_35	380.191	0.0008318	P_RES
J20_36	386.958	0.0010580	P_RES
J20_37	391.961	0.0018739	P_RES
J20_38	399.918	0.0030648	P_IND
J20_39	406.184	0.0037388	P_RES
J20_40	412.095	0.0010660	P_RES
J20_41	417.990	0.0019329	P_RES
J20_42	426.379	0.0012523	P_RES
J20_43	431.593	0.0014814	P_RES
J20_44	437.176	0.0020656	P_RES
J20_45	445.573	0.0014952	P_RES
J20_46	451.641	0.0006636	P_RES
J20_47	457.131	0.0023934	P_RES
J20_48	465.017	0.0012529	P_RES
J20_49	471.120	0.0006880	P_RES
J20_50	476.141	0.0005978	P_RES
J20_51	484.286	0.0027365	P_RES
J20_52	489.893	0.0018612	P_RES
J20_53	497.007	0.0020796	P_RES
J20_54	500.966	0.0028690	P_RES
J20_55	508.041	0.0018258	P_COM
J20_56	514.847	0.0005157	P_RES
J20_57	520.116	0.0012900	P_RES
J20_58	526.591	0.0023091	P_RES
J20_59	533.846	0.0028266	P_RES
J20_60	540.241	0.0008912	P_RES
J20_61	545.219	0.0014630	P_RES
J20_62	551.454	0.0035639	P_RES
J20_63	557.616	0.0015478	P_RES
J20_64	563.849	0.0006596	P_RES
J20_65	570.495	0.0015112	P_RES
J20_66	576.273	0.0020622	P_RES
J20_67	583.244	0.0010610	P_RES
J20_68	588.728	0.0019932	P_COM
J20_69	595.603	0.0005146	P_RES
J20_70	602.479	0.0019225	P_IND
J20_71	609.257	0.0014221	P_RES
J20_72	614.993	0.0008037	P_RES
J21_1	147.696	0.0013174	P_RES
J21_2	154.740	0.0019395	P_RES
J21_3	161.828	0.0028438	P_COM
J21_4	169.329	0.0026086	P_COM
J21_5	175.681	0.0012612	P_RES
J21_6	182.580	0.0031413	P_RES
J21_7	190.019	0.0014907	P_RES
J21_8	195.430	0.0010306	P_RES
J21_9	202.966	0.0029938	P_IND
J21_10	210.477	0.0014197	P_RES
J21_11	215.483	0.0014645	P_RES
J21_12	222.039	0.0020286	P_RES
J21_13	230.769	0.0026387	P_RES
J21_14	235.810	0.0018998	P_COM
J21_15	243.289	0.0020173	P_RES
J21_16	249.615	0.0008927	P_RES
J21_17	258.228	0.0014948	P_RES
J21_18	263.771	0.0009956	P_RES
J21_19	269.881	0.0010201	P_RES
J21_20	277.208	0.0015881	P_RES
J21_21	285.454	0.0011060	P_RES
J21_22	290.735	0.0015621	P_RES
J21_23	296.854	0.0007830	P_RES
J21_24	305.445	0.0017927	P_IND
J21_25	310.819	0.0012694	P_RES
J21_26	318.467	0.0007823	P_RES
J21_27	325.098	0.0039676	P_IND
J21_28	331.128	0.0009366	P_RES
J21_29	336.833	0.0014089	P_RES
J21_30	345.465	0.0011696	P_RES
J21_31	350.346	0.0013741	P_RES
J21_32	357.731	0.0018667	P_COM
J21_33	363.628	0.0025817	P_COM
J21_34	371.305	0.0012901	P_RES
J21_35	377.830	0.0016928	P_RES
J21_36	385.142	0.0015057	P_RES
J21_37	390.170	0.0026728	P_IND
J21_38	397.641	0.0013001	P_RES
J21_39	403.896	0.0022351	P_RES
J21_40	411.468	0.0013958	P_COM
J21_41	417.946	0.0012426	P_RES
J21_42	422.349	0.0018271	P_RES
J21_43	430.424	0.0019927	P_RES
J21_44	435.495	0.0012771	P_RES
J21_45	443.452	0.0034228	P_COM
J21_46	448.204	0.0027464	P_IND
J21_47	455.343	0.0010076	P_RES
J21_48	461.861	0.0005648	P_RES
J21_49	467.332	0.0031923	P_COM
J21_50	473.667	0.0008088	P_RES
J21_51	480.085	0.0013342	P_RES
J21_52	487.613	0.0011042	P_RES
J21_53	494.994	0.0014686	P_RES
J21_54	500.870	0.0010059	P_RES
J21_55	505.513	0.0020227	P_COM
J21_56	513.739	0.0009315	P_RES
J21_57	519.850	0.0016756	P_COM
J21_58	525.349	0.0007453	P_RES
J21_59	532.248	0.0005540	P_RES
J21_60	538.525	0.0011979	P_RES
J21_61	543.237	0.0011587	P_RES
J21_62	549.846	0.0017783	P_COM
J21_63	557.380	0.0014280	P_RES
J21_64	563.703	0.0023340	P_COM
J21_65	569.676	0.0022179	P_RES
J21_66	576.323	0.0019927	P_RES
J21_67	582.016	0.0015451	P_RES
J21_68	587.728	0.0066644	P_IND
J21_69	593.060	0.0010229	P_RES
J21_70	599.333	0.0005974	P_RES
J21_71	606.068	0.0046162	P_IND
J21_72	613.691	0.0015817	P_COM
J22_1	147.101	0.0013884	P_RES
J22_2	151.893	0.0016957	P_RES
J22_3	159.712	0.0014849	P_RES
J22_4	165.725	0.0020159	P_RES
J22_5	173.963	0.0011774	P_RES
J22_6	179.539	0.0011424	P_RES
J22_7	187.821	0.0024333	P_RES
J22_8	194.319	0.0017730	P_RES
J22_9	201.282	0.0011255	P_RES
J22_10	207.075	0.0014544	P_RES
J22_11	214.307	0.0016834	P_COM
J22_12	221.027	0.0022514	P_RES
J22_13	228.508	0.0017506	P_COM
J22_14	235.222	0.0011862	P_RES
J22_15	242.236	0.0008773	P_RES
J22_16	249.497	0.0011084	P_RES
J22_17	254.555	0.0054536	P_IND
J22_18	261.162	0.0008790	P_COM
J22_19	269.221	0.0017007	P_RES
J22_20	275.052	0.0012923	P_RES
J22_21	283.515	0.0012331	P_RES
J22_22	288.643	0.0010933	P_RES
J22_23	295.802	0.0016122	P_COM
J22_24	301.769	0.0009610	P_RES
J22_25	309.076	0.0011045	P_RES
J22_26	315.187	0.0008998	P_RES
J22_27	321.844	0.0042807	P_IND
J22_28	330.309	0.0010377	P_RES
J22_29	337.048	0.0009410	P_RES
J22_30	343.595	0.0009791	P_RES
J22_31	348.244	0.0018667	P_RES
J22_32	355.854	0.0018367	P_RES
J22_33	361.338	0.0033129	P_COM
J22_34	369.532	0.0028203	P_RES
J22_35	375.050	0.0008317	P_RES
J22_36	382.638	0.0013326	P_COM
J22_37	388.482	0.0006331	P_RES
J22_38	395.989	0.0014574	P_COM
J22_39	402.851	0.0010952	P_RES
J22_40	407.353	0.0019086	P_RES
J22_41	415.719	0.0011417	P_RES
J22_42	420.698	0.0015133	P_RES
J22_43	426.930	0.0026691	P_RES
J22_44	434.566	0.0013534	P_RES
J22_45	440.679	0.0023123	P_COM
J22_46	447.791	0.0018992	P_RES
J22_47	453.000	0.0006927	P_RES
J22_48	460.458	0.0030809	P_RES
J22_49	465.819	0.0005468	P_RES
J22_50	473.693	0.0008063	P_RES
J22_51	478.463	0.0011904	P_RES
J22_52	484.595	0.0010334	P_RES
J22_53	491.431	0.0013417	P_RES
J22_54	498.664	0.0009033	P_RES
J22_55	505.339	0.0014750	P_COM
J22_56	510.746	0.0007145	P_RES
J22_57	518.108	0.0021468	P_RES
J22_58	523.315	0.0006352	P_RES
J22_59	529.491	0.0028379	P_IND
J22_60	536.596	0.0007844	P_RES
J22_61	541.158	0.0006092	P_RES
J22_62	548.476	0.0020928	P_RES
J22_63	554.620	0.0003892	P_RES
J22_64	561.664	0.0013402	P_RES
J22_65	566.338	0.0017789	P_IND
J22_66	573.364	0.0024699	P_IND
J22_67	580.057	0.0008579	P_RES
J22_68	585.987	0.0006563	P_RES
J22_69	592.536	0.0014412	P_RES
J22_70	597.830	0.0010816	P_RES
J22_71	605.774	0.0040428	P_COM
J22_72	610.401	0.0013891	P_RES
J23_1	144.011	0.0009610	P_RES
J23_2	151.223	0.0011084	P_RES
J23_3	156.631	0.0031567	P_IND
J23_4	164.188	0.0016690	P_RES
J23_5	171.688	0.0008306	P_RES
J23_6	177.649	0.0009660	P_RES
J23_7	184.945	0.0023351	P_RES
J23_8	192.544	0.0009589	P_RES
J23_9	199.249	0.0016510	P_RES
J23_10	205.588	0.0015042	P_RES
J23_11	211.273	0.0026318	P_RES
J23_12	219.604	0.0026636	P_RES
J23_13	225.636	0.0032843	P_COM
J23_14	233.958	0.0023666	P_COM
J23_15	239.252	0.0022260	P_COM
J23_16	247.677	0.0015421	P_RES
J23_17	253.180	0.0022423	P_RES
J23_18	259.212	0.0012461	P_RES
J23_19	266.470	0.0013175	P_RES
J23_20	273.352	0.0013027	P_RES
J23_21	281.396	0.0013153	P_COM
J23_22	287.452	0.0009444	P_RES
J23_23	294.711	0.0013383	P_RES
J23_24	300.505	0.0022177	P_COM
J23_25	307.856	0.0030607	P_RES
J23_26	313.756	0.0012931	P_RES
J23_27	321.349	0.0019435	P_RES
J23_28	326.607	0.0032493	P_COM
J23_29	334.984	0.0023919	P_COM
J23_30	340.198	0.0003646	P_RES
J23_31	346.681	0.0012036	P_COM
J23_32	354.165	0.0012532	P_RES
J23_33	360.740	0.0014478	P_RES
J23_34	366.986	0.0006200	P_RES
J23_35	373.514	0.0009438	P_RES
J23_36	379.397	0.0010726	P_RES
J23_37	387.064	0.0028361	P_IND
J23_38	393.170	0.0017986	P_RES
J23_39	399.572	0.0025353	P_RES
J23_40	407.206	0.0030633	P_RES
J23_41	413.023	0.0017145	P_RES
J23_42	419.864	0.0009392	P_RES
J23_43	426.275	0.0024581	P_IND
J23_44	432.693	0.0014240	P_COM
J23_45	439.832	0.0009063	P_RES
J23_46	444.481	0.0026152	P_IND
J23_47	452.693	0.0008418	P_RES
J23_48	458.744	0.0014714	P_RES
J23_49	464.559	0.0033244	P_COM
J23_50	469.769	0.0016821	P_RES
J23_51	478.428	0.0037745	P_COM
J23_52	483.317	0.0015060	P_IND
J23_53	489.374	0.0015854	P_RES
J23_54	496.846	0.0023585	P_RES
J23_55	501.607	0.0012242	P_RES
J23_56	508.847	0.0009808	P_RES
J23_57	514.112	0.0015996	P_RES
J23_58	521.010	0.0012759	P_RES
J23_59	528.854	0.0010688	P_RES
J23_60	534.343	0.0010016	P_RES
J23_61	540.885	0.0025323	P_COM
J23_62	547.613	0.0024734	P_COM
J23_63	552.146	0.0025765	P_COM
J23_64	559.495	0.0019467	P_COM
J23_65	565.315	0.0019831	P_COM
J23_66	571.258	0.0011162	P_RES
J23_67	577.760	0.0016428	P_COM
J23_68	584.928	0.0041798	P_COM
J23_69	589.698	0.0016881	P_RES
J23_70	596.249	0.0013018	P_RES
J23_71	602.412	0.0011128	P_RES
J23_72	608.935	0.0014090	P_RES
J24_1	143.106	0.0012993	P_RES
J24_2	149.791	0.0014044	P_RES
J24_3	154.832	0.0016346	P_COM
J24_4	163.679	0.0008629	P_RES
J24_5	170.223	0.0010409	P_RES
J24_6	177.197	0.0030702	P_COM
J24_7	183.913	0.0011206	P_RES
J24_8	189.626	0.0014107	P_RES
J24_9	197.117	0.0007387	P_RES
J24_10	203.302	0.0013647	P_RES
J24_11	210.260	0.0009595	P_COM
J24_12	217.822	0.0015792	P_RES
J24_13	223.049	0.0019440	P_COM
J24_14	230.622	0.0018335	P_COM
J24_15	238.523	0.0010568	P_RES
J24_16	243.731	0.0010341	P_RES
J24_17	252.283	0.0008147	P_RES
J24_18	258.255	0.0014356	P_RES
J24_19	264.426	0.0028374	P_COM
J24_20	272.042	0.0006968	P_RES
J24_21	277.633	0.0016940	P_RES
J24_22	284.608	0.0006493	P_RES
J24_23	290.868	0.0014587	P_RES
J24_24	299.468	0.0025328	P_COM
J24_25	305.026	0.0010523	P_RES
J24_26	311.279	0.0027121	P_COM
J24_27	319.649	0.0017761	P_RES
J24_28	324.296	0.0039073	P_IND
J24_29	332.235	0.0008612	P_RES
J24_30	337.980	0.0018557	P_RES
J24_31	344.632	0.0008242	P_RES
J24_32	351.151	0.0018277	P_RES
J24_33	357.755	0.0020823	P_COM
J24_34	365.938	0.0003632	P_RES
J24_35	371.618	0.0020709	P_COM
J24_36	379.159	0.0032647	P_COM
J24_37	384.690	0.0011212	P_RES
J24_38	391.687	0.0008986	P_RES
J24_39	397.942	0.0008928	P_RES
J24_40	404.939	0.0030983	P_COM
J24_41	412.191	0.0014154	P_RES
J24_42	416.885	0.0048630	P_RES
J24_43	423.817	0.0017222	P_RES
J24_44	431.107	0.0018469	P_RES
J24_45	436.622	0.0012767	P_RES
J24_46	442.221	0.0021647	P_COM
J24_47	448.871	0.0005009	P_RES
J24_48	457.302	0.0038930	P_RES
J24_49	463.483	0.0006227	P_RES
J24_50	467.758	0.0038694	P_IND
J24_51	475.729	0.0035344	P_COM
J24_52	480.995	0.0017078	P_RES
J24_53	488.948	0.0017625	P_RES
J24_54	494.872	0.0009061	P_RES
J24_55	501.077	0.0017515	P_COM
J24_56	506.581	0.0034614	P_IND
J24_57	512.325	0.0030534	P_COM
J24_58	519.930	0.0046883	P_IND
J24_59	526.579	0.0018025	P_IND
J24_60	532.477	0.0017126	P_RES
J24_61	539.271	0.0010884	P_RES
J24_62	545.441	0.0016067	P_COM
J24_63	550.829	0.0022005	P_COM
J24_64	556.028	0.0011491	P_RES
J24_65	564.466	0.0055724	P_IND
J24_66	570.049	0.0015734	P_RES
J24_67	575.487	0.0005050	P_RES
J24_68	582.599	0.0019332	P_RES
J24_69	587.542	0.0030770	P_RES
J24_70	595.127	0.0019439	P_COM
J24_71	601.527	0.0037966	P_COM
J24_72	606.254	0.0028159	P_IND
J25_1	140.324	0.0011223	P_COM
J25_2	147.560	0.0028721	P_COM
J25_3	154.885	0.0014047	P_RES
J25_4	160.345	0.0014439	P_COM
J25_5	168.180	0.0038105	P_COM
J25_6	174.871	0.0011320	P_RES
J25_7	181.024	0.0012324	P_RES
J25_8	186.955	0.0008030	P_RES
J25_9	193.667	0.0019016	P_IND
J25_10	201.868	0.0006327	P_RES
J25_11	208.040	0.0018021	P_COM
J25_12	215.424	0.0016004	P_RES
J25_13	221.393	0.0006512	P_RES
J25_14	227.799	0.0033817	P_COM
J25_15	235.827	0.0040981	P_IND
J25_16	242.656	0.0011059	P_RES
J25_17	248.387	0.0012721	P_RES
J25_18	256.941	0.0011141	P_COM
J25_19	263.919	0.0013190	P_RES
J25_20	268.771	0.0018174	P_RES
J25_21	277.023	0.0017526	P_COM
J25_22	284.016	0.0027457	P_IND
J25_23	289.008	0.0014626	P_RES
J25_24	295.959	0.0013163	P_RES
J25_25	304.386	0.0010657	P_RES
J25_26	309.835	0.0016981	P_RES
J25_27	317.904	0.0021592	P_COM
J25_28	324.019	0.0016140	P_COM
J25_29	330.299	0.0012562	P_RES
J25_30	337.781	0.0012943	P_RES
J25_31	343.305	0.0005535	P_RES
J25_32	351.038	0.0008251	P_RES
J25_33	355.582	0.0022953	P_IND
J25_34	364.030	0.0015843	P_RES
J25_35	369.053	0.0011343	P_RES
J25_36	376.315	0.0039764	P_IND
J25_37	383.531	0.0022230	P_RES
J25_38	390.096	0.0018869	P_RES
J25_39	395.405	0.0007040	P_RES
J25_40	402.635	0.0020476	P_COM
J25_41	408.945	0.0008226	P_RES
J25_42	415.270	0.0010923	P_RES
J25_43	420.960	0.0015312	P_RES
J25_44	428.762	0.0012418	P_RES
J25_45	435.831	0.0011918	P_RES
J25_46	442.048	0.0021190	P_COM
J25_47	447.224	0.0012922	P_RES
J25_48	455.020	0.0011444	P_RES
J25_49	459.825	0.0007432	P_RES
J25_50	467.416	0.0031721	P_COM
J25_51	472.947	0.0010485	P_RES
J25_52	478.948	0.0040885	P_COM
J25_53	486.415	0.0012656	P_RES
J25_54	492.198	0.0013777	P_RES
J25_55	498.744	0.0021047	P_COM
J25_56	505.100	0.0015225	P_COM
J25_57	512.251	0.0024262	P_COM
J25_58	518.553	0.0040183	P_IND
J25_59	525.051	0.0016825	P_RES
J25_60	530.157	0.0015620	P_RES
J25_61	537.203	0.0023366	P_RES
J25_62	542.465	0.0012185	P_RES
J25_63	548.659	0.0030540	P_IND
J25_64	555.126	0.0022371	P_RES
J25_65	561.900	0.0016190	P_RES
J25_66	568.342	0.0014397	P_RES
J25_67	573.363	0.0035037	P_COM
J25_68	580.438	0.0019710	P_RES
J25_69	586.382	0.0009424	P_RES
J25_70	592.647	0.0018552	P_RES
J25_71	599.556	0.0022825	P_COM
J25_72	603.753	0.0035996	P_IND
J26_1	137.740	0.0011872	P_RES
J26_2	145.795	0.0020535	P_COM
J26_3	152.738	0.0024512	P_IND
J26_4	158.281	0.0016275	P_RES
J26_5	166.162	0.0034190	P_IND
J26_6	172.413	0.0008914	P_RES
J26_7	179.256	0.0017416	P_RES
J26_8	186.527	0.0009394	P_RES
J26_9	191.964	0.0009220	P_RES
J26_10	199.388	0.0021733	P_COM
J26_11	207.729	0.0012689	P_RES
J26_12	214.175	0.0020651	P_IND
J26_13	219.226	0.0021129	P_IND
J26_14	227.645	0.0008816	P_RES
J26_15	234.433	0.0022752	P_COM
J26_16	240.891	0.0013651	P_RES
J26_17	248.584	0.0019025	P_RES
J26_18	253.197	0.0019221	P_RES
J26_19	260.048	0.0008836	P_RES
J26_20	267.877	0.0010707	P_RES
J26_21	275.238	0.0014043	P_COM
J26_22	281.442	0.0039819	P_COM
J26_23	287.179	0.0012058	P_RES
J26_24	295.249	0.0011393	P_RES
J26_25	301.617	0.0016736	P_RES
J26_26	307.808	0.0015196	P_RES
J26_27	315.236	0.0007333	P_RES
J26_28	321.120	0.0021335	P_COM
J26_29	327.413	0.0020094	P_RES
J26_30	335.056	0.0016043	P_RES
J26_31	341.211	0.0018155	P_RES
J26_32	348.019	0.0008615	P_RES
J26_33	354.550	0.0013625	P_RES
J26_34	362.078	0.0012419	P_COM
J26_35	367.641	0.0018664	P_RES
J26_36	375.112	0.0012279	P_RES
J26_37	379.849	0.0027958	P_COM
J26_38	388.433	0.0023153	P_RES
J26_39	393.470	0.0022942	P_COM
J26_40	399.825	0.0014923	P_RES
J26_41	407.624	0.0044781	P_IND
J26_42	413.276	0.0008454	P_RES
J26_43	419.585	0.0019469	P_RES
J26_44	427.450	0.0010250	P_RES
J26_45	432.144	0.0004525	P_RES
J26_46	438.194	0.0017447	P_RES
J26_47	446.726	0.0012866	P_RES
J26_48	453.305	0.0024443	P_COM
J26_49	458.019	0.0022735	P_IND
J26_50	463.846	0.0034453	P_COM
J26_51	471.054	0.0012913	P_RES
J26_52	477.502	0.0014305	P_RES
J26_53	482.978	0.0014353	P_RES
J26_54	489.835	0.0014776	P_RES
J26_55	495.664	0.0015718	P_RES
J26_56	502.885	0.0022163	P_COM
J26_57	508.882	0.0032179	P_IND
J26_58	515.685	0.0008608	P_RES
J26_59	522.859	0.0013354	P_RES
J26_60	528.032	0.0008414	P_RES
J26_61	534.087	0.0009842	P_RES
J26_62	541.674	0.0014709	P_COM
J26_63	547.097	0.0012661	P_RES
J26_64	552.998	0.0010172	P_RES
J26_65	560.388	0.0013875	P_COM
J26_66	565.451	0.0011112	P_RES
J26_67	572.989	0.0009744	P_RES
J26_68	578.357	0.0019903	P_RES
J26_69	583.670	0.0012553	P_RES
J26_70	589.679	0.0009613	P_RES
J26_71	596.729	0.0005593	P_RES
J26_72	604.023	0.0003804	P_RES
J27_1	135.088	0.0013161	P_RES
J27_2	143.816	0.0011691	P_RES
J27_3	149.714	0.0016593	P_RES
J27_4	157.836	0.0014189	P_RES
J27_5	164.462	0.0019104	P_IND
J27_6	171.554	0.0013176	P_COM
J27_7	178.205	0.0011293	P_RES
J27_8	184.063	0.0006281	P_RES
J27_9	191.677	0.0015621	P_COM
J27_10	197.951	0.0027757	P_COM
J27_11	205.696	0.0005673	P_RES
J27_12	210.593	0.0022406	P_RES
J27_13	218.834	0.0019019	P_COM
J27_14	223.949	0.0023646	P_RES
J27_15	230.818	0.0011621	P_RES
J27_16	238.843	0.0012975	P_COM
J27_17	245.077	0.0028207	P_IND
J27_18	252.081	0.0024275	P_COM
J27_19	258.608	0.0009815	P_RES
J27_20	266.852	0.0025255	P_RES
J27_21	272.087	0.0018727	P_RES
J27_22	278.118	0.0008675	P_RES
J27_23	286.926	0.0007267	P_RES
J27_24	292.124	0.0013345	P_RES
J27_25	299.411	0.0010575	P_COM
J27_26	305.332	0.0007473	P_RES
J27_27	312.085	0.0012949	P_RES
J27_28	320.066	0.0027708	P_RES
J27_29	325.688	0.0007164	P_RES
J27_30	331.801	0.0012601	P_RES
J27_31	338.727	0.0011313	P_RES
J27_32	345.301	0.0022528	P_RES
J27_33	351.524	0.0017958	P_RES
J27_34	359.958	0.0014345	P_RES
J27_35	364.928	0.0007808	P_RES
J27_36	371.936	0.0015759	P_COM
J27_37	378.273	0.0020158	P_RES
J27_38	384.735	0.0012003	P_RES
J27_39	390.861	0.0015182	P_RES
J27_40	397.961	0.0020818	P_IND
J27_41	405.941	0.0014487	P_RES
J27_42	411.158	0.0007573	P_RES
J27_43	416.897	0.0015093	P_RES
J27_44	424.743	0.0010029	P_RES
J27_45	429.783	0.0008158	P_RES
J27_46	438.125	0.0030509	P_RES
J27_47	444.425	0.0018826	P_COM
J27_48	451.362	0.0012471	P_RES
J27_49	455.742	0.0034848	P_COM
J27_50	462.923	0.0018464	P_RES
J27_51	468.569	0.0008903	P_RES
J27_52	475.729	0.0023214	P_IND
J27_53	482.278	0.0025044	P_COM
J27_54	487.986	0.0016376	P_RES
J27_55	494.460	0.0016840	P_RES
J27_56	502.011	0.0017950	P_COM
J27_57	507.902	0.0009890	P_RES
J27_58	513.110	0.0031237	P_IND
J27_59	520.906	0.0010555	P_RES
J27_60	525.624	0.0016991	P_RES
J27_61	532.441	0.0014130	P_RES
J27_62	539.440	0.0037369	P_IND
J27_63	545.358	0.0014460	P_COM
J27_64	551.531	0.0011084	P_RES
J27_65	557.379	0.0030272	P_IND
J27_66	564.692	0.0037276	P_COM
J27_67	570.755	0.0021924	P_COM
J27_68	574.982	0.0008564	P_RES
J27_69	583.179	0.0011727	P_RES
J27_70	588.305	0.0013130	P_RES
J27_71	595.089	0.0010768	P_RES
J27_72	599.768	0.0019210	P_RES
J28_1	133.411	0.0010446	P_RES
J28_2	140.952	0.0023119	P_RES
J28_3	147.261	0.0015803	P_COM
J28_4	155.056	0.0011107	P_RES
J28_5	162.151	0.0006979	P_RES
J28_6	168.610	0.0027583	P_COM
J28_7	175.436	0.0008019	P_RES
J28_8	181.921	0.0033841	P_COM
J28_9	188.258	0.0014521	P_COM
J28_10	195.956	0.0017123	P_RES
J28_11	202.387	0.0010664	P_RES
J28_12	208.468	0.0023293	P_RES
J28_13	216.033	0.0016166	P_COM
J28_14	223.775	0.0005443	P_RES
J28_15	228.977	0.0007138	P_RES
J28_16	235.788	0.0021191	P_RES
J28_17	244.360	0.0020354	P_RES
J28_18	250.849	0.0013334	P_RES
J28_19	255.800	0.0013303	P_RES
J28_20	263.547	0.0014198	P_IND
J28_21	270.285	0.0006809	P_RES
J28_22	276.576	0.0015252	P_IND
J28_23	284.115	0.0010134	P_RES
J28_24	291.494	0.0020299	P_COM
J28_25	296.956	0.0021246	P_RES
J28_26	305.052	0.0025938	P_COM
J28_27	310.519	0.0027338	P_IND
J28_28	318.613	0.0009459	P_RES
J28_29	324.493	0.0007871	P_RES
J28_30	330.393	0.0045270	P_IND
J28_31	338.020	0.0015977	P_RES
J28_32	343.979	0.0017920	P_COM
J28_33	351.642	0.0010117	P_RES
J28_34	356.840	0.0015616	P_RES
J28_35	362.730	0.0012876	P_RES
J28_36	369.915	0.0012282	P_RES
J28_37	377.304	0.0015651	P_RES
J28_38	383.978	0.0013800	P_COM
J28_39	390.192	0.0008962	P_RES
J28_40	395.581	0.0017854	P_COM
J28_41	402.800	0.0015428	P_RES
J28_42	410.444	0.0041574	P_IND
J28_43	415.055	0.0007847	P_RES
J28_44	421.962	0.0020477	P_COM
J28_45	430.001	0.0029817	P_COM
J28_46	434.729	0.0020844	P_RES
J28_47	440.833	0.0026859	P_COM
J28_48	449.113	0.0022131	P_IND
J28_49	454.081	0.0009147	P_RES
J28_50	461.990	0.0010698	P_RES
J28_51	467.055	0.0022357	P_RES
J28_52	472.910	0.0011066	P_RES
J28_53	480.030	0.0008887	P_RES
J28_54	485.795	0.0011385	P_RES
J28_55	492.755	0.0037869	P_IND
J28_56	498.569	0.0017903	P_RES
J28_57	505.599	0.0010791	P_RES
J28_58	510.811	0.0015527	P_RES
J28_59	517.618	0.0009982	P_RES
J28_60	523.545	0.0009142	P_RES
J28_61	530.288	0.0022768	P_RES
J28_62	537.932	0.0007986	P_RES
J28_63	542.876	0.0008352	P_RES
J28_64	548.316	0.0034943	P_RES
J28_65	556.290	0.0022943	P_COM
J28_66	562.489	0.0036937	P_IND
J28_67	567.525	0.0035856	P_IND
J28_68	574.657	0.0017873	P_RES
J28_69	579.549	0.0010571	P_RES
J28_70	585.412	0.0007759	P_RES
J28_71	593.616	0.0032086	P_RES
J28_72	599.006	0.0011869	P_RES
J29_1	131.131	0.0028107	P_RES
J29_2	138.839	0.0010241	P_RES
J29_3	144.713	0.0006115	P_RES
J29_4	152.351	0.0024786	P_RES
J29_5	159.083	0.0009189	P_RES
J29_6	165.785	0.0045140	P_COM
J29_7	172.885	0.0016373	P_RES
J29_8	179.939	0.0008004	P_RES
J29_9	187.298	0.0011900	P_RES
J29_10	193.650	0.0011952	P_RES
J29_11	200.131	0.0013058	P_RES
J29_12	207.515	0.0009804	P_COM
J29_13	213.363	0.0033636	P_RES
J29_14	222.196	0.0020488	P_COM
J29_15	227.078	0.0010002	P_RES
J29_16	234.530	0.0011493	P_RES
J29_17	242.419	0.0032043	P_COM
J29_18	247.206	0.0020651	P_IND
J29_19	256.197	0.0011429	P_RES
J29_20	260.666	0.0019153	P_COM
J29_21	268.367	0.0026397	P_COM
J29_22	275.431	0.0010703	P_RES
J29_23	281.235	0.0019626	P_COM
J29_24	288.811	0.0018630	P_IND
J29_25	294.444	0.0016974	P_COM
J29_26	303.249	0.0014045	P_RES
J29_27	308.105	0.0042618	P_COM
J29_28	316.054	0.0015497	P_RES
J29_29	321.076	0.0020517	P_RES
J29_30	327.883	0.0019982	P_RES
J29_31	336.275	0.0022079	P_COM
J29_32	342.118	0.0025593	P_COM
J29_33	349.188	0.0046078	P_COM
J29_34	355.997	0.0016791	P_RES
J29_35	361.674	0.0012749	P_RES
J29_36	368.609	0.0018974	P_COM
J29_37	373.957	0.0012159	P_RES
J29_38	381.907	0.0004173	P_RES
J29_39	387.251	0.0018526	P_RES
J29_40	393.915	0.0009431	P_RES
J29_41	400.876	0.0008836	P_RES
J29_42	408.339	0.0016766	P_RES
J29_43	414.466	0.0010645	P_RES
J29_44	420.155	0.0012275	P_COM
J29_45	427.334	0.0017064	P_RES
J29_46	433.252	0.0026648	P_COM
J29_47	439.891	0.0015620	P_RES
J29_48	445.892	0.0010167	P_RES
J29_49	451.966	0.0018991	P_RES
J29_50	458.940	0.0013898	P_RES
J29_51	465.946	0.0015351	P_RES
J29_52	470.663	0.0024923	P_RES
J29_53	476.946	0.0013311	P_RES
J29_54	484.389	0.0037725	P_COM
J29_55	489.589	0.0013119	P_RES
J29_56	497.962	0.0013991	P_RES
J29_57	503.055	0.0016395	P_RES
J29_58	510.608	0.0012563	P_RES
J29_59	517.138	0.0014247	P_RES
J29_60	523.367	0.0016053	P_RES
J29_61	529.562	0.0025618	P_COM
J29_62	534.267	0.0017621	P_COM
J29_63	540.971	0.0010095	P_RES
J29_64	548.411	0.0006224	P_RES
J29_65	552.716	0.0013812	P_RES
J29_66	558.570	0.0028902	P_RES
J29_67	566.376	0.0035432	P_COM
J29_68	571.114	0.0008368	P_RES
J29_69	577.360	0.0011991	P_COM
J29_70	584.628	0.0011773	P_RES
J29_71	590.195	0.0023620	P_RES
J29_72	596.982	0.0008255	P_RES
J30_1	131.221	0.0014036	P_RES
J30_2	136.161	0.0014180	P_RES
J30_3	143.446	0.0017114	P_COM
J30_4	151.371	0.0008474	P_RES
J30_5	156.632	0.0008711	P_RES
J30_6	165.466	0.0023686	P_RES
J30_7	172.211	0.0023188	P_RES
J30_8	177.302	0.0016702	P_RES
J30_9	185.555	0.0006178	P_RES
J30_10	191.212	0.0011631	P_RES
J30_11	199.645	0.0029394	P_COM
J30_12	205.206	0.0027960	P_RES
J30_13	212.011	0.0006479	P_RES
J30_14	218.875	0.0017125	P_RES
J30_15	226.473	0.0026054	P_RES
J30_16	232.222	0.0029808	P_RES
J30_17	240.477	0.0031906	P_COM
J30_18	246.524	0.0019109	P_COM
J30_19	253.725	0.0017036	P_RES
J30_20	260.864	0.0024396	P_COM
J30_21	267.603	0.0016317	P_COM
J30_22	273.179	0.0018735	P_RES
J30_23	279.204	0.0008787	P_RES
J30_24	286.348	0.0022486	P_RES
J30_25	292.629	0.0088232	P_IND
J30_26	301.104	0.0008087	P_RES
J30_27	306.340	0.0009969	P_RES
J30_28	313.549	0.0034615	P_RES
J30_29	320.971	0.0005898	P_RES
J30_30	326.257	0.0005251	P_RES
J30_31	333.843	0.0030641	P_COM
J30_32	340.453	0.0010175	P_RES
J30_33	346.700	0.0013991	P_RES
J30_34	352.727	0.0009511	P_RES
J30_35	359.845	0.0028280	P_COM
J30_36	365.782	0.0007919	P_RES
J30_37	372.594	0.0029490	P_COM
J30_38	379.638	0.0025365	P_IND
J30_39	386.290	0.0033221	P_COM
J30_40	391.875	0.0008585	P_RES
J30_41	397.941	0.0010839	P_RES
J30_42	405.714	0.0025362	P_COM
J30_43	411.803	0.0014849	P_RES
J30_44	418.200	0.0014611	P_RES
J30_45	425.816	0.0021873	P_RES
J30_46	431.884	0.0009514	P_RES
J30_47	438.356	0.0007453	P_RES
J30_48	443.658	0.0032812	P_IND
J30_49	451.105	0.0019224	P_RES
J30_50	456.305	0.0005173	P_RES
J30_51	464.513	0.0016493	P_COM
J30_52	468.811	0.0012450	P_RES
J30_53	475.310	0.0017644	P_COM
J30_54	482.019	0.0018930	P_IND
J30_55	489.622	0.0023279	P_IND
J30_56	495.469	0.0029761	P_RES
J30_57	500.867	0.0016678	P_RES
J30_58	507.010	0.0014802	P_COM
J30_59	514.939	0.0019575	P_RES
J30_60	519.771	0.0030158	P_IND
J30_61	525.800	0.0015352	P_RES
J30_62	533.095	0.0016907	P_RES
J30_63	539.212	0.0026025	P_RES
J30_64	545.178	0.0008805	P_RES
J30_65	550.382	0.0015428	P_RES
J30_66	557.934	0.0020226	P_RES
J30_67	564.867	0.0026553	P_RES
J30_68	569.034	0.0010090	P_RES
J30_69	575.297	0.0017313	P_RES
J30_70	582.854	0.0010850	P_RES
J30_71	588.770	0.0011430	P_RES
J30_72	593.971	0.0028676	P_IND
J31_1	127.651	0.0013520	P_RES
J31_2	135.989	0.0013443	P_COM
J31_3	142.707	0.0012723	P_COM
J31_4	147.665	0.0019607	P_COM
J31_5	155.748	0.0012720	P_RES
J31_6	161.585	0.0013232	P_RES
J31_7	168.517	0.0015524	P_COM
J31_8	177.296	0.0006165	P_RES
J31_9	183.873	0.0024798	P_RES
J31_10	189.624	0.0010403	P_RES
J31_11	197.263	0.0015302	P_RES
J31_12	202.290	0.0013669	P_RES
J31_13	210.134	0.0029152	P_COM
J31_14	217.507	0.0026778	P_COM
J31_15	224.033	0.0017336	P_RES
J31_16	229.843	0.0020433	P_COM
J31_17	237.517	0.0013493	P_RES
J31_18	243.611	0.0017410	P_RES
J31_19	251.369	0.0010208	P_RES
J31_20	258.321	0.0015835	P_COM
J31_21	265.393	0.0010315	P_RES
J31_22	270.834	0.0016394	P_RES
J31_23	277.782	0.0008965	P_RES
J31_24	284.163	0.0012131	P_COM
J31_25	291.536	0.0008727	P_RES
J31_26	298.608	0.0009921	P_RES
J31_27	305.665	0.0019464	P_RES
J31_28	311.413	0.0014810	P_RES
J31_29	317.778	0.0019120	P_COM
J31_30	323.850	0.0035006	P_COM
J31_31	330.441	0.0039172	P_RES
J31_32	337.510	0.0010073	P_RES
J31_33	345.424	0.0006895	P_RES
J31_34	351.762	0.0011785	P_RES
J31_35	358.746	0.0017844	P_RES
J31_36	365.330	0.0048584	P_RES
J31_37	371.712	0.0008038	P_COM
J31_38	376.957	0.0010347	P_RES
J31_39	384.250	0.0015891	P_RES
J31_40	390.527	0.0021902	P_COM
J31_41	395.947	0.0024090	P_COM
J31_42	402.727	0.0022206	P_RES
J31_43	410.421	0.0019632	P_COM
J31_44	417.520	0.0011713	P_RES
J31_45	421.828	0.0037076	P_IND
J31_46	429.630	0.0014036	P_RES
J31_47	436.136	0.0012883	P_COM
J31_48	442.098	0.0021977	P_RES
J31_49	447.848	0.0026626	P_COM
J31_50	454.070	0.0015501	P_COM
J31_51	460.235	0.0028420	P_IND
J31_52	468.266	0.0037860	P_IND
J31_53	473.505	0.0015279	P_RES
J31_54	481.448	0.0012193	P_RES
J31_55	486.769	0.0012780	P_RES
J31_56	492.864	0.0014042	P_RES
J31_57	499.348	0.0015652	P_RES
J31_58	506.207	0.0008125	P_RES
J31_59	511.516	0.0057308	P_IND
J31_60	517.991	0.0011396	P_RES
J31_61	524.645	0.0039242	P_COM
J31_62	531.090	0.0010356	P_RES
J31_63	536.389	0.0014334	P_COM
J31_64	544.255	0.0008819	P_RES
J31_65	548.563	0.0021920	P_COM
J31_66	556.766	0.0016069	P_RES
J31_67	562.486	0.0008083	P_RES
J31_68	568.040	0.0007794	P_RES
J31_69	573.465	0.0014052	P_RES
J31_70	579.639	0.0025511	P_COM
J31_71	586.768	0.0009334	P_RES
J31_72	592.694	0.0014215	P_COM
J32_1	126.348	0.0007989	P_RES
J32_2	133.038	0.0013057	P_COM
J32_3	140.786	0.0007668	P_RES
J32_4	146.139	0.0018692	P_RES
J32_5	153.963	0.0019132	P_RES
J32_6	160.633	0.0013425	P_COM
J32_7	167.709	0.0021671	P_RES
J32_8	175.241	0.0010926	P_RES
J32_9	181.848	0.0032056	P_COM
J32_10	187.140	0.0034532	P_RES
J32_11	194.908	0.0009446	P_RES
J32_12	201.158	0.0015181	P_COM
J32_13	208.851	0.0013632	P_RES
J32_14	215.972	0.0027344	P_IND
J32_15	220.920	0.0020145	P_IND
J32_16	228.073	0.0018578	P_RES
J32_17	235.930	0.0043595	P_COM
J32_18	243.080	0.0023895	P_IND
J32_19	250.207	0.0020453	P_RES
J32_20	254.900	0.0007412	P_RES
J32_21	262.705	0.0007055	P_RES
J32_22	269.849	0.0037365	P_RES
J32_23	276.927	0.0020265	P_RES
J32_24	282.377	0.0008247	P_RES
J32_25	289.312	0.0012901	P_RES
J32_26	295.243	0.0020742	P_COM
J32_27	303.364	0.0037183	P_COM
J32_28	310.367	0.0026504	P_RES
J32_29	315.761	0.0005654	P_RES
J32_30	321.964	0.0011086	P_RES
J32_31	328.421	0.0007428	P_RES
J32_32	336.492	0.0005184	P_RES
J32_33	342.404	0.0011208	P_RES
J32_34	350.113	0.0009490	P_RES
J32_35	355.677	0.0015301	P_RES
J32_36	362.657	0.0012223	P_RES
J32_37	368.754	0.0032250	P_RES
J32_38	376.137	0.0021556	P_RES
J32_39	382.513	0.0009034	P_RES
J32_40	389.765	0.0006772	P_RES
J32_41	395.468	0.0014251	P_RES
J32_42	402.326	0.0029459	P_COM
J32_43	407.810	0.0013973	P_RES
J32_44	414.853	0.0034296	P_COM
J32_45	421.340	0.0021048	P_RES
J32_46	428.264	0.0014109	P_RES
J32_47	433.554	0.0014164	P_RES
J32_48	439.838	0.0012606	P_RES
J32_49	446.274	0.0002830	P_RES
J32_50	452.428	0.0006980	P_RES
J32_51	460.114	0.0008950	P_RES
J32_52	464.777	0.0045397	P_IND
J32_53	471.846	0.0010765	P_COM
J32_54	478.064	0.0012369	P_RES
J32_55	483.799	0.0010928	P_RES
J32_56	490.395	0.0028147	P_RES
J32_57	497.386	0.0034798	P_RES
J32_58	503.814	0.0013226	P_RES
J32_59	510.713	0.0005711	P_RES
J32_60	516.693	0.0026864	P_COM
J32_61	523.464	0.0011891	P_RES
J32_62	528.605	0.0037667	P_COM
J32_63	535.353	0.0011529	P_RES
J32_64	542.060	0.0018670	P_RES
J32_65	546.727	0.0012589	P_COM
J32_66	554.442	0.0015065	P_RES
J32_67	559.824	0.0017537	P_RES
J32_68	567.270	0.0026563	P_RES
J32_69	572.453	0.0010093	P_RES
J32_70	578.613	0.0015138	P_RES
J32_71	584.153	0.0009802	P_RES
J32_72	590.330	0.0012994	P_COM
J33_1	123.194	0.0015889	P_COM
J33_2	130.776	0.0033458	P_IND
J33_3	137.074	0.0014109	P_COM
J33_4	145.685	0.0023949	P_RES
J33_5	150.834	0.0021297	P_COM
J33_6	158.281	0.0018059	P_COM
J33_7	164.162	0.0027485	P_RES
J33_8	172.630	0.0019878	P_COM
J33_9	179.463	0.0006897	P_RES
J33_10	184.779	0.0011466	P_RES
J33_11	193.290	0.0024313	P_IND
J33_12	200.291	0.0028737	P_COM
J33_13	205.668	0.0017219	P_COM
J33_14	212.132	0.0018204	P_RES
J33_15	221.107	0.0010561	P_RES
J33_16	226.996	0.0017268	P_RES
J33_17	233.911	0.0023758	P_IND
J33_18	241.018	0.0019243	P_COM
J33_19	247.448	0.0019157	P_COM
J33_20	254.342	0.0014350	P_RES
J33_21	261.341	0.0018588	P_RES
J33_22	268.396	0.0017343	P_RES
J33_23	272.994	0.0015455	P_RES
J33_24	280.577	0.0022366	P_RES
J33_25	287.873	0.0005385	P_RES
J33_26	295.118	0.0040741	P_RES
J33_27	300.241	0.0027823	P_IND
J33_28	306.572	0.0016770	P_RES
J33_29	315.259	0.0011514	P_RES
J33_30	319.820	0.0029117	P_COM
J33_31	327.667	0.0011789	P_RES
J33_32	334.476	0.0027225	P_RES
J33_33	341.074	0.0012465	P_RES
J33_34	348.467	0.0024339	P_RES
J33_35	352.737	0.0009628	P_RES
J33_36	359.712	0.0030886	P_RES
J33_37	367.919	0.0016148	P_RES
J33_38	373.095	0.0012291	P_COM
J33_39	381.003	0.0007398	P_RES
J33_40	386.326	0.0032689	P_IND
J33_41	393.278	0.0008452	P_RES
J33_42	399.577	0.0006309	P_RES
J33_43	407.019	0.0030325	P_COM
J33_44	411.924	0.0026300	P_RES
J33_45	417.873	0.0016986	P_COM
J33_46	424.911	0.0010795	P_RES
J33_47	432.372	0.0011916	P_RES
J33_48	437.409	0.0019218	P_COM
J33_49	445.509	0.0007896	P_RES
J33_50	450.554	0.0021426	P_RES
J33_51	457.783	0.0005515	P_RES
J33_52	464.574	0.0025893	P_COM
J33_53	471.162	0.0015117	P_RES
J33_54	475.460	0.0006433	P_RES
J33_55	481.919	0.0020091	P_RES
J33_56	488.966	0.0019058	P_RES
J33_57	496.248	0.0015341	P_RES
J33_58	501.522	0.0029187	P_RES
J33_59	508.021	0.0005690	P_RES
J33_60	514.767	0.0011903	P_RES
J33_61	521.374	0.0012398	P_RES
J33_62	527.726	0.0015138	P_COM
J33_63	532.180	0.0003490	P_RES
J33_64	539.620	0.0047181	P_COM
J33_65	546.282	0.0020450	P_IND
J33_66	552.257	0.0014553	P_RES
J33_67	557.809	0.0012526	P_RES
J33_68	563.224	0.0014981	P_RES
J33_69	569.779	0.0018428	P_RES
J33_70	575.785	0.0025499	P_IND
J33_71	583.226	0.0020546	P_IND
J33_72	588.356	0.0009117	P_RES
J34_1	122.477	0.0017798	P_IND
J34_2	128.445	0.0014998	P_RES
J34_3	136.639	0.0005279	P_RES
J34_4	142.704	0.0025924	P_COM
J34_5	150.630	0.0010717	P_RES
J34_6	157.138	0.0036005	P_COM
J34_7	162.563	0.0013329	P_RES
J34_8	169.964	0.0007833	P_COM
J34_9	176.575	0.0042296	P_IND
J34_10	183.081	0.0020939	P_RES
J34_11	190.155	0.0025367	P_COM
J34_12	198.160	0.0038644	P_COM
J34_13	205.208	0.0007473	P_RES
J34_14	211.962	0.0011424	P_RES
J34_15	217.196	0.0039803	P_IND
J34_16	225.214	0.0009339	P_RES
J34_17	230.456	0.0013893	P_RES
J34_18	239.067	0.0029201	P_RES
J34_19	244.873	0.0063132	P_IND
J34_20	252.987	0.0016975	P_COM
J34_21	257.624	0.0024943	P_IND
J34_22	266.506	0.0007603	P_RES
J34_23	272.916	0.0024121	P_COM
J34_24	277.583	0.0017846	P_COM
J34_25	286.648	0.0020639	P_RES
J34_26	292.793	0.0015058	P_RES
J34_27	298.130	0.0027626	P_RES
J34_28	306.405	0.0029663	P_COM
J34_29	311.831	0.0019703	P_COM
J34_30	318.473	0.0026399	P_COM
J34_31	325.021	0.0015579	P_RES
J34_32	333.058	0.0037786	P_COM
J34_33	338.464	0.0010629	P_RES
J34_34	345.216	0.0016345	P_RES
J34_35	351.723	0.0035271	P_RES
J34_36	358.631	0.0015320	P_RES
J34_37	365.708	0.0011971	P_RES
J34_38	372.744	0.0007152	P_RES
J34_39	378.761	0.0009614	P_RES
J34_40	383.603	0.0018307	P_COM
J34_41	390.230	0.0011721	P_RES
J34_42	396.760	0.0007535	P_RES
J34_43	403.080	0.0050698	P_RES
J34_44	409.390	0.0022332	P_COM
J34_45	417.213	0.0008831	P_RES
J34_46	423.594	0.0018080	P_RES
J34_47	430.717	0.0008681	P_RES
J34_48	435.760	0.0025050	P_COM
J34_49	443.517	0.0013829	P_RES
J34_50	448.752	0.0017631	P_RES
J34_51	454.392	0.0005901	P_RES
J34_52	462.630	0.0012969	P_RES
J34_53	468.614	0.0008294	P_RES
J34_54	475.444	0.0008784	P_RES
J34_55	481.361	0.0011352	P_RES
J34_56	486.145	0.0023523	P_COM
J34_57	493.544	0.0009021	P_RES
J34_58	500.560	0.0013934	P_RES
J34_59	505.974	0.0010483	P_RES
J34_60	513.207	0.0010377	P_RES
J34_61	518.000	0.0011184	P_RES
J34_62	525.512	0.0009198	P_RES
J34_63	530.544	0.0009228	P_RES
J34_64	538.382	0.0012033	P_RES
J34_65	543.617	0.0006995	P_RES
J34_66	549.048	0.0027272	P_RES
J34_67	556.735	0.0019402	P_RES
J34_68	561.448	0.0027841	P_IND
J34_69	568.520	0.0055610	P_RES
J34_70	575.301	0.0007637	P_RES
J34_71	581.857	0.0010356	P_RES
J34_72	587.971	0.0061761	P_IND
J35_1	120.668	0.0007340	P_RES
J35_2	126.617	0.0023046	P_IND
J35_3	134.581	0.0032282	P_RES
J35_4	141.876	0.0015511	P_RES
J35_5	146.839	0.0013312	P_RES
J35_6	153.818	0.0016165	P_RES
J35_7	161.281	0.0009129	P_RES
J35_8	166.972	0.0007128	P_RES
J35_9	173.809	0.0023432	P_COM
J35_10	181.119	0.0006969	P_COM
J35_11	189.105	0.0019634	P_COM
J35_12	196.608	0.0012154	P_RES
J35_13	201.466	0.0007876	P_RES
J35_14	210.164	0.0015764	P_RES
J35_15	216.906	0.0009031	P_RES
J35_16	222.632	0.0020864	P_IND
J35_17	230.613	0.0019581	P_IND
J35_18	235.841	0.0009300	P_RES
J35_19	242.231	0.0021734	P_IND
J35_20	249.257	0.0008965	P_RES
J35_21	255.811	0.0014538	P_RES
J35_22	263.188	0.0009601	P_RES
J35_23	270.999	0.0039834	P_IND
J35_24	276.388	0.0009424	P_RES
J35_25	282.445	0.0006834	P_RES
J35_26	289.128	0.0017059	P_RES
J35_27	297.789	0.0016631	P_RES
J35_28	304.763	0.0004522	P_RES
J35_29	309.956	0.0019788	P_RES
J35_30	317.077	0.0034362	P_COM
J35_31	324.126	0.0032363	P_RES
J35_32	330.253	0.0010325	P_RES
J35_33	337.784	0.0008477	P_RES
J35_34	343.108	0.0013108	P_RES
J35_35	350.006	0.0017676	P_COM
J35_36	355.645	0.0016132	P_COM
J35_37	362.842	0.0031438	P_IND
J35_38	368.591	0.0013638	P_RES
J35_39	375.296	0.0015614	P_COM
J35_40	383.310	0.0011013	P_COM
J35_41	390.037	0.0009285	P_RES
J35_42	394.845	0.0017600	P_IND
J35_43	402.248	0.0010154	P_RES
J35_44	409.429	0.0011440	P_RES
J35_45	416.150	0.0025134	P_IND
J35_46	422.436	0.0011112	P_RES
J35_47	428.144	0.0012977	P_RES
J35_48	433.193	0.0027889	P_RES
J35_49	440.048	0.0031930	P_RES
J35_50	447.514	0.0027385	P_RES
J35_51	453.506	0.0015267	P_RES
J35_52	460.423	0.0047684	P_IND
J35_53	466.354	0.0020445	P_COM
J35_54	472.653	0.0025534	P_RES
J35_55	479.485	0.0022263	P_IND
J35_56	484.845	0.0020160	P_RES
J35_57	491.551	0.0017212	P_COM
J35_58	496.841	0.0023832	P_IND
J35_59	505.114	0.0009622	P_RES
J35_60	509.563	0.0010895	P_RES
J35_61	517.493	0.0020657	P_COM
J35_62	522.165	0.0015850	P_RES
J35_63	528.943	0.0021678	P_RES
J35_64	536.476	0.0014613	P_RES
J35_65	542.420	0.0019438	P_RES
J35_66	547.533	0.0006533	P_RES
J35_67	554.443	0.0012882	P_RES
J35_68	560.507	0.0012906	P_RES
J35_69	566.399	0.0028063	P_IND
J35_70	573.344	0.0029517	P_IND
J35_71	578.143	0.0003970	P_RES
J35_72	584.640	0.0010910	P_RES
J36_1	118.479	0.0013701	P_RES
J36_2	125.471	0.0013817	P_RES
J36_3	132.045	0.0015510	P_COM
J36_4	137.768	0.0015654	P_RES
J36_5	145.564	0.0017773	P_COM
J36_6	152.642	0.0020821	P_COM
J36_7	158.721	0.0028243	P_COM
J36_8	165.441	0.0026468	P_RES
J36_9	172.133	0.0021247	P_COM
J36_10	181.037	0.0009094	P_RES
J36_11	187.476	0.0018892	P_IND
J36_12	193.720	0.0022565	P_IND
J36_13	199.535	0.0047420	P_IND
J36_14	207.663	0.0023106	P_COM
J36_15	214.282	0.0042231	P_IND
J36_16	219.804	0.0013683	P_RES
J36_17	227.875	0.0028962	P_COM
J36_18	234.111	0.0033536	P_COM
J36_19	240.578	0.0014071	P_RES
J36_20	247.825	0.0012777	P_COM
J36_21	254.013	0.0038891	P_IND
J36_22	262.335	0.0026862	P_RES
J36_23	268.159	0.0011538	P_RES
J36_24	273.664	0.0007713	P_RES
J36_25	282.679	0.0016978	P_RES
J36_26	288.377	0.0017682	P_COM
J36_27	295.326	0.0011002	P_RES
J36_28	300.650	0.0018387	P_COM
J36_29	307.087	0.0009840	P_RES
J36_30	315.358	0.0018639	P_RES
J36_31	320.412	0.0008260	P_RES
J36_32	329.026	0.0038315	P_IND
J36_33	333.845	0.0041928	P_IND
J36_34	341.376	0.0011088	P_RES
J36_35	348.174	0.0019498	P_COM
J36_36	355.368	0.0013620	P_RES
J36_37	362.209	0.0012471	P_RES
J36_38	368.514	0.0009968	P_RES
J36_39	373.795	0.0004857	P_RES
J36_40	380.016	0.0031469	P_IND
J36_41	386.726	0.0032093	P_COM
J36_42	394.394	0.0011524	P_RES
J36_43	401.306	0.0015261	P_RES
J36_44	406.779	0.0016130	P_COM
J36_45	412.085	0.0054756	P_IND
J36_46	419.623	0.0025662	P_RES
J36_47	426.975	0.0013129	P_RES
J36_48	432.090	0.0024377	P_RES
J36_49	438.284	0.0013864	P_RES
J36_50	445.362	0.0012505	P_RES
J36_51	451.318	0.0008388	P_RES
J36_52	458.649	0.0007351	P_RES
J36_53	465.089	0.0020247	P_COM
J36_54	471.593	0.0007414	P_RES
J36_55	476.549	0.0014126	P_RES
J36_56	483.585	0.0013274	P_RES
J36_57	488.917	0.0010407	P_RES
J36_58	495.215	0.0007802	P_RES
J36_59	501.125	0.0039551	P_IND
J36_60	508.467	0.0014954	P_RES
J36_61	514.846	0.0008552	P_RES
J36_62	521.331	0.0016257	P_RES
J36_63	527.256	0.0018850	P_COM
J36_64	533.334	0.0030787	P_COM
J36_65	539.828	0.0020440	P_COM
J36_66	545.630	0.0031899	P_COM
J36_67	553.217	0.0021688	P_RES
J36_68	557.465	0.0010472	P_RES
J36_69	563.345	0.0031645	P_IND
J36_70	570.888	0.0045537	P_COM
J36_71	577.918	0.0016503	P_RES
J36_72	583.596	0.0030294	P_COM
J37_1	116.902	0.0009392	P_RES
J37_2	123.978	0.0010321	P_RES
J37_3	130.724	0.0011258	P_RES
J37_4	136.086	0.0016666	P_RES
J37_5	143.824	0.0009674	P_RES
J37_6	150.560	0.0014074	P_COM
J37_7	156.794	0.0013848	P_COM
J37_8	165.364	0.0010805	P_RES
J37_9	170.723	0.0014872	P_RES
J37_10	178.189	0.0013986	P_IND
J37_11	184.196	0.0012721	P_RES
J37_12	191.608	0.0008068	P_RES
J37_13	198.300	0.0016835	P_RES
J37_14	205.351	0.0022331	P_RES
J37_15	212.558	0.0073628	P_IND
J37_16	217.824	0.0026120	P_RES
J37_17	225.347	0.0032028	P_COM
J37_18	232.288	0.0010942	P_RES
J37_19	239.974	0.0011990	P_RES
J37_20	245.714	0.0012202	P_RES
J37_21	253.668	0.0007052	P_RES
J37_22	259.364	0.0017081	P_RES
J37_23	266.174	0.0037781	P_COM
J37_24	272.726	0.0012902	P_RES
J37_25	278.772	0.0032616	P_RES
J37_26	285.738	0.0007849	P_RES
J37_27	291.973	0.0007055	P_RES
J37_28	299.399	0.0006552	P_RES
J37_29	306.730	0.0008533	P_RES
J37_30	312.236	0.0014938	P_RES
J37_31	320.305	0.0020288	P_RES
J37_32	326.086	0.0007021	P_RES
J37_33	332.163	0.0008128	P_RES
J37_34	338.209	0.0030934	P_RES
J37_35	346.393	0.0005678	P_RES
J37_36	351.907	0.0022186	P_RES
J37_37	359.839	0.0025258	P_IND
J37_38	365.600	0.0011266	P_RES
J37_39	371.267	0.0010150	P_RES
J37_40	378.558	0.0016002	P_RES
J37_41	385.540	0.0014449	P_COM
J37_42	392.588	0.0007973	P_RES
J37_43	397.906	0.0011297	P_RES
J37_44	405.471	0.0013616	P_COM
J37_45	410.112	0.0022564	P_COM
J37_46	417.959	0.0009825	P_RES
J37_47	422.778	0.0014610	P_RES
J37_48	429.948	0.0035936	P_IND
J37_49	435.712	0.0079712	P_COM
J37_50	442.016	0.0005792	P_RES
J37_51	448.818	0.0010408	P_RES
J37_52	456.379	0.0005410	P_RES
J37_53	463.127	0.0027627	P_RES
J37_54	468.447	0.0015146	P_COM
J37_55	474.314	0.0022060	P_RES
J37_56	481.827	0.0008994	P_RES
J37_57	487.573	0.0014019	P_RES
J37_58	494.208	0.0016277	P_RES
J37_59	500.251	0.0011677	P_RES
J37_60	505.215	0.0019974	P_COM
J37_61	512.642	0.0031654	P_RES
J37_62	518.653	0.0023193	P_RES
J37_63	524.625	0.0006522	P_RES
J37_64	531.137	0.0011573	P_RES
J37_65	537.250	0.0016319	P_COM
J37_66	543.645	0.0018140	P_RES
J37_67	550.256	0.0034379	P_IND
J37_68	555.922	0.0013201	P_RES
J37_69	562.018	0.0014668	P_RES
J37_70	569.524	0.0011610	P_RES
J37_71	575.179	0.0019080	P_RES
J37_72	580.304	0.0016304	P_COM
J38_1	113.050	0.0027762	P_RES
J38_2	120.046	0.0013581	P_RES
J38_3	128.826	0.0041387	P_IND
J38_4	135.311	0.0005861	P_RES
J38_5	141.345	0.0003418	P_RES
J38_6	148.820	0.0024141	P_IND
J38_7	155.911	0.0029753	P_IND
J38_8	162.315	0.0025083	P_IND
J38_9	168.117	0.0006268	P_RES
J38_10	175.185	0.0028751	P_IND
J38_11	182.838	0.0039400	P_COM
J38_12	189.897	0.0011178	P_RES
J38_13	195.605	0.0013270	P_RES
J38_14	202.873	0.0008319	P_RES
J38_15	209.525	0.0026148	P_COM
J38_16	216.512	0.0021634	P_RES
J38_17	223.635	0.0040828	P_IND
J38_18	230.231	0.0011475	P_RES
J38_19	238.125	0.0025011	P_COM
J38_20	244.775	0.0016739	P_RES
J38_21	250.370	0.0008820	P_RES
J38_22	257.855	0.0031818	P_RES
J38_23	263.847	0.0028354	P_RES
J38_24	270.419	0.0037570	P_COM
J38_25	278.501	0.0006005	P_RES
J38_26	285.120	0.0022270	P_COM
J38_27	291.762	0.0023469	P_RES
J38_28	297.747	0.0022285	P_RES
J38_29	304.393	0.0035606	P_IND
J38_30	310.055	0.0038894	P_RES
J38_31	316.692	0.0034635	P_RES
J38_32	325.046	0.0036227	P_COM
J38_33	331.876	0.0023046	P_RES
J38_34	336.694	0.0016016	P_COM
J38_35	342.821	0.0011537	P_RES
J38_36	351.113	0.0046130	P_IND
J38_37	356.952	0.0005080	P_RES
J38_38	364.464	0.0014612	P_COM
J38_39	371.323	0.0011623	P_COM
J38_40	376.818	0.0016654	P_COM
J38_41	384.155	0.0016327	P_RES
J38_42	388.786	0.0010622	P_RES
J38_43	396.343	0.0007293	P_RES
J38_44	401.794	0.0008487	P_RES
J38_45	408.638	0.0036904	P_COM
J38_46	414.514	0.0019938	P_COM
J38_47	422.097	0.0011142	P_RES
J38_48	427.805	0.0014451	P_COM
J38_49	435.100	0.0020971	P_COM
J38_50	440.595	0.0020710	P_COM
J38_51	447.533	0.0015362	P_RES
J38_52	454.343	0.0031969	P_COM
J38_53	459.212	0.0023338	P_RES
J38_54	465.384	0.0007978	P_RES
J38_55	473.264	0.0019547	P_RES
J38_56	480.019	0.0010105	P_RES
J38_57	485.660	0.0016359	P_RES
J38_58	491.473	0.0031948	P_IND
J38_59	497.461	0.0019650	P_COM
J38_60	504.744	0.0006659	P_RES
J38_61	511.091	0.0009151	P_RES
J38_62	517.854	0.0014072	P_RES
J38_63	522.524	0.0017734	P_RES
J38_64	528.852	0.0013544	P_RES
J38_65	535.838	0.0018139	P_RES
J38_66	542.708	0.0018468	P_RES
J38_67	547.975	0.0021245	P_RES
J38_68	554.945	0.0012475	P_RES
J38_69	560.802	0.0015075	P_RES
J38_70	566.873	0.0016504	P_COM
J38_71	573.148	0.0026637	P_COM
J38_72	578.455	0.0005690	P_RES
J39_1	111.580	0.0010944	P_RES
J39_2	118.674	0.0007587	P_RES
J39_3	125.605	0.0010258	P_RES
J39_4	133.295	0.0015512	P_COM
J39_5	138.943	0.0051800	P_COM
J39_6	147.037	0.0019785	P_COM
J39_7	154.104	0.0050450	P_IND
J39_8	160.576	0.0037913	P_COM
J39_9	168.001	0.0022701	P_RES
J39_10	175.092	0.0022665	P_COM
J39_11	181.610	0.0023531	P_COM
J39_12	187.011	0.0019954	P_RES
J39_13	193.707	0.0014664	P_COM
J39_14	202.005	0.0022931	P_IND
J39_15	206.943	0.0013902	P_COM
J39_16	215.981	0.0021690	P_COM
J39_17	220.895	0.0012004	P_RES
J39_18	228.872	0.0019226	P_RES
J39_19	234.694	0.0010679	P_RES
J39_20	241.943	0.0013751	P_RES
J39_21	248.565	0.0041449	P_COM
J39_22	254.293	0.0018260	P_RES
J39_23	261.203	0.0020486	P_RES
J39_24	269.836	0.0019632	P_RES
J39_25	276.706	0.0023390	P_RES
J39_26	281.632	0.0014497	P_RES
J39_27	290.039	0.0021973	P_RES
J39_28	296.309	0.0004751	P_RES
J39_29	302.998	0.0009646	P_RES
J39_30	308.018	0.0034554	P_COM
J39_31	315.003	0.0016296	P_RES
J39_32	323.227	0.0019287	P_RES
J39_33	328.604	0.0023554	P_IND
J39_34	336.368	0.0011479	P_RES
J39_35	342.033	0.0014860	P_COM
J39_36	348.151	0.0009463	P_RES
J39_37	354.340	0.0012275	P_RES
J39_38	362.882	0.0008958	P_RES
J39_39	368.456	0.0011013	P_RES
J39_40	374.021	0.0026448	P_RES
J39_41	380.458	0.0014942	P_COM
J39_42	388.549	0.0020876	P_COM
J39_43	393.691	0.0021550	P_COM
J39_44	401.704	0.0014788	P_RES
J39_45	406.482	0.0025212	P_RES
J39_46	412.645	0.0031098	P_RES
J39_47	420.442	0.0017630	P_RES
J39_48	426.707	0.0012628	P_RES
J39_49	432.534	0.0045156	P_COM
J39_50	440.295	0.0008199	P_RES
J39_51	444.906	0.0019159	P_COM
J39_52	452.926	0.0010412	P_IND
J39_53	458.150	0.0018465	P_COM
J39_54	464.107	0.0030186	P_COM
J39_55	470.557	0.0022844	P_RES
J39_56	477.683	0.0012631	P_RES
J39_57	482.413	0.0008455	P_RES
J39_58	490.115	0.0031343	P_COM
J39_59	496.390	0.0036326	P_IND
J39_60	501.843	0.0010046	P_RES
J39_61	509.420	0.0020071	P_RES
J39_62	515.297	0.0016242	P_COM
J39_63	522.258	0.0007666	P_RES
J39_64	527.552	0.0017792	P_IND
J39_65	533.300	0.0021945	P_RES
J39_66	540.991	0.0048005	P_COM
J39_67	545.175	0.0010329	P_RES
J39_68	553.249	0.0013283	P_RES
J39_69	559.285	0.0013013	P_RES
J39_70	564.167	0.0027066	P_RES
J39_71	571.116	0.0019294	P_RES
J39_72	576.601	0.0012685	P_RES
J40_1	111.379	0.0030753	P_IND
J40_2	116.244	0.0020390	P_RES
J40_3	123.845	0.0013254	P_RES
J40_4	130.042	0.0015293	P_RES
J40_5	137.143	0.0021555	P_RES
J40_6	144.850	0.0034701	P_RES
J40_7	151.716	0.0025321	P_COM
J40_8	159.238	0.0015544	P_RES
J40_9	165.542	0.0033246	P_RES
J40_10	171.844	0.0020286	P_IND
J40_11	178.343	0.0018975	P_RES
J40_12	185.709	0.0050164	P_COM
J40_13	191.972	0.0005464	P_RES
J40_14	199.953	0.0017769	P_RES
J40_15	206.217	0.0019557	P_RES
J40_16	212.922	0.0015113	P_RES
J40_17	218.780	0.0010463	P_RES
J40_18	226.423	0.0022830	P_COM
J40_19	232.112	0.0061636	P_RES
J40_20	240.507	0.0016717	P_IND
J40_21	246.410	0.0030600	P_COM
J40_22	252.598	0.0029357	P_RES
J40_23	259.775	0.0038080	P_COM
J40_24	267.875	0.0019374	P_RES
J40_25	274.034	0.0011777	P_COM
J40_26	279.487	0.0029015	P_IND
J40_27	287.245	0.0009093	P_RES
J40_28	293.033	0.0018389	P_RES
J40_29	299.726	0.0025288	P_COM
J40_30	306.579	0.0030862	P_IND
J40_31	314.180	0.0026353	P_IND
J40_32	320.505	0.0031460	P_RES
J40_33	326.495	0.0041362	P_IND
J40_34	334.519	0.0011077	P_RES
J40_35	339.262	0.0021736	P_COM
J40_36	347.667	0.0017548	P_COM
J40_37	352.679	0.0018804	P_COM
J40_38	358.515	0.0009757	P_RES
J40_39	367.289	0.0006030	P_RES
J40_40	373.028	0.0011757	P_RES
J40_41	378.423	0.0004455	P_RES
J40_42	385.864	0.0012403	P_RES
J40_43	391.126	0.0012610	P_RES
J40_44	399.793	0.0028160	P_RES
J40_45	405.864	0.0017498	P_RES
J40_46	411.367	0.0023006	P_COM
J40_47	417.462	0.0010161	P_RES
J40_48	424.141	0.0013819	P_RES
J40_49	431.795	0.0004323	P_RES
J40_50	437.809	0.0006462	P_RES
J40_51	444.731	0.0019559	P_RES
J40_52	449.559	0.0016564	P_COM
J40_53	456.713	0.0019815	P_RES
J40_54	462.369	0.0011950	P_RES
J40_55	467.773	0.0008532	P_COM
J40_56	474.764	0.0040554	P_IND
J40_57	480.671	0.0010081	P_RES
J40_58	487.247	0.0010031	P_RES
J40_59	494.044	0.0019377	P_COM
J40_60	499.842	0.0011776	P_RES
J40_61	506.132	0.0029022	P_COM
J40_62	513.566	0.0007708	P_RES
J40_63	518.338	0.0010926	P_RES
J40_64	525.919	0.0020440	P_RES
J40_65	531.472	0.0023451	P_RES
J40_66	537.825	0.0016209	P_RES
J40_67	544.364	0.0016740	P_RES
J40_68	550.030	0.0017332	P_RES
J40_69	557.345	0.0011274	P_RES
J40_70	562.206	0.0021994	P_RES
J40_71	568.608	0.0007053	P_RES
J40_72	575.587	0.0009298	P_RES
J41_1	109.264	0.0017083	P_COM
J41_2	116.336	0.0012351	P_RES
J41_3	120.854	0.0021462	P_IND
J41_4	129.128	0.0015603	P_RES
J41_5	135.574	0.0007807	P_RES
J41_6	142.299	0.0009433	P_RES
J41_7	148.815	0.0020755	P_RES
J41_8	155.781	0.0005285	P_RES
J41_9	162.026	0.0010243	P_RES
J41_10	169.846	0.0010524	P_RES
J41_11	177.880	0.0019304	P_RES
J41_12	183.545	0.0037302	P_IND
J41_13	191.560	0.0030319	P_IND
J41_14	198.423	0.0031706	P_RES
J41_15	205.244	0.0015035	P_RES
J41_16	211.836	0.0010712	P_RES
J41_17	218.703	0.0016115	P_RES
J41_18	224.724	0.0029195	P_IND
J41_19	230.484	0.0008071	P_RES
J41_20	238.402	0.0019098	P_RES
J41_21	245.769	0.0014569	P_RES
J41_22	250.368	0.0030017	P_RES
J41_23	257.037	0.0012717	P_RES
J41_24	263.973	0.0004212	P_RES
J41_25	271.394	0.0022827	P_RES
J41_26	277.611	0.0023937	P_IND
J41_27	285.099	0.0023731	P_IND
J41_28	290.891	0.0013109	P_COM
J41_29	297.834	0.0022335	P_COM
J41_30	304.397	0.0017969	P_RES
J41_31	312.637	0.0020599	P_IND
J41_32	317.634	0.0006720	P_RES
J41_33	324.298	0.0008844	P_RES
J41_34	332.653	0.0066019	P_IND
J41_35	339.232	0.0011979	P_RES
J41_36	345.638	0.0009623	P_RES
J41_37	351.285	0.0016189	P_RES
J41_38	356.593	0.0017849	P_COM
J41_39	365.004	0.0024081	P_COM
J41_40	371.232	0.0015819	P_RES
J41_41	377.672	0.0009439	P_RES
J41_42	384.628	0.0017042	P_RES
J41_43	389.128	0.0019199	P_RES
J41_44	395.579	0.0012032	P_RES
J41_45	404.176	0.0012004	P_RES
J41_46	409.647	0.0012350	P_RES
J41_47	415.870	0.0013509	P_RES
J41_48	422.061	0.0007395	P_RES
J41_49	428.593	0.0076579	P_IND
J41_50	434.762	0.0016486	P_COM
J41_51	440.670	0.0008064	P_RES
J41_52	448.611	0.0016285	P_RES
J41_53	454.668	0.0028842	P_COM
J41_54	461.565	0.0053795	P_COM
J41_55	466.893	0.0018916	P_RES
J41_56	472.206	0.0015178	P_COM
J41_57	479.869	0.0025223	P_IND
J41_58	486.654	0.0030141	P_COM
J41_59	493.333	0.0011895	P_RES
J41_60	497.728	0.0010676	P_RES
J41_61	504.506	0.0019394	P_COM
J41_62	511.272	0.0007681	P_RES
J41_63	516.719	0.0016602	P_RES
J41_64	522.788	0.0014595	P_RES
J41_65	529.586	0.0008673	P_RES
J41_66	535.878	0.0015048	P_RES
J41_67	542.393	0.0020319	P_RES
J41_68	549.463	0.0005736	P_RES
J41_69	555.547	0.0005195	P_RES
J41_70	560.206	0.0022357	P_COM
J41_71	567.164	0.0017667	P_RES
J41_72	572.899	0.0009309	P_RES
J42_1	106.574	0.0022549	P_RES
J42_2	113.403	0.0018875	P_RES
J42_3	120.719	0.0010936	P_RES
J42_4	127.680	0.0026598	P_COM
J42_5	133.310	0.0019465	P_COM
J42_6	140.830	0.0005572	P_RES
J42_7	148.492	0.0009268	P_RES
J42_8	155.506	0.0021784	P_RES
J42_9	161.632	0.0011266	P_RES
J42_10	167.504	0.0010348	P_RES
J42_11	175.356	0.0019119	P_RES
J42_12	182.411	0.0011272	P_RES
J42_13	188.681	0.0024994	P_IND
J42_14	194.220	0.0018548	P_RES
J42_15	202.784	0.0018325	P_RES
J42_16	208.796	0.0011639	P_RES
J42_17	215.379	0.0022562	P_COM
J42_18	223.103	0.0013821	P_RES
J42_19	228.466	0.0023107	P_COM
J42_20	236.616	0.0006641	P_RES
J42_21	242.353	0.0011242	P_RES
J42_22	249.826	0.0011866	P_RES
J42_23	257.193	0.0013354	P_COM
J42_24	263.684	0.0010207	P_RES
J42_25	270.278	0.0026059	P_COM
J42_26	276.827	0.0022496	P_COM
J42_27	282.035	0.0019514	P_RES
J42_28	289.953	0.0019123	P_COM
J42_29	295.724	0.0021326	P_RES
J42_30	302.954	0.0024528	P_RES
J42_31	309.874	0.0034015	P_COM
J42_32	317.390	0.0008218	P_COM
J42_33	323.158	0.0015415	P_RES
J42_34	329.028	0.0011320	P_RES
J42_35	335.919	0.0015926	P_RES
J42_36	341.563	0.0014654	P_RES
J42_37	348.223	0.0023592	P_COM
J42_38	355.416	0.0026872	P_COM
J42_39	362.754	0.0009099	P_RES
J42_40	368.781	0.0008516	P_RES
J42_41	374.617	0.0029287	P_COM
J42_42	382.015	0.0034405	P_IND
J42_43	387.859	0.0021233	P_RES
J42_44	395.159	0.0011648	P_RES
J42_45	402.212	0.0017894	P_RES
J42_46	408.583	0.0014689	P_COM
J42_47	413.361	0.0005827	P_RES
J42_48	421.583	0.0015837	P_IND
J42_49	426.007	0.0010723	P_RES
J42_50	432.660	0.0055118	P_IND
J42_51	440.758	0.0018123	P_RES
J42_52	444.966	0.0023071	P_RES
J42_53	451.624	0.0015591	P_RES
J42_54	458.985	0.0008883	P_RES
J42_55	463.804	0.0027429	P_IND
J42_56	471.127	0.0005268	P_RES
J42_57	478.747	0.0013291	P_RES
J42_58	484.733	0.0021682	P_IND
J42_59	490.091	0.0027614	P_IND
J42_60	497.042	0.0012044	P_RES
J42_61	502.573	0.0010566	P_RES
J42_62	509.493	0.0008765	P_RES
J42_63	514.164	0.0011491	P_RES
J42_64	522.589	0.0053543	P_COM
J42_65	528.197	0.0008614	P_RES
J42_66	534.202	0.0020350	P_RES
J42_67	539.292	0.0012571	P_COM
J42_68	546.387	0.0013534	P_RES
J42_69	551.583	0.0012137	P_RES
J42_70	558.793	0.0017761	P_COM
J42_71	564.819	0.0011420	P_RES
J42_72	571.043	0.0042287	P_RES
J43_1	104.630	0.0008974	P_RES
J43_2	111.880	0.0012846	P_RES
J43_3	117.767	0.0026312	P_RES
J43_4	124.118	0.0007038	P_RES
J43_5	131.763	0.0022670	P_RES
J43_6	138.086	0.0041497	P_IND
J43_7	146.366	0.0031709	P_IND
J43_8	152.516	0.0033304	P_COM
J43_9	160.182	0.0021904	P_RES
J43_10	166.460	0.0012370	P_RES
J43_11	173.096	0.0016187	P_RES
J43_12	178.954	0.0026959	P_COM
J43_13	187.388	0.0019128	P_RES
J43_14	192.194	0.0012644	P_RES
J43_15	200.707	0.0012191	P_RES
J43_16	207.327	0.0010556	P_RES
J43_17	213.168	0.0032081	P_IND
J43_18	219.927	0.0009314	P_RES
J43_19	227.514	0.0008113	P_RES
J43_20	233.547	0.0006767	P_RES
J43_21	240.786	0.0015231	P_RES
J43_22	248.560	0.0031163	P_IND
J43_23	254.750	0.0013251	P_RES
J43_24	260.605	0.0007345	P_RES
J43_25	266.650	0.0010848	P_RES
J43_26	275.030	0.0023682	P_IND
J43_27	281.324	0.0014780	P_COM
J43_28	287.748	0.0006687	P_RES
J43_29	294.452	0.0015062	P_RES
J43_30	300.422	0.0009915	P_RES
J43_31	306.915	0.0045966	P_RES
J43_32	313.263	0.0015241	P_RES
J43_33	320.528	0.0006792	P_RES
J43_34	326.717	0.0009435	P_RES
J43_35	335.095	0.0017692	P_RES
J43_36	339.705	0.0026770	P_COM
J43_37	346.933	0.0011598	P_RES
J43_38	353.851	0.0013637	P_RES
J43_39	361.135	0.0019950	P_COM
J43_40	366.878	0.0012694	P_RES
J43_41	374.133	0.0032310	P_COM
J43_42	380.130	0.0008440	P_RES
J43_43	385.311	0.0040994	P_RES
J43_44	392.409	0.0029499	P_COM
J43_45	400.120	0.0018997	P_RES
J43_46	404.640	0.0010329	P_RES
J43_47	411.561	0.0014234	P_RES
J43_48	418.226	0.0009895	P_RES
J43_49	424.794	0.0024606	P_RES
J43_50	430.763	0.0025433	P_COM
J43_51	438.816	0.0015537	P_RES
J43_52	443.266	0.0021792	P_RES
J43_53	449.962	0.0011592	P_COM
J43_54	456.498	0.0042273	P_IND
J43_55	463.035	0.0022313	P_RES
J43_56	469.634	0.0012328	P_RES
J43_57	474.688	0.0023146	P_COM
J43_58	481.423	0.0018778	P_RES
J43_59	487.955	0.0009243	P_RES
J43_60	494.782	0.0010564	P_COM
J43_61	499.751	0.0054433	P_IND
J43_62	506.771	0.0012726	P_COM
J43_63	512.526	0.0017317	P_RES
J43_64	520.505	0.0017543	P_RES
J43_65	525.028	0.0007960	P_RES
J43_66	532.735	0.0019481	P_RES
J43_67	539.119	0.0019911	P_COM
J43_68	544.090	0.0018039	P_COM
J43_69	550.743	0.0016253	P_RES
J43_70	555.920	0.0006681	P_RES
J43_71	563.929	0.0011899	P_RES
J43_72	568.876	0.0013008	P_COM
J44_1	101.644	0.0029346	P_COM
J44_2	108.615	0.0025071	P_RES
J44_3	116.232	0.0007784	P_RES
J44_4	122.656	0.0008055	P_RES
J44_5	130.152	0.0010920	P_RES
J44_6	137.186	0.0021633	P_RES
J44_7	142.400	0.0009936	P_RES
J44_8	151.362	0.0018293	P_RES
J44_9	157.275	0.0016260	P_RES
J44_10	163.002	0.0033032	P_IND
J44_11	171.819	0.0018783	P_RES
J44_12	178.288	0.0017465	P_RES
J44_13	183.955	0.0010115	P_RES
J44_14	190.503	0.0024739	P_IND
J44_15	198.314	0.0013706	P_IND
J44_16	205.340	0.0007583	P_RES
J44_17	212.374	0.0034197	P_RES
J44_18	218.083	0.0050694	P_IND
J44_19	225.356	0.0016247	P_RES
J44_20	231.369	0.0007760	P_RES
J44_21	238.237	0.0031205	P_COM
J44_22	246.711	0.0012342	P_RES
J44_23	253.503	0.0026664	P_RES
J44_24	259.743	0.0006215	P_RES
J44_25	266.744	0.0036298	P_IND
J44_26	272.817	0.0019280	P_RES
J44_27	278.224	0.0014571	P_RES
J44_28	286.348	0.0013109	P_RES
J44_29	291.899	0.0007521	P_RES
J44_30	299.213	0.0015496	P_RES
J44_31	305.561	0.0012731	P_RES
J44_32	312.791	0.0020597	P_RES
J44_33	318.623	0.0015115	P_RES
J44_34	324.512	0.0013553	P_RES
J44_35	332.383	0.0009245	P_RES
J44_36	338.701	0.0012332	P_RES
J44_37	344.959	0.0020197	P_COM
J44_38	351.214	0.0017767	P_RES
J44_39	358.236	0.0005539	P_RES
J44_40	364.573	0.0011725	P_RES
J44_41	370.579	0.0010720	P_RES
J44_42	377.123	0.0025387	P_COM
J44_43	384.237	0.0014115	P_COM
J44_44	392.027	0.0021177	P_IND
J44_45	396.891	0.0014516	P_RES
J44_46	403.573	0.0034307	P_COM
J44_47	408.991	0.0012647	P_RES
J44_48	417.742	0.0014388	P_RES
J44_49	422.322	0.0019258	P_COM
J44_50	429.991	0.0012774	P_RES
J44_51	435.186	0.0019746	P_IND
J44_52	442.174	0.0042780	P_IND
J44_53	449.140	0.0016777	P_COM
J44_54	455.636	0.0013817	P_RES
J44_55	460.010	0.0026743	P_IND
J44_56	466.301	0.0014999	P_RES
J44_57	473.687	0.0019784	P_COM
J44_58	481.118	0.0004388	P_RES
J44_59	486.590	0.0048304	P_RES
J44_60	491.986	0.0024848	P_IND
J44_61	499.210	0.0028096	P_COM
J44_62	504.646	0.0018596	P_RES
J44_63	512.240	0.0009587	P_RES
J44_64	516.438	0.0018211	P_RES
J44_65	524.254	0.0009260	P_RES
J44_66	530.931	0.0009642	P_RES
J44_67	535.153	0.0026518	P_RES
J44_68	541.548	0.0036436	P_COM
J44_69	547.994	0.0020929	P_COM
J44_70	555.258	0.0011202	P_RES
J44_71	560.781	0.0044786	P_RES
J44_72	566.315	0.0009157	P_RES
J45_1	101.485	0.0021209	P_IND
J45_2	107.264	0.0017354	P_IND
J45_3	114.495	0.0016607	P_RES
J45_4	120.141	0.0011989	P_RES
J45_5	128.518	0.0026142	P_IND
J45_6	135.639	0.0035691	P_RES
J45_7	142.035	0.0008778	P_RES
J45_8	147.384	0.0028621	P_COM
J45_9	154.385	0.0019678	P_RES
J45_10	162.614	0.0009668	P_RES
J45_11	168.031	0.0012519	P_RES
J45_12	175.004	0.0033360	P_COM
J45_13	181.951	0.0008384	P_RES
J45_14	188.536	0.0029948	P_COM
J45_15	195.086	0.0046190	P_COM
J45_16	202.092	0.0006251	P_RES
J45_17	209.434	0.0014214	P_COM
J45_18	217.687	0.0016987	P_COM
J45_19	223.278	0.0024038	P_COM
J45_20	229.556	0.0032302	P_COM
J45_21	237.992	0.0005234	P_RES
J45_22	244.600	0.0009326	P_RES
J45_23	250.972	0.0024152	P_RES
J45_24	257.405	0.0008298	P_RES
J45_25	263.446	0.0017853	P_RES
J45_26	269.496	0.0008998	P_RES
J45_27	276.592	0.0008732	P_RES
J45_28	284.769	0.0037167	P_IND
J45_29	291.476	0.0015524	P_IND
J45_30	296.062	0.0015774	P_RES
J45_31	304.283	0.0020588	P_RES
J45_32	311.325	0.0032714	P_COM
J45_33	316.650	0.0011283	P_RES
J45_34	324.408	0.0014314	P_RES
J45_35	330.876	0.0007799	P_RES
J45_36	336.258	0.0012489	P_RES
J45_37	344.223	0.0008884	P_RES
J45_38	349.823	0.0015198	P_COM
J45_39	357.632	0.0012192	P_RES
J45_40	362.538	0.0039502	P_COM
J45_41	368.802	0.0018020	P_RES
J45_42	376.352	0.0006155	P_RES
J45_43	381.882	0.0013761	P_COM
J45_44	388.200	0.0024912	P_COM
J45_45	394.748	0.0012153	P_RES
J45_46	400.863	0.0016201	P_RES
J45_47	408.071	0.0015365	P_RES
J45_48	413.737	0.0009692	P_RES
J45_49	420.082	0.0011466	P_RES
J45_50	427.021	0.0018914	P_COM
J45_51	433.427	0.0012665	P_RES
J45_52	439.424	0.0027397	P_COM
J45_53	445.858	0.0024518	P_COM
J45_54	453.234	0.0014744	P_RES
J45_55	458.010	0.0008013	P_RES
J45_56	465.307	0.0018187	P_RES
J45_57	471.627	0.0014094	P_COM
J45_58	477.735	0.0030272	P_RES
J45_59	483.700	0.0019565	P_RES
J45_60	490.920	0.0012014	P_COM
J45_61	496.331	0.0009273	P_RES
J45_62	503.240	0.0015858	P_RES
J45_63	510.112	0.0011231	P_RES
J45_64	516.013	0.0012347	P_RES
J45_65	522.228	0.0028481	P_COM
J45_66	527.030	0.0051121	P_IND
J45_67	533.758	0.0010174	P_RES
J45_68	539.958	0.0037443	P_COM
J45_69	546.985	0.0018882	P_RES
J45_70	553.088	0.0015300	P_RES
J45_71	560.309	0.0016483	P_RES
J45_72	564.183	0.0009907	P_COM
J46_1	99.708	0.0010420	P_COM
J46_2	105.555	0.0015487	P_RES
J46_3	111.164	0.0020390	P_RES
J46_4	117.939	0.0008794	P_RES
J46_5	126.953	0.0009553	P_RES
J46_6	132.206	0.0010441	P_RES
J46_7	140.073	0.0025298	P_IND
J46_8	145.497	0.0036190	P_COM
J46_9	153.162	0.0019286	P_COM
J46_10	160.026	0.0018381	P_COM
J46_11	166.714	0.0008557	P_RES
J46_12	174.341	0.0020214	P_IND
J46_13	181.534	0.0025085	P_COM
J46_14	186.478	0.0040924	P_COM
J46_15	194.611	0.0039436	P_RES
J46_16	200.523	0.0007540	P_RES
J46_17	208.518	0.0024597	P_RES
J46_18	214.188	0.0018517	P_RES
J46_19	221.361	0.0005574	P_RES
J46_20	229.230	0.0004141	P_RES
J46_21	234.635	0.0013186	P_RES
J46_22	242.650	0.0009842	P_RES
J46_23	247.688	0.0023351	P_RES
J46_24	256.198	0.0038094	P_COM
J46_25	262.695	0.0035183	P_COM
J46_26	267.853	0.0012067	P_RES
J46_27	275.594	0.0011175	P_RES
J46_28	281.440	0.0025141	P_IND
J46_29	288.019	0.0016025	P_RES
J46_30	294.707	0.0025297	P_COM
J46_31	302.564	0.0019592	P_COM
J46_32	309.270	0.0012777	P_RES
J46_33	316.017	0.0014756	P_RES
J46_34	321.911	0.0018883	P_RES
J46_35	328.454	0.0012249	P_RES
J46_36	335.319	0.0032155	P_RES
J46_37	342.568	0.0017985	P_COM
J46_38	346.832	0.0012469	P_RES
J46_39	353.681	0.0011159	P_RES
J46_40	361.803	0.0010592	P_RES
J46_41	368.147	0.0026813	P_COM
J46_42	373.035	0.0050067	P_IND
J46_43	380.182	0.0018576	P_RES
J46_44	387.494	0.0007917	P_RES
J46_45	392.430	0.0009432	P_RES
J46_46	400.494	0.0010183	P_RES
J46_47	405.168	0.0016396	P_RES
J46_48	411.536	0.0019890	P_RES
J46_49	419.696	0.0011770	P_RES
J46_50	426.123	0.0033581	P_RES
J46_51	431.456	0.0009513	P_RES
J46_52	439.353	0.0011126	P_RES
J46_53	445.140	0.0007075	P_RES
J46_54	450.195	0.0020688	P_RES
J46_55	457.640	0.0020726	P_RES
J46_56	462.688	0.0009275	P_RES
J46_57	470.572	0.0026444	P_RES
J46_58	476.657	0.0036206	P_RES
J46_59	483.551	0.0037895	P_IND
J46_60	489.496	0.0028473	P_RES
J46_61	494.433	0.0013025	P_RES
J46_62	500.062	0.0008343	P_RES
J46_63	507.621	0.0013976	P_RES
J46_64	513.950	0.0012237	P_RES
J46_65	520.018	0.0006007	P_RES
J46_66	526.659	0.0006787	P_RES
J46_67	531.795	0.0021410	P_RES
J46_68	539.346	0.0019930	P_COM
J46_69	543.819	0.0033489	P_COM
J46_70	550.277	0.0019741	P_COM
J46_71	556.306	0.0019639	P_RES
J46_72	562.874	0.0036649	P_IND
J47_1	95.986	0.0010647	P_RES
J47_2	103.909	0.0066799	P_IND
J47_3	109.439	0.0012319	P_RES
J47_4	116.427	0.0012759	P_RES
J47_5	124.663	0.0025960	P_RES
J47_6	131.370	0.0010556	P_RES
J47_7	138.282	0.0026037	P_RES
J47_8	145.534	0.0009763	P_RES
J47_9	151.544	0.0020508	P_RES
J47_10	158.816	0.0024491	P_RES
J47_11	165.219	0.0034254	P_COM
J47_12	170.940	0.0006892	P_RES
J47_13	178.782	0.0012456	P_COM
J47_14	184.841	0.0022608	P_RES
J47_15	192.298	0.0010104	P_RES
J47_16	198.050	0.0020160	P_RES
J47_17	204.922	0.0014087	P_RES
J47_18	211.882	0.0015678	P_RES
J47_19	219.601	0.0012008	P_RES
J47_20	226.173	0.0024688	P_COM
J47_21	233.876	0.0009588	P_COM
J47_22	240.680	0.0012045	P_RES
J47_23	245.330	0.0016405	P_RES
J47_24	253.246	0.0016563	P_RES
J47_25	258.942	0.0033866	P_COM
J47_26	267.677	0.0013307	P_RES
J47_27	272.170	0.0014724	P_RES
J47_28	279.644	0.0015626	P_RES
J47_29	285.466	0.0027946	P_RES
J47_30	293.229	0.0012424	P_RES
J47_31	298.874	0.0011297	P_RES
J47_32	307.063	0.0006526	P_RES
J47_33	312.730	0.0024837	P_COM
J47_34	319.793	0.0029801	P_RES
J47_35	325.434	0.0039217	P_COM
J47_36	332.929	0.0009087	P_RES
J47_37	340.248	0.0032211	P_IND
J47_38	345.648	0.0011064	P_RES
J47_39	352.156	0.0009746	P_RES
J47_40	358.119	0.0012612	P_RES
J47_41	364.608	0.0011894	P_RES
J47_42	372.998	0.0013495	P_RES
J47_43	378.305	0.0005873	P_RES
J47_44	384.401	0.0013120	P_RES
J47_45	390.771	0.0018874	P_RES
J47_46	397.035	0.0021130	P_COM
J47_47	403.141	0.0012958	P_RES
J47_48	411.785	0.0006083	P_RES
J47_49	416.745	0.0023843	P_IND
J47_50	422.906	0.0014317	P_RES
J47_51	429.166	0.0016243	P_RES
J47_52	436.589	0.0016488	P_RES
J47_53	442.525	0.0010828	P_RES
J47_54	448.147	0.0005302	P_RES
J47_55	454.362	0.0026021	P_RES
J47_56	462.729	0.0019355	P_RES
J47_57	466.884	0.0015396	P_RES
J47_58	474.554	0.0016717	P_COM
J47_59	481.028	0.0045089	P_COM
J47_60	486.572	0.0008449	P_RES
J47_61	492.745	0.0018038	P_COM
J47_62	499.141	0.0028082	P_RES
J47_63	505.824	0.0012235	P_RES
J47_64	512.708	0.0018458	P_RES
J47_65	516.803	0.0020240	P_COM
J47_66	525.174	0.0037679	P_IND
J47_67	529.440	0.0006598	P_RES
J47_68	535.906	0.0014101	P_RES
J47_69	542.764	0.0023798	P_RES
J47_70	550.271	0.0018977	P_COM
J47_71	554.130	0.0028906	P_COM
J47_72	561.873	0.0012886	P_RES
J48_1	95.073	0.0015044	P_RES
J48_2	102.126	0.0020113	P_IND
J48_3	108.701	0.0013706	P_RES
J48_4	116.356	0.0020972	P_RES
J48_5	122.026	0.0027446	P_COM
J48_6	128.422	0.0029776	P_IND
J48_7	135.867	0.0036515	P_COM
J48_8	143.725	0.0036897	P_IND
J48_9	149.211	0.0019728	P_RES
J48_10	155.335	0.0017295	P_COM
J48_11	163.875	0.0019646	P_COM
J48_12	169.572	0.0011450	P_RES
J48_13	176.833	0.0006768	P_RES
J48_14	184.149	0.0009783	P_RES
J48_15	190.168	0.0015209	P_RES
J48_16	196.444	0.0008057	P_RES
J48_17	203.379	0.0009894	P_RES
J48_18	210.348	0.0023255	P_IND
J48_19	218.046	0.0022067	P_COM
J48_20	223.190	0.0028823	P_COM
J48_21	232.150	0.0012779	P_COM
J48_22	236.810	0.0014975	P_COM
J48_23	245.232	0.0032753	P_COM
J48_24	252.154	0.0028474	P_COM
J48_25	258.135	0.0011820	P_RES
J48_26	265.704	0.0016059	P_RES
J48_27	271.670	0.0014143	P_RES
J48_28	278.093	0.0032145	P_IND
J48_29	285.888	0.0016581	P_RES
J48_30	291.656	0.0018308	P_COM
J48_31	299.046	0.0009831	P_RES
J48_32	304.959	0.0011828	P_RES
J48_33	311.462	0.0023356	P_IND
J48_34	318.538	0.0015574	P_RES
J48_35	324.582	0.0006569	P_RES
J48_36	330.710	0.0025075	P_COM
J48_37	337.301	0.0019176	P_RES
J48_38	344.961	0.0014096	P_RES
J48_39	349.781	0.0009246	P_RES
J48_40	357.730	0.0039507	P_IND
J48_41	362.899	0.0010710	P_RES
J48_42	369.300	0.0014459	P_RES
J48_43	377.335	0.0011409	P_RES
J48_44	382.706	0.0026038	P_COM
J48_45	389.708	0.0013639	P_RES
J48_46	394.822	0.0009667	P_RES
J48_47	401.516	0.0005751	P_RES
J48_48	408.755	0.0065560	P_IND
J48_49	414.640	0.0046367	P_IND
J48_50	420.483	0.0013182	P_RES
J48_51	427.055	0.0026958	P_COM
J48_52	433.258	0.0009736	P_RES
J48_53	439.580	0.0013186	P_RES
J48_54	447.975	0.0014091	P_COM
J48_55	452.384	0.0014033	P_RES
J48_56	459.321	0.0013177	P_RES
J48_57	466.935	0.0010918	P_RES
J48_58	472.153	0.0008817	P_RES
J48_59	477.708	0.0014373	P_COM
J48_60	485.331	0.0024209	P_IND
J48_61	492.128	0.0022015	P_RES
J48_62	496.152	0.0021305	P_COM
J48_63	502.781	0.0032204	P_COM
J48_64	509.150	0.0015469	P_RES
J48_65	516.091	0.0022317	P_COM
J48_66	523.377	0.0011384	P_RES
J48_67	529.146	0.0015707	P_RES
J48_68	534.686	0.0045501	P_COM
J48_69	542.104	0.0006204	P_RES
J48_70	546.573	0.0022335	P_COM
J48_71	552.793	0.0013632	P_RES
J48_72	559.245	0.0015364	P_RES
J49_1	92.911	0.0014019	P_RES
J49_2	99.480	0.0010919	P_RES
J49_3	106.497	0.0006625	P_RES
J49_4	112.546	0.0009714	P_RES
J49_5	121.318	0.0013359	P_COM
J49_6	126.731	0.0019608	P_COM
J49_7	134.876	0.0018122	P_COM
J49_8	141.362	0.0031725	P_RES
J49_9	147.025	0.0011182	P_RES
J49_10	154.412	0.0014037	P_RES
J49_11	161.747	0.0009192	P_RES
J49_12	169.257	0.0008202	P_RES
J49_13	174.475	0.0017705	P_RES
J49_14	181.297	0.0013208	P_RES
J49_15	189.073	0.0012478	P_RES
J49_16	195.845	0.0028462	P_RES
J49_17	201.745	0.0027908	P_RES
J49_18	210.028	0.0005977	P_RES
J49_19	214.736	0.0014617	P_RES
J49_20	223.313	0.0008967	P_RES
J49_21	229.279	0.0010790	P_RES
J49_22	234.919	0.0010064	P_RES
J49_23	242.088	0.0011630	P_RES
J49_24	249.994	0.0020631	P_IND
J49_25	256.240	0.0031633	P_IND
J49_26	262.242	0.0013645	P_RES
J49_27	270.096	0.0021496	P_RES
J49_28	276.255	0.0022781	P_IND
J49_29	282.542	0.0013739	P_RES
J49_30	289.168	0.0012398	P_RES
J49_31	296.859	0.0016043	P_RES
J49_32	301.586	0.0025853	P_RES
J49_33	309.452	0.0015882	P_COM
J49_34	317.028	0.0005362	P_RES
J49_35	321.406	0.0005817	P_RES
J49_36	330.289	0.0008301	P_RES
J49_37	334.547	0.0007159	P_RES
J49_38	341.330	0.0008533	P_RES
J49_39	349.511	0.0021663	P_RES
J49_40	355.193	0.0021623	P_COM
J49_41	361.105	0.0008565	P_RES
J49_42	368.475	0.0022834	P_COM
J49_43	375.312	0.0022568	P_RES
J49_44	380.230	0.0013454	P_RES
J49_45	388.397	0.0025421	P_COM
J49_46	394.087	0.0022571	P_IND
J49_47	400.440	0.0016195	P_RES
J49_48	406.971	0.0022883	P_RES
J49_49	413.452	0.0015002	P_COM
J49_50	419.193	0.0011398	P_COM
J49_51	424.986	0.0011601	P_RES
J49_52	432.121	0.0017965	P_COM
J49_53	438.018	0.0018220	P_RES
J49_54	443.941	0.0016346	P_RES
J49_55	450.801	0.0007919	P_RES
J49_56	458.641	0.0022602	P_RES
J49_57	463.336	0.0021081	P_RES
J49_58	469.188	0.0016332	P_RES
J49_59	476.659	0.0026258	P_IND
J49_60	483.083	0.0008125	P_RES
J49_61	490.049	0.0013025	P_COM
J49_62	496.288	0.0014398	P_RES
J49_63	502.163	0.0014623	P_RES
J49_64	507.196	0.0020773	P_RES
J49_65	513.722	0.0014296	P_RES
J49_66	520.305	0.0014537	P_RES
J49_67	527.405	0.0030982	P_IND
J49_68	532.567	0.0025561	P_IND
J49_69	539.143	0.0022208	P_COM
J49_70	544.520	0.0010051	P_RES
J49_71	550.342	0.0038986	P_COM
J49_72	558.760	0.0044919	P_IND
J50_1	90.784	0.0024513	P_COM
J50_2	98.490	0.0028435	P_COM
J50_3	104.073	0.0026210	P_COM
J50_4	111.505	0.0045638	P_COM
J50_5	118.850	0.0056832	P_IND
J50_6	126.009	0.0028822	P_COM
J50_7	131.779	0.0011585	P_RES
J50_8	139.487	0.0080226	P_COM
J50_9	146.862	0.0007654	P_RES
J50_10	153.062	0.0020416	P_RES
J50_11	158.811	0.0012785	P_RES
J50_12	167.331	0.0017760	P_RES
J50_13	173.451	0.0032813	P_COM
J50_14	179.775	0.0028402	P_COM
J50_15	187.243	0.0015292	P_RES
J50_16	193.314	0.0018159	P_RES
J50_17	201.224	0.0014116	P_RES
J50_18	207.820	0.0010257	P_RES
J50_19	213.246	0.0006575	P_RES
J50_20	220.930	0.0031348	P_IND
J50_21	227.676	0.0037552	P_IND
J50_22	234.195	0.0018407	P_COM
J50_23	239.964	0.0011674	P_RES
J50_24	247.657	0.0027190	P_RES
J50_25	255.128	0.0015841	P_RES
J50_26	261.300	0.0014764	P_RES
J50_27	266.722	0.0009497	P_RES
J50_28	275.147	0.0057370	P_RES
J50_29	281.093	0.0026990	P_COM
J50_30	288.714	0.0019347	P_COM
J50_31	293.574	0.0018306	P_RES
J50_32	301.689	0.0015118	P_RES
J50_33	307.847	0.0014502	P_COM
J50_34	314.320	0.0008146	P_RES
J50_35	319.754	0.0011359	P_RES
J50_36	326.020	0.0013377	P_RES
J50_37	332.851	0.0008380	P_RES
J50_38	339.291	0.0033315	P_RES
J50_39	346.691	0.0008028	P_RES
J50_40	353.951	0.0016433	P_IND
J50_41	358.865	0.0025120	P_IND
J50_42	366.696	0.0018423	P_RES
J50_43	373.410	0.0006485	P_RES
J50_44	378.874	0.0012894	P_RES
J50_45	386.817	0.0013909	P_RES
J50_46	392.819	0.0028655	P_RES
J50_47	398.638	0.0026348	P_IND
J50_48	404.874	0.0012529	P_RES
J50_49	411.301	0.0017382	P_RES
J50_50	417.211	0.0026173	P_IND
J50_51	424.569	0.0036750	P_IND
J50_52	429.964	0.0022248	P_COM
J50_53	436.870	0.0013847	P_RES
J50_54	443.137	0.0032989	P_COM
J50_55	450.426	0.0036433	P_COM
J50_56	456.045	0.0029944	P_RES
J50_57	462.104	0.0014091	P_COM
J50_58	468.965	0.0012416	P_RES
J50_59	475.898	0.0038281	P_RES
J50_60	481.238	0.0019515	P_COM
J50_61	486.157	0.0013990	P_RES
J50_62	493.300	0.0022478	P_COM
J50_63	500.205	0.0007024	P_RES
J50_64	506.667	0.0025142	P_COM
J50_65	513.425	0.0011717	P_RES
J50_66	518.958	0.0013489	P_RES
J50_67	525.318	0.0006907	P_RES
J50_68	530.986	0.0018928	P_RES
J50_69	536.025	0.0015114	P_RES
J50_70	543.611	0.0010215	P_COM
J50_71	548.354	0.0028875	P_RES
J50_72	555.949	0.0018041	P_RES
J51_1	88.323	0.0021774	P_COM
J51_2	96.835	0.0008628	P_RES
J51_3	103.343	0.0017022	P_COM
J51_4	109.864	0.0017917	P_COM
J51_5	116.710	0.0022497	P_COM
J51_6	122.594	0.0027279	P_IND
J51_7	129.774	0.0006375	P_RES
J51_8	137.595	0.0012547	P_RES
J51_9	144.234	0.0007024	P_RES
J51_10	149.914	0.0012385	P_RES
J51_11	157.013	0.0012530	P_RES
J51_12	165.197	0.0026020	P_RES
J51_13	171.892	0.0033953	P_IND
J51_14	179.060	0.0012546	P_RES
J51_15	184.965	0.0033439	P_COM
J51_16	191.948	0.0009804	P_RES
J51_17	197.528	0.0009603	P_RES
J51_18	206.176	0.0006216	P_RES
J51_19	211.114	0.0032852	P_IND
J51_20	218.882	0.0013127	P_RES
J51_21	226.325	0.0011373	P_RES
J51_22	231.923	0.0019916	P_COM
J51_23	239.780	0.0017223	P_IND
J51_24	244.913	0.0018675	P_RES
J51_25	252.093	0.0019119	P_COM
J51_26	257.914	0.0039951	P_COM
J51_27	266.451	0.0016559	P_COM
J51_28	271.739	0.0019276	P_RES
J51_29	279.252	0.0018860	P_COM
J51_30	285.985	0.0011604	P_RES
J51_31	292.306	0.0017200	P_RES
J51_32	299.926	0.0044869	P_IND
J51_33	305.829	0.0013525	P_RES
J51_34	311.484	0.0018509	P_COM
J51_35	318.782	0.0012650	P_RES
J51_36	326.459	0.0015959	P_RES
J51_37	332.064	0.0022288	P_RES
J51_38	339.231	0.0008638	P_RES
J51_39	345.897	0.0013477	P_RES
J51_40	350.342	0.0037483	P_IND
J51_41	359.158	0.0010751	P_RES
J51_42	363.496	0.0017520	P_IND
J51_43	371.754	0.0007455	P_RES
J51_44	376.842	0.0010667	P_RES
J51_45	384.575	0.0014472	P_RES
J51_46	391.291	0.0014571	P_RES
J51_47	396.482	0.0014208	P_IND
J51_48	403.736	0.0019210	P_RES
J51_49	408.587	0.0010063	P_RES
J51_50	416.313	0.0009874	P_RES
J51_51	422.641	0.0010342	P_RES
J51_52	428.593	0.0009341	P_RES
J51_53	433.949	0.0032068	P_IND
J51_54	441.777	0.0006514	P_RES
J51_55	447.167	0.0009019	P_RES
J51_56	455.133	0.0011999	P_RES
J51_57	459.098	0.0045045	P_IND
J51_58	465.812	0.0005154	P_RES
J51_59	473.144	0.0012027	P_RES
J51_60	478.762	0.0029972	P_RES
J51_61	485.100	0.0032690	P_COM
J51_62	490.566	0.0035799	P_RES
J51_63	498.008	0.0016282	P_RES
J51_64	503.770	0.0015173	P_RES
J51_65	510.350	0.0008429	P_RES
J51_66	517.407	0.0015466	P_RES
J51_67	522.686	0.0027817	P_RES
J51_68	528.769	0.0027933	P_RES
J51_69	534.225	0.0008948	P_RES
J51_70	541.657	0.0036972	P_RES
J51_71	548.434	0.0016784	P_RES
J51_72	555.050	0.0016927	P_RES
J52_1	87.000	0.0012510	P_RES
J52_2	93.724	0.0013130	P_RES
J52_3	100.295	0.0017541	P_RES
J52_4	108.128	0.0013979	P_RES
J52_5	113.403	0.0015079	P_RES
J52_6	121.531	0.0008842	P_RES
J52_7	128.482	0.0040331	P_COM
J52_8	136.009	0.0027476	P_COM
J52_9	140.885	0.0021424	P_COM
J52_10	148.140	0.0005187	P_RES
J52_11	155.935	0.0020372	P_RES
J52_12	161.455	0.0018274	P_RES
J52_13	169.868	0.0039802	P_COM
J52_14	176.918	0.0005204	P_RES
J52_15	181.864	0.0017523	P_IND
J52_16	189.461	0.0020359	P_RES
J52_17	195.852	0.0028918	P_RES
J52_18	203.741	0.0014596	P_RES
J52_19	209.981	0.0021608	P_RES
J52_20	216.866	0.0012159	P_RES
J52_21	224.116	0.0013330	P_RES
J52_22	230.900	0.0012149	P_RES
J52_23	235.988	0.0009538	P_RES
J52_24	243.965	0.0016663	P_RES
J52_25	250.730	0.0009003	P_RES
J52_26	256.726	0.0014100	P_RES
J52_27	262.874	0.0031674	P_RES
J52_28	270.158	0.0007939	P_RES
J52_29	276.356	0.0007340	P_RES
J52_30	282.840	0.0012487	P_COM
J52_31	290.131	0.0016204	P_RES
J52_32	296.365	0.0030360	P_IND
J52_33	303.659	0.0007176	P_RES
J52_34	310.115	0.0014729	P_RES
J52_35	316.482	0.0033050	P_IND
J52_36	324.581	0.0008251	P_RES
J52_37	329.056	0.0039001	P_COM
J52_38	335.342	0.0011015	P_RES
J52_39	343.352	0.0012084	P_RES
J52_40	349.718	0.0015734	P_COM
J52_41	355.899	0.0009266	P_RES
J52_42	361.523	0.0016207	P_RES
J52_43	369.114	0.0013844	P_RES
J52_44	374.423	0.0023106	P_RES
J52_45	382.237	0.0016264	P_RES
J52_46	387.590	0.0023098	P_RES
J52_47	394.792	0.0013016	P_RES
J52_48	401.731	0.0028171	P_IND
J52_49	406.862	0.0006002	P_RES
J52_50	414.098	0.0016184	P_RES
J52_51	421.209	0.0020542	P_RES
J52_52	426.843	0.0008947	P_RES
J52_53	432.551	0.0034225	P_RES
J52_54	438.788	0.0006756	P_RES
J52_55	444.795	0.0013524	P_COM
J52_56	451.160	0.0019015	P_COM
J52_57	457.171	0.0074332	P_COM
J52_58	464.912	0.0007441	P_RES
J52_59	471.209	0.0011708	P_RES
J52_60	476.561	0.0011108	P_RES
J52_61	483.882	0.0054715	P_COM
J52_62	490.580	0.0008245	P_RES
J52_63	495.171	0.0016134	P_RES
J52_64	501.482	0.0020675	P_IND
J52_65	508.170	0.0009622	P_RES
J52_66	515.623	0.0015029	P_RES
J52_67	520.982	0.0008461	P_RES
J52_68	525.956	0.0060505	P_IND
J52_69	532.542	0.0024835	P_RES
J52_70	539.789	0.0020596	P_RES
J52_71	546.606	0.0014931	P_RES
J52_72	551.552	0.0009860	P_RES
J53_1	84.119	0.0024053	P_COM
J53_2	93.199	0.0012090	P_RES
J53_3	99.246	0.0014233	P_COM
J53_4	106.149	0.0010414	P_RES
J53_5	112.046	0.0010165	P_RES
J53_6	118.429	0.0013930	P_RES
J53_7	125.848	0.0012968	P_RES
J53_8	132.551	0.0011050	P_RES
J53_9	141.147	0.0032757	P_IND
J53_10	145.983	0.0016786	P_RES
J53_11	153.721	0.0019598	P_RES
J53_12	160.907	0.0015110	P_COM
J53_13	168.234	0.0012053	P_RES
J53_14	175.328	0.0016782	P_RES
J53_15	180.145	0.0010932	P_RES
J53_16	187.385	0.0014083	P_RES
J53_17	195.563	0.0008205	P_RES
J53_18	201.371	0.0015912	P_RES
J53_19	208.313	0.0018923	P_RES
J53_20	214.950	0.0009247	P_RES
J53_21	221.895	0.0050162	P_RES
J53_22	228.488	0.0024864	P_RES
J53_23	233.920	0.0009168	P_RES
J53_24	242.601	0.0016669	P_RES
J53_25	249.351	0.0009870	P_RES
J53_26	254.255	0.0010718	P_COM
J53_27	262.216	0.0040508	P_COM
J53_28	269.229	0.0019183	P_RES
J53_29	275.502	0.0011207	P_RES
J53_30	281.711	0.0014402	P_RES
J53_31	288.494	0.0014823	P_COM
J53_32	295.995	0.0010527	P_RES
J53_33	300.920	0.0021845	P_COM
J53_34	307.620	0.0016800	P_RES
J53_35	315.229	0.0029070	P_RES
J53_36	322.031	0.0008058	P_RES
J53_37	328.871	0.0015025	P_RES
J53_38	335.696	0.0007318	P_RES
J53_39	340.397	0.0013558	P_RES
J53_40	348.174	0.0008338	P_RES
J53_41	353.061	0.0023748	P_IND
J53_42	360.175	0.0014566	P_RES
J53_43	367.792	0.0015332	P_RES
J53_44	373.005	0.0018477	P_RES
J53_45	380.488	0.0009089	P_RES
J53_46	387.500	0.0014003	P_RES
J53_47	391.904	0.0010152	P_RES
J53_48	398.744	0.0017969	P_RES
J53_49	406.607	0.0010646	P_RES
J53_50	412.408	0.0011061	P_RES
J53_51	417.949	0.0016550	P_RES
J53_52	425.768	0.0022762	P_IND
J53_53	431.710	0.0057465	P_IND
J53_54	438.463	0.0023146	P_COM
J53_55	444.059	0.0009571	P_RES
J53_56	449.081	0.0039198	P_IND
J53_57	457.683	0.0014577	P_RES
J53_58	461.810	0.0011296	P_RES
J53_59	469.574	0.0011271	P_RES
J53_60	475.081	0.0014819	P_RES
J53_61	481.540	0.0016831	P_RES
J53_62	487.063	0.0012869	P_RES
J53_63	495.128	0.0023215	P_RES
J53_64	499.497	0.0010432	P_RES
J53_65	506.395	0.0013223	P_RES
J53_66	513.066	0.0019260	P_RES
J53_67	519.361	0.0025439	P_RES
J53_68	524.598	0.0017789	P_RES
J53_69	531.899	0.0030261	P_COM
J53_70	538.670	0.0010068	P_RES
J53_71	543.157	0.0010074	P_RES
J53_72	550.734	0.0009750	P_RES
J54_1	84.187	0.0022996	P_IND
J54_2	89.568	0.0007650	P_RES
J54_3	97.570	0.0022231	P_COM
J54_4	103.180	0.0011631	P_RES
J54_5	111.095	0.0020345	P_IND
J54_6	118.339	0.0040588	P_IND
J54_7	123.331	0.0014452	P_RES
J54_8	130.231	0.0008270	P_RES
J54_9	139.034	0.0009580	P_RES
J54_10	145.385	0.0027222	P_COM
J54_11	152.935	0.0017685	P_COM
J54_12	159.830	0.0011585	P_RES
J54_13	164.896	0.0024376	P_COM
J54_14	172.221	0.0054140	P_IND
J54_15	179.937	0.0019048	P_RES
J54_16	185.217	0.0018851	P_COM
J54_17	192.634	0.0027304	P_IND
J54_18	199.213	0.0006897	P_RES
J54_19	205.170	0.0019862	P_RES
J54_20	212.465	0.0007670	P_RES
J54_21	219.567	0.0009996	P_RES
J54_22	227.548	0.0047752	P_COM
J54_23	233.091	0.0010423	P_RES
J54_24	239.790	0.0005470	P_RES
J54_25	246.757	0.0020871	P_RES
J54_26	254.415	0.0012366	P_RES
J54_27	259.105	0.0005958	P_RES
J54_28	267.794	0.0030482	P_COM
J54_29	272.524	0.0011293	P_RES
J54_30	279.224	0.0027875	P_IND
J54_31	286.267	0.0013020	P_COM
J54_32	292.152	0.0016050	P_RES
J54_33	300.680	0.0010424	P_RES
J54_34	307.084	0.0011529	P_RES
J54_35	312.942	0.0031158	P_COM
J54_36	320.012	0.0022130	P_IND
J54_37	327.324	0.0010949	P_RES
J54_38	333.121	0.0036398	P_COM
J54_39	339.266	0.0022881	P_COM
J54_40	346.694	0.0011811	P_RES
J54_41	353.361	0.0029815	P_RES
J54_42	359.520	0.0007371	P_RES
J54_43	365.871	0.0026006	P_IND
J54_44	372.653	0.0008325	P_RES
J54_45	377.494	0.0005554	P_RES
J54_46	385.158	0.0024355	P_IND
J54_47	392.232	0.0029693	P_COM
J54_48	397.718	0.0019153	P_RES
J54_49	404.863	0.0009641	P_COM
J54_50	411.372	0.0010518	P_RES
J54_51	416.695	0.0013943	P_COM
J54_52	422.725	0.0009683	P_RES
J54_53	429.679	0.0019813	P_RES
J54_54	436.181	0.0010767	P_RES
J54_55	443.136	0.0020125	P_RES
J54_56	448.871	0.0013047	P_COM
J54_57	455.425	0.0012835	P_RES
J54_58	460.114	0.0007710	P_RES
J54_59	466.935	0.0023354	P_RES
J54_60	473.369	0.0007986	P_RES
J54_61	478.761	0.0013058	P_RES
J54_62	486.703	0.0027774	P_IND
J54_63	491.489	0.0014859	P_COM
J54_64	497.507	0.0042272	P_IND
J54_65	503.663	0.0051331	P_IND
J54_66	511.049	0.0013501	P_RES
J54_67	516.647	0.0011754	P_RES
J54_68	523.537	0.0007224	P_RES
J54_69	530.737	0.0009392	P_RES
J54_70	534.750	0.0009261	P_RES
J54_71	543.151	0.0023526	P_COM
J54_72	548.232	0.0017797	P_COM
J55_1	82.196	0.0010245	P_RES
J55_2	88.448	0.0021530	P_COM
J55_3	94.682	0.0006835	P_RES
J55_4	102.020	0.0018116	P_RES
J55_5	108.561	0.0004528	P_RES
J55_6	116.467	0.0011923	P_RES
J55_7	122.435	0.0015665	P_RES
J55_8	129.594	0.0028571	P_RES
J55_9	135.985	0.0009723	P_RES
J55_10	142.292	0.0016676	P_COM
J55_11	151.023	0.0007193	P_RES
J55_12	157.287	0.0008146	P_RES
J55_13	163.889	0.0010981	P_RES
J55_14	170.874	0.0011367	P_RES
J55_15	176.877	0.0028386	P_IND
J55_16	183.791	0.0013824	P_RES
J55_17	191.465	0.0036280	P_IND
J55_18	196.909	0.0029850	P_COM
J55_19	205.110	0.0015267	P_RES
J55_20	212.037	0.0021829	P_COM
J55_21	217.158	0.0016306	P_RES
J55_22	225.748	0.0015877	P_COM
J55_23	231.215	0.0008650	P_RES
J55_24	237.837	0.0013281	P_RES
J55_25	244.888	0.0012795	P_RES
J55_26	252.388	0.0005994	P_RES
J55_27	258.465	0.0019803	P_COM
J55_28	265.443	0.0009617	P_RES
J55_29	271.814	0.0024228	P_RES
J55_30	278.682	0.0026753	P_RES
J55_31	286.000	0.0015593	P_RES
J55_32	291.569	0.0019644	P_RES
J55_33	296.960	0.0008957	P_RES
J55_34	305.200	0.0012902	P_RES
J55_35	311.490	0.0007395	P_RES
J55_36	318.709	0.0010283	P_RES
J55_37	323.626	0.0009421	P_RES
J55_38	331.436	0.0014078	P_RES
J55_39	336.699	0.0007321	P_RES
J55_40	345.136	0.0025973	P_COM
J55_41	351.295	0.0022838	P_COM
J55_42	356.514	0.0021532	P_COM
J55_43	364.537	0.0024592	P_RES
J55_44	370.372	0.0010782	P_RES
J55_45	376.691	0.0023752	P_COM
J55_46	382.756	0.0012078	P_RES
J55_47	389.423	0.0009068	P_RES
J55_48	394.862	0.0035058	P_COM
J55_49	400.927	0.0017113	P_COM
J55_50	409.196	0.0003753	P_RES
J55_51	415.242	0.0006415	P_RES
J55_52	421.534	0.0014680	P_RES
J55_53	428.074	0.0006330	P_RES
J55_54	434.232	0.0016230	P_RES
J55_55	441.144	0.0007609	P_RES
J55_56	445.326	0.0044758	P_IND
J55_57	452.137	0.0011376	P_RES
J55_58	459.411	0.0012255	P_RES
J55_59	465.905	0.0011494	P_COM
J55_60	471.020	0.0020324	P_COM
J55_61	477.326	0.0019581	P_COM
J55_62	484.711	0.0013122	P_RES
J55_63	491.489	0.0040119	P_IND
J55_64	495.673	0.0009225	P_RES
J55_65	502.103	0.0022355	P_IND
J55_66	509.437	0.0020499	P_RES
J55_67	515.062	0.0018777	P_RES
J55_68	521.212	0.0011282	P_RES
J55_69	528.964	0.0012382	P_RES
J55_70	534.643	0.0012310	P_RES
J55_71	539.719	0.0010571	P_RES
J55_72	546.990	0.0014321	P_RES
J56_1	78.480	0.0005706	P_RES
J56_2	86.044	0.0016281	P_RES
J56_3	93.354	0.0009737	P_RES
J56_4	99.070	0.0011038	P_RES
J56_5	107.571	0.0017209	P_COM
J56_6	113.675	0.0008554	P_RES
J56_7	121.393	0.0013226	P_RES
J56_8	126.649	0.0011068	P_RES
J56_9	135.101	0.0030714	P_IND
J56_10	142.468	0.0010613	P_RES
J56_11	148.908	0.0027169	P_RES
J56_12	154.453	0.0029424	P_RES
J56_13	161.125	0.0010752	P_RES
J56_14	168.615	0.0009544	P_RES
J56_15	175.937	0.0011095	P_RES
J56_16	181.858	0.0009377	P_COM
J56_17	189.503	0.0015476	P_RES
J56_18	194.810	0.0016835	P_RES
J56_19	203.026	0.0031514	P_RES
J56_20	209.640	0.0020136	P_RES
J56_21	216.940	0.0011390	P_RES
J56_22	222.360	0.0014221	P_RES
J56_23	228.989	0.0010681	P_RES
J56_24	235.111	0.0016963	P_COM
J56_25	243.329	0.0014786	P_RES
J56_26	250.775	0.0035063	P_IND
J56_27	255.259	0.0023253	P_COM
J56_28	263.109	0.0014973	P_RES
J56_29	269.479	0.0017942	P_RES
J56_30	275.274	0.0023010	P_IND
J56_31	282.844	0.0018930	P_RES
J56_32	289.258	0.0037899	P_IND
J56_33	296.419	0.0034899	P_COM
J56_34	301.821	0.0009278	P_RES
J56_35	308.370	0.0028527	P_RES
J56_36	315.240	0.0017360	P_COM
J56_37	323.475	0.0008689	P_RES
J56_38	329.750	0.0014142	P_COM
J56_39	336.493	0.0009009	P_RES
J56_40	342.489	0.0007082	P_RES
J56_41	347.739	0.0019818	P_IND
J56_42	355.401	0.0027677	P_COM
J56_43	361.894	0.0012459	P_RES
J56_44	367.622	0.0006445	P_RES
J56_45	375.180	0.0009522	P_RES
J56_46	381.503	0.0023575	P_RES
J56_47	387.010	0.0017322	P_RES
J56_48	394.759	0.0014981	P_RES
J56_49	399.220	0.0014879	P_RES
J56_50	406.750	0.0011396	P_RES
J56_51	413.648	0.0010883	P_COM
J56_52	418.757	0.0017738	P_COM
J56_53	426.170	0.0022037	P_COM
J56_54	431.200	0.0053735	P_IND
J56_55	438.853	0.0017763	P_RES
J56_56	444.198	0.0018260	P_RES
J56_57	450.565	0.0023850	P_IND
J56_58	456.889	0.0034101	P_IND
J56_59	462.731	0.0006538	P_RES
J56_60	469.066	0.0008807	P_RES
J56_61	474.899	0.0013909	P_RES
J56_62	483.298	0.0030842	P_COM
J56_63	489.457	0.0027227	P_RES
J56_64	494.537	0.0012205	P_RES
J56_65	500.543	0.0014331	P_RES
J56_66	508.208	0.0016118	P_RES
J56_67	513.405	0.0008647	P_RES
J56_68	519.953	0.0014284	P_RES
J56_69	527.042	0.0023726	P_RES
J56_70	532.983	0.0031660	P_IND
J56_71	538.398	0.0016891	P_RES
J56_72	544.578	0.0032453	P_COM
J57_1	77.616	0.0021824	P_RES
J57_2	84.175	0.0033994	P_RES
J57_3	91.029	0.0027179	P_RES
J57_4	98.480	0.0014679	P_RES
J57_5	106.163	0.0028229	P_IND
J57_6	111.556	0.0021615	P_RES
J57_7	118.799	0.0013029	P_RES
J57_8	125.773	0.0018082	P_COM
J57_9	133.566	0.0044944	P_IND
J57_10	138.385	0.0008570	P_RES
J57_11	145.699	0.0035775	P_COM
J57_12	153.630	0.0021158	P_COM
J57_13	160.937	0.0014423	P_RES
J57_14	166.925	0.0015974	P_RES
J57_15	173.064	0.0011952	P_RES
J57_16	181.086	0.0013777	P_COM
J57_17	186.523	0.0027001	P_COM
J57_18	194.457	0.0028122	P_IND
J57_19	201.550	0.0020265	P_COM
J57_20	208.302	0.0023753	P_RES
J57_21	213.929	0.0009416	P_COM
J57_22	219.816	0.0019216	P_RES
J57_23	226.569	0.0042943	P_COM
J57_24	234.397	0.0005315	P_RES
J57_25	242.140	0.0065745	P_IND
J57_26	248.437	0.0017865	P_COM
J57_27	254.951	0.0023429	P_IND
J57_28	260.839	0.0016378	P_RES
J57_29	267.557	0.0026839	P_COM
J57_30	275.550	0.0015202	P_COM
J57_31	280.110	0.0021846	P_COM
J57_32	288.841	0.0021004	P_RES
J57_33	293.946	0.0037554	P_RES
J57_34	300.673	0.0011815	P_RES
J57_35	306.495	0.0009656	P_RES
J57_36	313.066	0.0040597	P_IND
J57_37	319.957	0.0014117	P_RES
J57_38	327.924	0.0022288	P_IND
J57_39	334.819	0.0028549	P_COM
J57_40	340.252	0.0007145	P_RES
J57_41	347.691	0.0008335	P_RES
J57_42	352.548	0.0013102	P_RES
J57_43	360.308	0.0015459	P_RES
J57_44	365.411	0.0005630	P_RES
J57_45	372.390	0.0028094	P_RES
J57_46	379.376	0.0022759	P_RES
J57_47	385.020	0.0012829	P_RES
J57_48	392.667	0.0013762	P_COM
J57_49	398.429	0.0027854	P_IND
J57_50	405.818	0.0010141	P_RES
J57_51	410.487	0.0008498	P_RES
J57_52	418.076	0.0013439	P_RES
J57_53	424.789	0.0008594	P_RES
J57_54	430.260	0.0013433	P_RES
J57_55	436.387	0.0004556	P_RES
J57_56	441.989	0.0038532	P_IND
J57_57	449.895	0.0011078	P_RES
J57_58	455.708	0.0016089	P_RES
J57_59	462.656	0.0014838	P_COM
J57_60	468.343	0.0006155	P_RES
J57_61	474.991	0.0026326	P_COM
J57_62	480.378	0.0012365	P_RES
J57_63	485.602	0.0013624	P_RES
J57_64	493.146	0.0009449	P_RES
J57_65	499.262	0.0027031	P_IND
J57_66	506.113	0.0017005	P_COM
J57_67	511.560	0.0016132	P_COM
J57_68	518.980	0.0012171	P_RES
J57_69	524.384	0.0026888	P_COM
J57_70	529.871	0.0013602	P_RES
J57_71	536.271	0.0026860	P_IND
J57_72	541.763	0.0007668	P_RES
J58_1	76.617	0.0042401	P_COM
J58_2	82.258	0.0007256	P_RES
J58_3	90.483	0.0004759	P_RES
J58_4	96.825	0.0018661	P_RES
J58_5	104.440	0.0015304	P_RES
J58_6	110.395	0.0011976	P_RES
J58_7	116.332	0.0008445	P_RES
J58_8	123.547	0.0014255	P_RES
J58_9	131.468	0.0015145	P_RES
J58_10	138.377	0.0036300	P_COM
J58_11	144.307	0.0059135	P_IND
J58_12	151.355	0.0013281	P_RES
J58_13	157.886	0.0012394	P_RES
J58_14	163.882	0.0008790	P_RES
J58_15	171.551	0.0007008	P_RES
J58_16	178.304	0.0014190	P_RES
J58_17	185.516	0.0009872	P_RES
J58_18	192.461	0.0018096	P_COM
J58_19	199.931	0.0005055	P_RES
J58_20	205.916	0.0012481	P_RES
J58_21	211.242	0.0013176	P_RES
J58_22	219.409	0.0020766	P_RES
J58_23	226.094	0.0015583	P_RES
J58_24	231.490	0.0016261	P_RES
J58_25	240.450	0.0021741	P_RES
J58_26	246.768	0.0019614	P_RES
J58_27	251.582	0.0012760	P_RES
J58_28	260.176	0.0007464	P_RES
J58_29	266.420	0.0018569	P_RES
J58_30	273.874	0.0010755	P_RES
J58_31	279.343	0.0025290	P_IND
J58_32	285.597	0.0024035	P_RES
J58_33	291.417	0.0015625	P_RES
J58_34	299.630	0.0019450	P_RES
J58_35	305.083	0.0018250	P_COM
J58_36	313.486	0.0027703	P_COM
J58_37	319.358	0.0005162	P_RES
J58_38	324.531	0.0019435	P_COM
J58_39	332.152	0.0032890	P_RES
J58_40	337.708	0.0012384	P_RES
J58_41	345.916	0.0018538	P_RES
J58_42	351.372	0.0007443	P_RES
J58_43	357.226	0.0022323	P_RES
J58_44	364.047	0.0014489	P_RES
J58_45	372.015	0.0017466	P_RES
J58_46	377.524	0.0015820	P_RES
J58_47	384.802	0.0017285	P_COM
J58_48	389.212	0.0007690	P_RES
J58_49	397.557	0.0035143	P_COM
J58_50	403.222	0.0016263	P_RES
J58_51	409.122	0.0010926	P_RES
J58_52	414.615	0.0006001	P_RES
J58_53	423.064	0.0017561	P_RES
J58_54	427.976	0.0010565	P_RES
J58_55	435.524	0.0029088	P_RES
J58_56	441.573	0.0006493	P_RES
J58_57	446.436	0.0009695	P_RES
J58_58	454.185	0.0016394	P_COM
J58_59	460.318	0.0009904	P_RES
J58_60	467.196	0.0008819	P_RES
J58_61	472.440	0.0020421	P_IND
J58_62	477.869	0.0010675	P_RES
J58_63	483.948	0.0016673	P_RES
J58_64	491.340	0.0019477	P_RES
J58_65	497.507	0.0020125	P_IND
J58_66	504.093	0.0015932	P_RES
J58_67	509.389	0.0027369	P_RES
J58_68	515.977	0.0020804	P_RES
J58_69	522.143	0.0006656	P_RES
J58_70	527.903	0.0006640	P_RES
J58_71	534.767	0.0032348	P_COM
J58_72	541.640	0.0014007	P_RES
J59_1	74.660	0.0012312	P_RES
J59_2	80.461	0.0036423	P_IND
J59_3	86.962	0.0018774	P_RES
J59_4	95.137	0.0010813	P_RES
J59_5	101.503	0.0004488	P_RES
J59_6	108.997	0.0010027	P_RES
J59_7	114.334	0.0017862	P_RES
J59_8	123.092	0.0007486	P_RES
J59_9	130.103	0.0049705	P_IND
J59_10	135.354	0.0029220	P_COM
J59_11	141.704	0.0017390	P_RES
J59_12	149.563	0.0013002	P_RES
J59_13	155.687	0.0015379	P_RES
J59_14	163.521	0.0008399	P_RES
J59_15	169.359	0.0015967	P_IND
J59_16	176.519	0.0012061	P_RES
J59_17	182.650	0.0011337	P_RES
J59_18	191.502	0.0027638	P_COM
J59_19	197.425	0.0010132	P_RES
J59_20	204.601	0.0013548	P_RES
J59_21	210.854	0.0010308	P_RES
J59_22	218.016	0.0006747	P_RES
J59_23	224.958	0.0040761	P_RES
J59_24	230.182	0.0037367	P_COM
J59_25	237.861	0.0010117	P_RES
J59_26	244.934	0.0007208	P_RES
J59_27	251.366	0.0017443	P_RES
J59_28	257.592	0.0006910	P_RES
J59_29	264.457	0.0030012	P_COM
J59_30	270.387	0.0023761	P_IND
J59_31	278.173	0.0008155	P_RES
J59_32	284.058	0.0020642	P_RES
J59_33	290.883	0.0021004	P_RES
J59_34	296.258	0.0008586	P_RES
J59_35	304.426	0.0015381	P_RES
J59_36	309.819	0.0017890	P_RES
J59_37	318.067	0.0021263	P_RES
J59_38	323.992	0.0008646	P_RES
J59_39	329.086	0.0015224	P_RES
J59_40	337.859	0.0013205	P_RES
J59_41	343.353	0.0021628	P_RES
J59_42	349.646	0.0016182	P_RES
J59_43	356.813	0.0009429	P_RES
J59_44	361.904	0.0008291	P_RES
J59_45	369.558	0.0007712	P_RES
J59_46	376.358	0.0042336	P_IND
J59_47	382.711	0.0003978	P_RES
J59_48	388.456	0.0017518	P_RES
J59_49	395.774	0.0010271	P_RES
J59_50	401.009	0.0005380	P_RES
J59_51	406.557	0.0011933	P_RES
J59_52	413.665	0.0024964	P_RES
J59_53	420.483	0.0023066	P_COM
J59_54	427.154	0.0012673	P_RES
J59_55	433.818	0.0008703	P_RES
J59_56	439.232	0.0011758	P_RES
J59_57	446.253	0.0018475	P_RES
J59_58	451.253	0.0010338	P_RES
J59_59	457.818	0.0024650	P_COM
J59_60	464.317	0.0035533	P_IND
J59_61	469.950	0.0038787	P_RES
J59_62	477.051	0.0009960	P_RES
J59_63	483.742	0.0012751	P_RES
J59_64	490.524	0.0018295	P_COM
J59_65	496.592	0.0025699	P_RES
J59_66	501.769	0.0015910	P_RES
J59_67	507.039	0.0026042	P_RES
J59_68	513.084	0.0014166	P_RES
J59_69	519.829	0.0023245	P_RES
J59_70	525.934	0.0018289	P_COM
J59_71	532.693	0.0037097	P_RES
J59_72	539.976	0.0029621	P_IND
J60_1	72.955	0.0013175	P_RES
J60_2	78.389	0.0012590	P_RES
J60_3	86.433	0.0009901	P_RES
J60_4	92.931	0.0023260	P_RES
J60_5	100.075	0.0011630	P_RES
J60_6	106.376	0.0036131	P_RES
J60_7	113.996	0.0004699	P_RES
J60_8	121.194	0.0013513	P_COM
J60_9	126.514	0.0012796	P_COM
J60_10	134.897	0.0014990	P_RES
J60_11	140.995	0.0010340	P_RES
J60_12	147.036	0.0030880	P_COM
J60_13	155.168	0.0032608	P_COM
J60_14	160.446	0.0014764	P_COM
J60_15	168.304	0.0008048	P_RES
J60_16	175.518	0.0029610	P_RES
J60_17	181.215	0.0018453	P_RES
J60_18	188.393	0.0022120	P_COM
J60_19	195.828	0.0019040	P_RES
J60_20	203.043	0.0017126	P_RES
J60_21	208.705	0.0020913	P_COM
J60_22	214.986	0.0014372	P_RES
J60_23	222.875	0.0037559	P_COM
J60_24	227.892	0.0019037	P_RES
J60_25	236.092	0.0020230	P_COM
J60_26	241.426	0.0009507	P_RES
J60_27	249.042	0.0006118	P_RES
J60_28	255.881	0.0013778	P_RES
J60_29	262.705	0.0017482	P_RES
J60_30	268.011	0.0030569	P_IND
J60_31	276.907	0.0017098	P_RES
J60_32	281.919	0.0008793	P_RES
J60_33	288.304	0.0024711	P_COM
J60_34	295.278	0.0010860	P_RES
J60_35	301.451	0.0027089	P_RES
J60_36	308.191	0.0012126	P_RES
J60_37	314.921	0.0004050	P_RES
J60_38	322.816	0.0019210	P_RES
J60_39	328.281	0.0031787	P_COM
J60_40	334.300	0.0014063	P_RES
J60_41	341.010	0.0007473	P_RES
J60_42	347.265	0.0006870	P_RES
J60_43	355.310	0.0012717	P_RES
J60_44	359.924	0.0024544	P_COM
J60_45	366.080	0.0014463	P_RES
J60_46	374.482	0.0009484	P_RES
J60_47	380.335	0.0014913	P_COM
J60_48	387.592	0.0030426	P_RES
J60_49	391.802	0.0016877	P_RES
J60_50	398.494	0.0008818	P_RES
J60_51	405.965	0.0013457	P_COM
J60_52	411.558	0.0012303	P_RES
J60_53	418.010	0.0016599	P_RES
J60_54	425.260	0.0017928	P_RES
J60_55	430.010	0.0013809	P_RES
J60_56	437.621	0.0011378	P_RES
J60_57	444.110	0.0007657	P_RES
J60_58	450.814	0.0007836	P_RES
J60_59	455.768	0.0013225	P_RES
J60_60	463.137	0.0042195	P_IND
J60_61	469.666	0.0009060	P_RES
J60_62	474.867	0.0008661	P_RES
J60_63	480.352	0.0012483	P_RES
J60_64	486.599	0.0009319	P_RES
J60_65	494.066	0.0017585	P_RES
J60_66	499.780	0.0013665	P_RES
J60_67	506.176	0.0037419	P_COM
J60_68	513.413	0.0012146	P_RES
J60_69	519.646	0.0012338	P_COM
J60_70	525.300	0.0016833	P_RES
J60_71	530.096	0.0016217	P_RES
J60_72	536.425	0.0008870	P_RES
J61_1	71.178	0.0008172	P_RES
J61_2	77.014	0.0035589	P_COM
J61_3	85.350	0.0014342	P_COM
J61_4	92.256	0.0019503	P_RES
J61_5	96.910	0.0021219	P_IND
J61_6	105.727	0.0013679	P_RES
J61_7	112.816	0.0025708	P_COM
J61_8	118.468	0.0018066	P_RES
J61_9	125.615	0.0013338	P_RES
J61_10	132.056	0.0012106	P_RES
J61_11	138.868	0.0019624	P_COM
J61_12	145.047	0.0016223	P_COM
J61_13	151.939	0.0028226	P_COM
J61_14	160.593	0.0019920	P_IND
J61_15	165.814	0.0026087	P_COM
J61_16	172.524	0.0014283	P_RES
J61_17	178.972	0.0022543	P_COM
J61_18	187.774	0.0023141	P_RES
J61_19	193.257	0.0014438	P_RES
J61_20	200.981	0.0010195	P_RES
J61_21	208.005	0.0029562	P_RES
J61_22	214.324	0.0021389	P_COM
J61_23	220.918	0.0011285	P_COM
J61_24	227.352	0.0071936	P_IND
J61_25	235.152	0.0015049	P_RES
J61_26	241.766	0.0014374	P_RES
J61_27	247.946	0.0029480	P_COM
J61_28	253.404	0.0031124	P_COM
J61_29	260.176	0.0022682	P_RES
J61_30	266.604	0.0012422	P_RES
J61_31	275.106	0.0008298	P_RES
J61_32	280.718	0.0013328	P_RES
J61_33	287.523	0.0020846	P_RES
J61_34	293.234	0.0016823	P_RES
J61_35	299.751	0.0006721	P_RES
J61_36	307.193	0.0008913	P_RES
J61_37	313.831	0.0039256	P_IND
J61_38	319.680	0.0021260	P_RES
J61_39	327.375	0.0017417	P_RES
J61_40	332.512	0.0007559	P_RES
J61_41	338.605	0.0011006	P_RES
J61_42	347.018	0.0011289	P_RES
J61_43	352.216	0.0037563	P_COM
J61_44	358.201	0.0017034	P_COM
J61_45	366.254	0.0014457	P_RES
J61_46	370.740	0.0015040	P_COM
J61_47	379.550	0.0019687	P_IND
J61_48	383.622	0.0016214	P_RES
J61_49	391.896	0.0008231	P_RES
J61_50	396.747	0.0020293	P_IND
J61_51	404.360	0.0028897	P_RES
J61_52	409.645	0.0018587	P_RES
J61_53	416.947	0.0012583	P_RES
J61_54	423.660	0.0011770	P_RES
J61_55	430.312	0.0008901	P_RES
J61_56	434.933	0.0022780	P_COM
J61_57	442.838	0.0017998	P_RES
J61_58	449.396	0.0023025	P_COM
J61_59	455.217	0.0009027	P_RES
J61_60	459.640	0.0020255	P_RES
J61_61	465.991	0.0016050	P_RES
J61_62	473.308	0.0034235	P_IND
J61_63	479.456	0.0014124	P_RES
J61_64	486.164	0.0009065	P_RES
J61_65	492.087	0.0016282	P_RES
J61_66	498.016	0.0033091	P_COM
J61_67	505.021	0.0030323	P_RES
J61_68	510.182	0.0026424	P_COM
J61_69	517.947	0.0013329	P_COM
J61_70	523.624	0.0007491	P_RES
J61_71	528.256	0.0009374	P_RES
J61_72	534.735	0.0011645	P_RES
J62_1	68.938	0.0011049	P_COM
J62_2	76.909	0.0005694	P_RES
J62_3	82.291	0.0015017	P_RES
J62_4	88.854	0.0010346	P_RES
J62_5	95.527	0.0013573	P_RES
J62_6	102.466	0.0009087	P_RES
J62_7	111.182	0.0020854	P_RES
J62_8	117.506	0.0017165	P_RES
J62_9	122.498	0.0015054	P_RES
J62_10	129.419	0.0007169	P_RES
J62_11	137.147	0.0005541	P_RES
J62_12	144.078	0.0014777	P_RES
J62_13	151.833	0.0018547	P_IND
J62_14	158.604	0.0014338	P_RES
J62_15	164.874	0.0035250	P_COM
J62_16	171.823	0.0028991	P_COM
J62_17	178.988	0.0021744	P_COM
J62_18	185.023	0.0034820	P_IND
J62_19	192.314	0.0012099	P_RES
J62_20	198.914	0.0007168	P_RES
J62_21	205.840	0.0017249	P_RES
J62_22	211.356	0.0007743	P_RES
J62_23	218.535	0.0015051	P_RES
J62_24	226.113	0.0012736	P_RES
J62_25	233.306	0.0014982	P_RES
J62_26	238.069	0.0009130	P_RES
J62_27	245.741	0.0025649	P_IND
J62_28	253.182	0.0010153	P_RES
J62_29	259.438	0.0010891	P_COM
J62_30	264.963	0.0014856	P_RES
J62_31	273.384	0.0011097	P_RES
J62_32	278.910	0.0012115	P_RES
J62_33	286.401	0.0005699	P_RES
J62_34	291.608	0.0017927	P_IND
J62_35	299.292	0.0030233	P_COM
J62_36	306.253	0.0030129	P_IND
J62_37	311.018	0.0008703	P_RES
J62_38	318.175	0.0014415	P_RES
J62_39	324.444	0.0009744	P_RES
J62_40	330.723	0.0017298	P_RES
J62_41	336.845	0.0009863	P_RES
J62_42	343.240	0.0024218	P_IND
J62_43	350.136	0.0032167	P_RES
J62_44	357.963	0.0017424	P_RES
J62_45	363.913	0.0011559	P_COM
J62_46	369.777	0.0014485	P_COM
J62_47	377.099	0.0038722	P_COM
J62_48	382.183	0.0029937	P_IND
J62_49	388.654	0.0010469	P_RES
J62_50	395.817	0.0019360	P_RES
J62_51	402.065	0.0019137	P_RES
J62_52	409.689	0.0015233	P_COM
J62_53	415.296	0.0026981	P_RES
J62_54	422.339	0.0016922	P_RES
J62_55	426.852	0.0030035	P_COM
J62_56	434.609	0.0019571	P_COM
J62_57	439.878	0.0010936	P_RES
J62_58	445.460	0.0012769	P_COM
J62_59	453.532	0.0026016	P_COM
J62_60	459.814	0.0046796	P_RES
J62_61	464.579	0.0017096	P_IND
J62_62	470.738	0.0021392	P_RES
J62_63	477.464	0.0021986	P_RES
J62_64	483.871	0.0034569	P_IND
J62_65	489.658	0.0021648	P_RES
J62_66	496.156	0.0033379	P_COM
J62_67	503.399	0.0025636	P_RES
J62_68	507.994	0.0014562	P_RES
J62_69	515.755	0.0014662	P_RES
J62_70	522.313	0.0004292	P_RES
J62_71	527.362	0.0007866	P_RES
J62_72	534.705	0.0007106	P_RES
J63_1	66.429	0.0016608	P_RES
J63_2	73.204	0.0026393	P_RES
J63_3	80.539	0.0010591	P_RES
J63_4	87.892	0.0009458	P_RES
J63_5	93.599	0.0007930	P_RES
J63_6	101.435	0.0010084	P_RES
J63_7	109.222	0.0019638	P_RES
J63_8	116.106	0.0013990	P_RES
J63_9	121.290	0.0013597	P_RES
J63_10	128.464	0.0013631	P_RES
J63_11	135.159	0.0011956	P_COM
J63_12	142.816	0.0010682	P_RES
J63_13	148.152	0.0007029	P_RES
J63_14	155.680	0.0023690	P_RES
J63_15	161.740	0.0013116	P_RES
J63_16	170.096	0.0013323	P_RES
J63_17	177.069	0.0014661	P_RES
J63_18	182.374	0.0025387	P_COM
J63_19	191.084	0.0010201	P_RES
J63_20	196.060	0.0017125	P_COM
J63_21	202.689	0.0024968	P_COM
J63_22	211.413	0.0012671	P_RES
J63_23	216.255	0.0014482	P_RES
J63_24	224.477	0.0006162	P_RES
J63_25	229.686	0.0015248	P_COM
J63_26	236.092	0.0005407	P_RES
J63_27	244.892	0.0019782	P_RES
J63_28	249.949	0.0017054	P_COM
J63_29	256.427	0.0015283	P_RES
J63_30	263.398	0.0018465	P_RES
J63_31	270.319	0.0010823	P_RES
J63_32	277.571	0.0009502	P_RES
J63_33	283.887	0.0009609	P_RES
J63_34	289.700	0.0023238	P_IND
J63_35	296.505	0.0028148	P_COM
J63_36	302.579	0.0024478	P_IND
J63_37	310.923	0.0011929	P_RES
J63_38	316.423	0.0033973	P_COM
J63_39	321.996	0.0027985	P_IND
J63_40	330.213	0.0019416	P_RES
J63_41	335.085	0.0021248	P_RES
J63_42	342.261	0.0015829	P_RES
J63_43	348.561	0.0013868	P_RES
J63_44	355.549	0.0029858	P_RES
J63_45	362.724	0.0011241	P_RES
J63_46	368.557	0.0014771	P_RES
J63_47	375.590	0.0019465	P_COM
J63_48	380.542	0.0013242	P_RES
J63_49	387.379	0.0020776	P_IND
J63_50	393.216	0.0026408	P_COM
J63_51	399.824	0.0016442	P_RES
J63_52	406.860	0.0016178	P_RES
J63_53	412.671	0.0010165	P_COM
J63_54	419.113	0.0017906	P_RES
J63_55	426.186	0.0009845	P_RES
J63_56	432.469	0.0010008	P_RES
J63_57	438.865	0.0013554	P_RES
J63_58	444.501	0.0015167	P_RES
J63_59	450.983	0.0004933	P_RES
J63_60	457.260	0.0007009	P_RES
J63_61	462.388	0.0004050	P_RES
J63_62	469.380	0.0016266	P_RES
J63_63	476.596	0.0013394	P_RES
J63_64	481.633	0.0015282	P_RES
J63_65	487.625	0.0017592	P_RES
J63_66	494.019	0.0015650	P_RES
J63_67	499.849	0.0020476	P_RES
J63_68	506.845	0.0013394	P_RES
J63_69	512.631	0.0012546	P_RES
J63_70	519.092	0.0034467	P_RES
J63_71	524.939	0.0011023	P_RES
J63_72	531.537	0.0014245	P_RES
J64_1	65.875	0.0040890	P_COM
J64_2	71.106	0.0006725	P_RES
J64_3	78.354	0.0010494	P_RES
J64_4	85.691	0.0008280	P_RES
J64_5	93.212	0.0015598	P_RES
J64_6	98.529	0.0011774	P_RES
J64_7	105.478	0.0010573	P_RES
J64_8	113.315	0.0009336	P_RES
J64_9	119.579	0.0010044	P_RES
J64_10	126.813	0.0022043	P_COM
J64_11	134.863	0.0029272	P_RES
J64_12	139.913	0.0009264	P_RES
J64_13	146.803	0.0014919	P_RES
J64_14	153.885	0.0006251	P_RES
J64_15	159.942	0.0017964	P_RES
J64_16	167.295	0.0013444	P_COM
J64_17	175.078	0.0020414	P_RES
J64_18	181.767	0.0008162	P_RES
J64_19	188.881	0.0018952	P_COM
J64_20	194.598	0.0010472	P_RES
J64_21	201.037	0.0018156	P_COM
J64_22	209.071	0.0025688	P_COM
J64_23	214.721	0.0011684	P_RES
J64_24	221.830	0.0007089	P_RES
J64_25	229.230	0.0014320	P_RES
J64_26	236.182	0.0011277	P_RES
J64_27	242.221	0.0014143	P_RES
J64_28	247.612	0.0014259	P_RES
J64_29	256.517	0.0015063	P_COM
J64_30	263.165	0.0018167	P_COM
J64_31	268.975	0.0035255	P_RES
J64_32	275.622	0.0022676	P_RES
J64_33	281.604	0.0027678	P_IND
J64_34	288.950	0.0018667	P_RES
J64_35	295.393	0.0038141	P_RES
J64_36	301.677	0.0014755	P_RES
J64_37	308.431	0.0023684	P_COM
J64_38	314.683	0.0042369	P_COM
J64_39	321.371	0.0010375	P_RES
J64_40	326.775	0.0010768	P_RES
J64_41	334.948	0.0007504	P_RES
J64_42	340.203	0.0018629	P_RES
J64_43	347.283	0.0011768	P_RES
J64_44	352.994	0.0030138	P_IND
J64_45	360.778	0.0025147	P_RES
J64_46	366.425	0.0009369	P_RES
J64_47	372.920	0.0007537	P_RES
J64_48	379.761	0.0012023	P_RES
J64_49	387.063	0.0025636	P_RES
J64_50	392.199	0.0029305	P_COM
J64_51	397.677	0.0020796	P_RES
J64_52	404.110	0.0020733	P_RES
J64_53	410.739	0.0017327	P_RES
J64_54	417.180	0.0018114	P_RES
J64_55	424.724	0.0009014	P_RES
J64_56	430.598	0.0015846	P_COM
J64_57	437.295	0.0013569	P_RES
J64_58	443.117	0.0010640	P_RES
J64_59	449.049	0.0011311	P_RES
J64_60	455.684	0.0016493	P_RES
J64_61	460.830	0.0010439	P_RES
J64_62	466.882	0.0010245	P_RES
J64_63	473.872	0.0018350	P_RES
J64_64	480.954	0.0013509	P_RES
J64_65	485.855	0.0018683	P_RES
J64_66	492.587	0.0008982	P_RES
J64_67	498.877	0.0020432	P_RES
J64_68	504.351	0.0012299	P_RES
J64_69	512.454	0.0049906	P_IND
J64_70	518.270	0.0008428	P_RES
J64_71	524.549	0.0010878	P_RES
J64_72	529.309	0.0012180	P_RES
J65_1	63.676	0.0026125	P_COM
J65_2	70.704	0.0009506	P_RES
J65_3	77.116	0.0011138	P_RES
J65_4	84.109	0.0011747	P_RES
J65_5	90.509	0.0024122	P_RES
J65_6	97.938	0.0010464	P_RES
J65_7	105.046	0.0035210	P_COM
J65_8	111.622	0.0010686	P_RES
J65_9	119.528	0.0033984	P_COM
J65_10	124.645	0.0019528	P_IND
J65_11	133.186	0.0035687	P_RES
J65_12	138.548	0.0012539	P_RES
J65_13	146.401	0.0019018	P_RES
J65_14	153.042	0.0019593	P_COM
J65_15	160.499	0.0012003	P_RES
J65_16	165.879	0.0036823	P_COM
J65_17	173.952	0.0016961	P_RES
J65_18	180.121	0.0028406	P_COM
J65_19	186.753	0.0005294	P_RES
J65_20	194.432	0.0011309	P_RES
J65_21	200.816	0.0017176	P_RES
J65_22	205.947	0.0014380	P_IND
J65_23	213.284	0.0009456	P_RES
J65_24	219.845	0.0028571	P_RES
J65_25	225.860	0.0018071	P_COM
J65_26	232.804	0.0021770	P_RES
J65_27	240.777	0.0012724	P_RES
J65_28	246.875	0.0017136	P_RES
J65_29	253.743	0.0015065	P_RES
J65_30	261.286	0.0019558	P_COM
J65_31	266.252	0.0019057	P_RES
J65_32	274.584	0.0026461	P_RES
J65_33	281.303	0.0021749	P_COM
J65_34	285.871	0.0009117	P_RES
J65_35	294.415	0.0017793	P_RES
J65_36	300.969	0.0011539	P_RES
J65_37	305.795	0.0010010	P_RES
J65_38	313.541	0.0008941	P_RES
J65_39	318.473	0.0021709	P_RES
J65_40	326.302	0.0016283	P_RES
J65_41	332.783	0.0021195	P_RES
J65_42	338.038	0.0014613	P_RES
J65_43	346.096	0.0034677	P_IND
J65_44	352.385	0.0013623	P_RES
J65_45	358.769	0.0007104	P_RES
J65_46	365.906	0.0007085	P_RES
J65_47	371.839	0.0016306	P_RES
J65_48	377.824	0.0018428	P_RES
J65_49	383.134	0.0013318	P_RES
J65_50	390.312	0.0019030	P_RES
J65_51	397.883	0.0021355	P_RES
J65_52	403.730	0.0012908	P_RES
J65_53	408.782	0.0015937	P_COM
J65_54	416.798	0.0027149	P_RES
J65_55	423.464	0.0011049	P_RES
J65_56	428.960	0.0019719	P_RES
J65_57	434.237	0.0016884	P_RES
J65_58	441.047	0.0039745	P_COM
J65_59	447.689	0.0011677	P_RES
J65_60	453.532	0.0016821	P_COM
J65_61	459.937	0.0031884	P_RES
J65_62	466.384	0.0013134	P_RES
J65_63	473.411	0.0019288	P_IND
J65_64	477.868	0.0021897	P_RES
J65_65	484.853	0.0013473	P_RES
J65_66	491.444	0.0008039	P_RES
J65_67	498.108	0.0015712	P_RES
J65_68	502.727	0.0032371	P_COM
J65_69	508.880	0.0009944	P_RES
J65_70	516.708	0.0019941	P_RES
J65_71	521.395	0.0012168	P_IND
J65_72	527.886	0.0010421	P_RES
J66_1	61.363	0.0022664	P_COM
J66_2	68.243	0.0035956	P_IND
J66_3	75.302	0.0024633	P_COM
J66_4	82.390	0.0014534	P_RES
J66_5	88.503	0.0004158	P_RES
J66_6	95.125	0.0009516	P_RES
J66_7	103.321	0.0011628	P_COM
J66_8	110.248	0.0010510	P_RES
J66_9	116.112	0.0018127	P_RES
J66_10	122.810	0.0021719	P_COM
J66_11	131.049	0.0016255	P_RES
J66_12	136.786	0.0011663	P_RES
J66_13	143.073	0.0012914	P_RES
J66_14	151.533	0.0007080	P_RES
J66_15	158.354	0.0015769	P_RES
J66_16	164.765	0.0010442	P_RES
J66_17	172.300	0.0017678	P_RES
J66_18	178.748	0.0006965	P_RES
J66_19	186.001	0.0013272	P_RES
J66_20	191.533	0.0007287	P_RES
J66_21	198.781	0.0013187	P_RES
J66_22	204.531	0.0009306	P_RES
J66_23	212.650	0.0012689	P_COM
J66_24	218.882	0.0009806	P_COM
J66_25	225.191	0.0021239	P_RES
J66_26	233.059	0.0009207	P_RES
J66_27	238.157	0.0037885	P_COM
J66_28	246.176	0.0051982	P_RES
J66_29	251.896	0.0012545	P_RES
J66_30	257.860	0.0009986	P_RES
J66_31	264.484	0.0013364	P_COM
J66_32	271.193	0.0045151	P_IND
J66_33	278.562	0.0019311	P_COM
J66_34	286.033	0.0011833	P_RES
J66_35	291.034	0.0030322	P_RES
J66_36	298.819	0.0011843	P_RES
J66_37	305.452	0.0010080	P_RES
J66_38	311.089	0.0037522	P_IND
J66_39	318.945	0.0013614	P_RES
J66_40	324.932	0.0013287	P_RES
J66_41	331.634	0.0018881	P_RES
J66_42	337.778	0.0056835	P_COM
J66_43	344.991	0.0013060	P_RES
J66_44	349.177	0.0026249	P_IND
J66_45	356.123	0.0014849	P_RES
J66_46	364.343	0.0019835	P_RES
J66_47	368.548	0.0042671	P_COM
J66_48	374.894	0.0012137	P_RES
J66_49	381.984	0.0021398	P_RES
J66_50	388.370	0.0010165	P_RES
J66_51	395.504	0.0014279	P_RES
J66_52	401.843	0.0013930	P_RES
J66_53	407.816	0.0021672	P_COM
J66_54	414.298	0.0032761	P_IND
J66_55	420.783	0.0023330	P_RES
J66_56	427.296	0.0019418	P_RES
J66_57	432.058	0.0005043	P_RES
J66_58	440.144	0.0013238	P_RES
J66_59	446.745	0.0010932	P_RES
J66_60	451.917	0.0016372	P_RES
J66_61	457.484	0.0006304	P_RES
J66_62	464.691	0.0021967	P_COM
J66_63	470.494	0.0040681	P_COM
J66_64	477.090	0.0008601	P_RES
J66_65	482.848	0.0019233	P_RES
J66_66	489.812	0.0037318	P_RES
J66_67	496.291	0.0009162	P_RES
J66_68	501.927	0.0010114	P_RES
J66_69	507.109	0.0039668	P_RES
J66_70	513.940	0.0021243	P_RES
J66_71	520.305	0.0009828	P_RES
J66_72	526.910	0.0029134	P_IND
J67_1	59.585	0.0012217	P_RES
J67_2	67.051	0.0011477	P_RES
J67_3	73.285	0.0008178	P_RES
J67_4	79.768	0.0013250	P_RES
J67_5	87.702	0.0019363	P_RES
J67_6	94.344	0.0009960	P_RES
J67_7	102.132	0.0016056	P_RES
J67_8	107.799	0.0007186	P_RES
J67_9	115.295	0.0019287	P_RES
J67_10	121.121	0.0021287	P_COM
J67_11	129.002	0.0006709	P_RES
J67_12	136.013	0.0019043	P_RES
J67_13	143.498	0.0026302	P_COM
J67_14	149.337	0.0011780	P_RES
J67_15	155.777	0.0050983	P_COM
J67_16	162.179	0.0024883	P_IND
J67_17	169.290	0.0020036	P_COM
J67_18	177.499	0.0019690	P_RES
J67_19	184.140	0.0013552	P_RES
J67_20	190.746	0.0012771	P_RES
J67_21	197.693	0.0009474	P_RES
J67_22	203.605	0.0014704	P_RES
J67_23	211.143	0.0021338	P_COM
J67_24	217.968	0.0006564	P_RES
J67_25	223.912	0.0045793	P_IND
J67_26	230.657	0.0013460	P_RES
J67_27	236.319	0.0014484	P_RES
J67_28	243.250	0.0014662	P_COM
J67_29	249.329	0.0008969	P_RES
J67_30	255.714	0.0026641	P_IND
J67_31	263.598	0.0036386	P_RES
J67_32	270.266	0.0011058	P_RES
J67_33	276.189	0.0016626	P_RES
J67_34	282.355	0.0008548	P_RES
J67_35	289.667	0.0029797	P_RES
J67_36	297.491	0.0023348	P_IND
J67_37	304.061	0.0009991	P_RES
J67_38	309.253	0.0012446	P_RES
J67_39	315.653	0.0015102	P_RES
J67_40	323.138	0.0026124	P_COM
J67_41	329.886	0.0016060	P_RES
J67_42	335.204	0.0010918	P_RES
J67_43	343.094	0.0022474	P_IND
J67_44	348.493	0.0020860	P_COM
J67_45	355.954	0.0010667	P_RES
J67_46	362.569	0.0018314	P_RES
J67_47	367.399	0.0011071	P_RES
J67_48	374.083	0.0019715	P_RES
J67_49	381.443	0.0007778	P_COM
J67_50	385.930	0.0005339	P_RES
J67_51	393.787	0.0009967	P_RES
J67_52	400.975	0.0012434	P_RES
J67_53	406.597	0.0011573	P_RES
J67_54	413.096	0.0014302	P_RES
J67_55	418.262	0.0010220	P_RES
J67_56	425.660	0.0010569	P_RES
J67_57	430.680	0.0013237	P_RES
J67_58	437.390	0.0020365	P_COM
J67_59	444.036	0.0011074	P_RES
J67_60	450.909	0.0031038	P_COM
J67_61	457.377	0.0008300	P_RES
J67_62	462.759	0.0012706	P_RES
J67_63	470.122	0.0006733	P_RES
J67_64	476.334	0.0028701	P_IND
J67_65	480.758	0.0023347	P_RES
J67_66	488.419	0.0033720	P_COM
J67_67	493.440	0.0015334	P_RES
J67_68	500.251	0.0016453	P_RES
J67_69	507.286	0.0007374	P_RES
J67_70	512.217	0.0015095	P_RES
J67_71	519.699	0.0037720	P_COM
J67_72	525.514	0.0021853	P_COM
J68_1	58.390	0.0010402	P_RES
J68_2	64.404	0.0007390	P_RES
J68_3	73.354	0.0013938	P_RES
J68_4	78.137	0.0026963	P_COM
J68_5	86.326	0.0007417	P_RES
J68_6	92.647	0.0041241	P_IND
J68_7	99.341	0.0021398	P_COM
J68_8	107.617	0.0032613	P_COM
J68_9	113.865	0.0009271	P_RES
J68_10	121.106	0.0018722	P_COM
J68_11	128.113	0.0007914	P_RES
J68_12	134.766	0.0013207	P_RES
J68_13	140.002	0.0039376	P_IND
J68_14	147.830	0.0017520	P_COM
J68_15	154.724	0.0020998	P_COM
J68_16	162.010	0.0014610	P_RES
J68_17	168.180	0.0030421	P_COM
J68_18	174.377	0.0007747	P_RES
J68_19	180.470	0.0020809	P_RES
J68_20	188.179	0.0005678	P_RES
J68_21	193.976	0.0020043	P_IND
J68_22	201.951	0.0011648	P_COM
J68_23	209.116	0.0010325	P_RES
J68_24	216.072	0.0019530	P_RES
J68_25	222.777	0.0013555	P_RES
J68_26	229.278	0.0012923	P_RES
J68_27	236.200	0.0025832	P_COM
J68_28	242.273	0.0026250	P_COM
J68_29	247.644	0.0022382	P_RES
J68_30	254.111	0.0013746	P_RES
J68_31	261.985	0.0013356	P_RES
J68_32	268.630	0.0006407	P_RES
J68_33	276.132	0.0015795	P_RES
J68_34	281.580	0.0026076	P_RES
J68_35	288.429	0.0016294	P_RES
J68_36	293.965	0.0014381	P_RES
J68_37	302.324	0.0020269	P_RES
J68_38	308.073	0.0016217	P_IND
J68_39	315.335	0.0022622	P_COM
J68_40	320.689	0.0010884	P_RES
J68_41	326.441	0.0013836	P_COM
J68_42	334.954	0.0032136	P_IND
J68_43	340.933	0.0015035	P_RES
J68_44	347.890	0.0024368	P_IND
J68_45	352.957	0.0009258	P_RES
J68_46	358.637	0.0013653	P_RES
J68_47	366.088	0.0016600	P_RES
J68_48	373.017	0.0021037	P_RES
J68_49	378.937	0.0010964	P_RES
J68_50	385.237	0.0020375	P_RES
J68_51	392.083	0.0024331	P_RES
J68_52	398.587	0.0013445	P_RES
J68_53	405.107	0.0013606	P_RES
J68_54	410.005	0.0015472	P_RES
J68_55	417.196	0.0009958	P_RES
J68_56	423.237	0.0051977	P_IND
J68_57	430.560	0.0015759	P_RES
J68_58	436.604	0.0008657	P_RES
J68_59	443.361	0.0016076	P_RES
J68_60	447.458	0.0017607	P_COM
J68_61	455.236	0.0010378	P_RES
J68_62	461.382	0.0013032	P_COM
J68_63	468.079	0.0013379	P_RES
J68_64	473.704	0.0017577	P_RES
J68_65	479.894	0.0009309	P_RES
J68_66	486.530	0.0008539	P_RES
J68_67	492.648	0.0023225	P_RES
J68_68	498.093	0.0007794	P_RES
J68_69	504.792	0.0032852	P_RES
J68_70	511.936	0.0013334	P_RES
J68_71	517.450	0.0009560	P_RES
J68_72	523.369	0.0023756	P_RES
J69_1	57.720	0.0029405	P_COM
J69_2	64.787	0.0017331	P_RES
J69_3	69.398	0.0018072	P_RES
J69_4	77.847	0.0017481	P_IND
J69_5	83.960	0.0022359	P_IND
J69_6	91.503	0.0021074	P_RES
J69_7	97.834	0.0027629	P_IND
J69_8	105.754	0.0010004	P_RES
J69_9	112.075	0.0007113	P_RES
J69_10	119.406	0.0005621	P_RES
J69_11	124.512	0.0006220	P_RES
J69_12	132.894	0.0026319	P_RES
J69_13	138.877	0.0003387	P_RES
J69_14	145.271	0.0023827	P_RES
J69_15	152.625	0.0022521	P_COM
J69_16	159.203	0.0008338	P_COM
J69_17	166.086	0.0014718	P_RES
J69_18	172.674	0.0037662	P_RES
J69_19	178.658	0.0010777	P_RES
J69_20	186.437	0.0018921	P_COM
J69_21	194.090	0.0015608	P_RES
J69_22	199.228	0.0014495	P_COM
J69_23	206.784	0.0025842	P_COM
J69_24	212.590	0.0019907	P_RES
J69_25	219.281	0.0039896	P_COM
J69_26	227.450	0.0025242	P_RES
J69_27	232.922	0.0018418	P_COM
J69_28	240.430	0.0011996	P_RES
J69_29	247.177	0.0037727	P_COM
J69_30	253.211	0.0007599	P_RES
J69_31	260.493	0.0010976	P_RES
J69_32	266.981	0.0006356	P_RES
J69_33	273.242	0.0015545	P_RES
J69_34	279.519	0.0030972	P_COM
J69_35	287.134	0.0013143	P_RES
J69_36	292.177	0.0009705	P_RES
J69_37	300.852	0.0029919	P_RES
J69_38	305.569	0.0015385	P_RES
J69_39	311.940	0.0010873	P_RES
J69_40	319.330	0.0020746	P_COM
J69_41	326.075	0.0009900	P_RES
J69_42	332.803	0.0013208	P_COM
J69_43	338.375	0.0013794	P_RES
J69_44	346.248	0.0017560	P_RES
J69_45	350.816	0.0008699	P_RES
J69_46	358.673	0.0009939	P_RES
J69_47	365.641	0.0027779	P_IND
J69_48	370.807	0.0012800	P_RES
J69_49	377.237	0.0008779	P_RES
J69_50	383.812	0.0022238	P_RES
J69_51	390.871	0.0033172	P_COM
J69_52	397.022	0.0013375	P_RES
J69_53	403.369	0.0011683	P_RES
J69_54	408.090	0.0012963	P_RES
J69_55	415.353	0.0029010	P_IND
J69_56	421.935	0.0005593	P_RES
J69_57	427.736	0.0024570	P_COM
J69_58	434.525	0.0018462	P_RES
J69_59	440.587	0.0021057	P_COM
J69_60	446.628	0.0022314	P_RES
J69_61	453.026	0.0030091	P_COM
J69_62	460.191	0.0018164	P_COM
J69_63	465.211	0.0027073	P_COM
J69_64	471.979	0.0052944	P_RES
J69_65	477.554	0.0014084	P_COM
J69_66	484.324	0.0016985	P_RES
J69_67	491.849	0.0006581	P_RES
J69_68	497.142	0.0033686	P_RES
J69_69	502.686	0.0016894	P_RES
J69_70	508.399	0.0027037	P_RES
J69_71	514.391	0.0011832	P_RES
J69_72	520.742	0.0007313	P_RES
J70_1	55.961	0.0029926	P_RES
J70_2	62.496	0.0012401	P_COM
J70_3	69.652	0.0006813	P_RES
J70_4	75.629	0.0004017	P_RES
J70_5	83.677	0.0020055	P_RES
J70_6	88.630	0.0029190	P_COM
J70_7	95.206	0.0011935	P_RES
J70_8	103.258	0.0008734	P_RES
J70_9	109.980	0.0009585	P_RES
J70_10	117.515	0.0014460	P_RES
J70_11	124.527	0.0014642	P_RES
J70_12	130.212	0.0020033	P_COM
J70_13	138.331	0.0031625	P_COM
J70_14	144.155	0.0040815	P_IND
J70_15	151.559	0.0016798	P_RES
J70_16	158.635	0.0022247	P_RES
J70_17	164.204	0.0016546	P_COM
J70_18	170.625	0.0030651	P_IND
J70_19	178.138	0.0011891	P_RES
J70_20	184.583	0.0028930	P_RES
J70_21	192.672	0.0010591	P_RES
J70_22	198.636	0.0010577	P_RES
J70_23	204.563	0.0025822	P_IND
J70_24	212.763	0.0012796	P_RES
J70_25	218.415	0.0019070	P_RES
J70_26	224.024	0.0012379	P_RES
J70_27	231.734	0.0043578	P_IND
J70_28	239.444	0.0019896	P_IND
J70_29	246.392	0.0014527	P_RES
J70_30	251.722	0.0009018	P_RES
J70_31	257.315	0.0004783	P_RES
J70_32	264.479	0.0011449	P_RES
J70_33	270.966	0.0005492	P_RES
J70_34	277.444	0.0023352	P_COM
J70_35	284.569	0.0009954	P_RES
J70_36	292.410	0.0007557	P_RES
J70_37	296.957	0.0010287	P_COM
J70_38	303.462	0.0024232	P_IND
J70_39	311.066	0.0016059	P_COM
J70_40	318.134	0.0007812	P_RES
J70_41	324.878	0.0010278	P_RES
J70_42	331.069	0.0018259	P_COM
J70_43	336.671	0.0010524	P_RES
J70_44	344.328	0.0012486	P_COM
J70_45	350.948	0.0021335	P_RES
J70_46	357.181	0.0030855	P_COM
J70_47	363.732	0.0015516	P_IND
J70_48	370.135	0.0030786	P_RES
J70_49	376.183	0.0006253	P_RES
J70_50	382.399	0.0006685	P_RES
J70_51	387.427	0.0009857	P_RES
J70_52	394.876	0.0023408	P_RES
J70_53	399.996	0.0009346	P_RES
J70_54	406.622	0.0018886	P_RES
J70_55	413.922	0.0009859	P_RES
J70_56	421.279	0.0039018	P_COM
J70_57	425.847	0.0010300	P_RES
J70_58	432.483	0.0009775	P_RES
J70_59	440.098	0.0008142	P_RES
J70_60	445.215	0.0013576	P_RES
J70_61	452.692	0.0012260	P_COM
J70_62	457.353	0.0028836	P_COM
J70_63	463.630	0.0013381	P_RES
J70_64	470.410	0.0006062	P_RES
J70_65	475.714	0.0011797	P_RES
J70_66	483.297	0.0009160	P_RES
J70_67	489.950	0.0010158	P_RES
J70_68	495.877	0.0009864	P_RES
J70_69	501.490	0.0006396	P_RES
J70_70	507.055	0.0008422	P_RES
J70_71	513.860	0.0034425	P_IND
J70_72	519.350	0.0011913	P_RES
J71_1	52.909	0.0022542	P_RES
J71_2	60.630	0.0011878	P_RES
J71_3	67.005	0.0019235	P_COM
J71_4	74.265	0.0015117	P_IND
J71_5	79.782	0.0005898	P_RES
J71_6	86.791	0.0017171	P_RES
J71_7	94.990	0.0011005	P_RES
J71_8	100.905	0.0011876	P_RES
J71_9	109.141	0.0009001	P_RES
J71_10	115.412	0.0009535	P_RES
J71_11	121.634	0.0014185	P_RES
J71_12	129.041	0.0022143	P_RES
J71_13	136.305	0.0016205	P_RES
J71_14	141.335	0.0024212	P_COM
J71_15	149.779	0.0014987	P_RES
J71_16	155.813	0.0041300	P_IND
J71_17	162.888	0.0009713	P_RES
J71_18	168.753	0.0041797	P_IND
J71_19	175.752	0.0030903	P_RES
J71_20	183.983	0.0006641	P_RES
J71_21	189.769	0.0020327	P_IND
J71_22	196.587	0.0018368	P_COM
J71_23	202.206	0.0007495	P_RES
J71_24	209.755	0.0015467	P_RES
J71_25	215.662	0.0008904	P_RES
J71_26	224.711	0.0011624	P_COM
J71_27	230.841	0.0012960	P_RES
J71_28	237.115	0.0007302	P_RES
J71_29	244.311	0.0017431	P_RES
J71_30	249.848	0.0024416	P_IND
J71_31	257.236	0.0019041	P_RES
J71_32	263.700	0.0014548	P_RES
J71_33	270.773	0.0007922	P_RES
J71_34	275.623	0.0022199	P_COM
J71_35	284.342	0.0025284	P_RES
J71_36	289.910	0.0009823	P_RES
J71_37	296.772	0.0008146	P_RES
J71_38	303.029	0.0030661	P_RES
J71_39	309.757	0.0010829	P_RES
J71_40	316.406	0.0015002	P_RES
J71_41	323.360	0.0009413	P_RES
J71_42	329.832	0.0008596	P_RES
J71_43	334.437	0.0007001	P_RES
J71_44	342.328	0.0027123	P_COM
J71_45	348.530	0.0004714	P_RES
J71_46	355.958	0.0022303	P_COM
J71_47	362.263	0.0023316	P_COM
J71_48	367.217	0.0016420	P_COM
J71_49	373.223	0.0013468	P_RES
J71_50	380.418	0.0018273	P_COM
J71_51	387.005	0.0009481	P_RES
J71_52	392.648	0.0010358	P_RES
J71_53	398.928	0.0018641	P_RES
J71_54	405.879	0.0026402	P_COM
J71_55	412.891	0.0014853	P_RES
J71_56	419.602	0.0010507	P_RES
J71_57	425.693	0.0030864	P_COM
J71_58	431.319	0.0015620	P_COM
J71_59	438.538	0.0013699	P_RES
J71_60	443.614	0.0034952	P_COM
J71_61	449.818	0.0008587	P_RES
J71_62	456.235	0.0007366	P_RES
J71_63	462.247	0.0010591	P_RES
J71_64	468.875	0.0008103	P_RES
J71_65	473.895	0.0013600	P_RES
J71_66	481.474	0.0008946	P_RES
J71_67	487.654	0.0044793	P_IND
J71_68	492.668	0.0008599	P_RES
J71_69	499.071	0.0014342	P_COM
J71_70	505.396	0.0016603	P_RES
J71_71	512.691	0.0006517	P_RES
J71_72	517.998	0.0008617	P_RES
J72_1	52.831	0.0029341	P_COM
J72_2	59.435	0.0012941	P_RES
J72_3	65.272	0.0014471	P_RES
J72_4	73.180	0.0035169	P_IND
J72_5	79.535	0.0011180	P_RES
J72_6	85.747	0.0016974	P_RES
J72_7	93.089	0.0013642	P_RES
J72_8	99.852	0.0017933	P_COM
J72_9	106.887	0.0005749	P_RES
J72_10	113.466	0.0007075	P_RES
J72_11	119.315	0.0030375	P_COM
J72_12	127.484	0.0022279	P_COM
J72_13	134.428	0.0010185	P_RES
J72_14	140.408	0.0014621	P_RES
J72_15	147.084	0.0008674	P_RES
J72_16	154.610	0.0021681	P_COM
J72_17	160.835	0.0030557	P_IND
J72_18	167.686	0.0009932	P_RES
J72_19	174.635	0.0013584	P_RES
J72_20	182.460	0.0014749	P_RES
J72_21	188.005	0.0010292	P_RES
J72_22	193.967	0.0025989	P_RES
J72_23	201.539	0.0030620	P_RES
J72_24	209.174	0.0013072	P_RES
J72_25	214.676	0.0010829	P_RES
J72_26	222.396	0.0012738	P_RES
J72_27	228.242	0.0015275	P_RES
J72_28	234.123	0.0019195	P_RES
J72_29	240.881	0.0024503	P_COM
J72_30	248.395	0.0026070	P_IND
J72_31	254.566	0.0016741	P_COM
J72_32	261.010	0.0015808	P_RES
J72_33	268.173	0.0022288	P_COM
J72_34	274.041	0.0004913	P_RES
J72_35	281.093	0.0015698	P_RES
J72_36	288.045	0.0008827	P_RES
J72_37	295.189	0.0061042	P_IND
J72_38	301.938	0.0020798	P_RES
J72_39	307.420	0.0023539	P_RES
J72_40	313.843	0.0022467	P_COM
J72_41	320.913	0.0025098	P_IND
J72_42	326.347	0.0007745	P_RES
J72_43	334.627	0.0009387	P_RES
J72_44	339.195	0.0009645	P_RES
J72_45	346.109	0.0009635	P_RES
J72_46	352.019	0.0009018	P_RES
J72_47	359.225	0.0013265	P_RES
J72_48	365.247	0.0015254	P_RES
J72_49	372.651	0.0012684	P_RES
J72_50	379.869	0.0012467	P_RES
J72_51	384.256	0.0020875	P_COM
J72_52	391.361	0.0011586	P_RES
J72_53	397.020	0.0016801	P_RES
J72_54	403.861	0.0007138	P_RES
J72_55	410.727	0.0014407	P_RES
J72_56	415.950	0.0009767	P_COM
J72_57	423.036	0.0014653	P_RES
J72_58	428.970	0.0026725	P_RES
J72_59	435.149	0.0007385	P_RES
J72_60	442.146	0.0016159	P_RES
J72_61	448.289	0.0006016	P_RES
J72_62	454.332	0.0012792	P_RES
J72_63	460.465	0.0008185	P_RES
J72_64	468.172	0.0014512	P_RES
J72_65	474.429	0.0013985	P_RES
J72_66	480.358	0.0014962	P_COM
J72_67	486.316	0.0013055	P_RES
J72_68	491.348	0.0007402	P_RES
J72_69	498.587	0.0013051	P_RES
J72_70	503.329	0.0019308	P_COM
J72_71	510.765	0.0020029	P_COM
J72_72	517.610	0.0011605	P_RES


[RESERVOIRS]
;ID	Head	Pattern
R1	240.000


[TANKS]
;ID	Elev	InitLevel	MinLevel	MaxLevel	Diameter	MinVol	VolCurve
T1	187.429	10.000	4.000	16.000	61.000	0.000
T2	315.421	10.000	4.000	16.000	67.000	0.000
T3	433.407	10.000	4.000	16.000	73.000	0.000
T4	554.556	10.000	4.000	16.000	79.000	0.000


[PIPES]
;ID	Node1	Node2	Length	Diameter	Roughness	MinorLoss	Status
P1	J1_1	J1_2	145.00	600.0	130.0	0.0273	Open
P2	J1_1	J2_1	145.00	500.0	120.0	0.0290	Open
P3	J1_2	J1_3	145.00	300.0	120.0	0.0253	Open
P4	J1_2	J2_2	145.00	350.0	120.0	0.0350	Open
P5	J1_3	J1_4	145.00	350.0	125.0	0.0395	Open
P6	J1_3	J2_3	145.00	450.0	120.0	0.0114	Open
P7	J1_4	J1_5	145.00	300.0	120.0	0.0256	Open
P8	J1_4	J2_4	145.00	300.0	130.0	0.0129	Open
P9	J1_5	J1_6	145.00	450.0	120.0	0.0086	Open
P10	J1_5	J2_5	145.00	450.0	120.0	0.0344	Open
P11	J1_6	J1_7	145.00	400.0	130.0	0.0385	Open
P12	J1_6	J2_6	145.00	450.0	120.0	0.0208	Open
P13	J1_7	J1_8	145.00	500.0	120.0	0.0056	Open
P14	J1_7	J2_7	145.00	600.0	130.0	0.0146	Open
P15	J1_8	J1_9	145.00	350.0	120.0	0.0370	Open
P16	J1_8	J2_8	145.00	400.0	130.0	0.0322	Open
P17	J1_9	J1_10	145.00	350.0	125.0	0.0205	Open
P18	J1_9	J2_9	145.00	500.0	125.0	0.0486	Open
P19	J1_10	J1_11	145.00	600.0	125.0	0.0414	Open
P20	J1_10	J2_10	145.00	500.0	120.0	0.0297	Open
P21	J1_11	J1_12	145.00	350.0	130.0	0.0264	Open
P22	J1_11	J2_11	145.00	500.0	120.0	0.0009	Open
P23	J1_12	J1_13	145.00	300.0	120.0	0.0169	Open
P24	J1_12	J2_12	145.00	450.0	130.0	0.0282	Open
P25	J1_13	J1_14	145.00	450.0	130.0	0.0292	Open
P26	J1_13	J2_13	145.00	300.0	125.0	0.0233	Open
P27	J1_14	J1_15	145.00	350.0	125.0	0.0107	Open
P28	J1_14	J2_14	145.00	450.0	125.0	0.0444	Open
P29	J1_15	J1_16	145.00	350.0	130.0	0.0024	Open
P30	J1_15	J2_15	145.00	600.0	130.0	0.0485	Open
P31	J1_16	J1_17	145.00	600.0	130.0	0.0297	Open
P32	J1_16	J2_16	145.00	400.0	120.0	0.0083	Open
P33	J1_17	J1_18	145.00	300.0	125.0	0.0293	Open
P34	J1_17	J2_17	145.00	300.0	125.0	0.0261	Open
P35	J1_18	J1_19	145.00	600.0	130.0	0.0230	Open
P36	J1_18	J2_18	145.00	350.0	125.0	0.0115	Open
P37	J1_19	J1_20	145.00	300.0	125.0	0.0422	Open
P38	J1_19	J2_19	145.00	300.0	130.0	0.0471	Open
P39	J1_20	J1_21	145.00	350.0	125.0	0.0210	Open
P40	J1_20	J2_20	145.00	350.0	120.0	0.0024	Open
P41	J1_21	J1_22	145.00	300.0	125.0	0.0018	Open
P42	J1_21	J2_21	145.00	400.0	125.0	0.0207	Open
P43	J1_22	J1_23	145.00	350.0	130.0	0.0035	Open
P44	J1_22	J2_22	145.00	350.0	125.0	0.0148	Open
P45	J1_23	J1_24	145.00	450.0	130.0	0.0344	Open
P46	J1_23	J2_23	145.00	600.0	130.0	0.0296	Open
P47	J1_24	J1_25	145.00	300.0	120.0	0.0122	Open
P48	J1_24	J2_24	145.00	600.0	120.0	0.0423	Open
P49	J1_25	J1_26	145.00	450.0	130.0	0.0296	Open
P50	J1_25	J2_25	145.00	450.0	130.0	0.0484	Open
P51	J1_26	J1_27	145.00	350.0	120.0	0.0232	Open
P52	J1_26	J2_26	145.00	350.0	120.0	0.0165	Open
P53	J1_27	J1_28	145.00	450.0	120.0	0.0419	Open
P54	J1_27	J2_27	145.00	500.0	125.0	0.0153	Open
P55	J1_28	J1_29	145.00	400.0	120.0	0.0470	Open
P56	J1_28	J2_28	145.00	350.0	130.0	0.0476	Open
P57	J1_29	J1_30	145.00	450.0	125.0	0.0034	Open
P58	J1_29	J2_29	145.00	400.0	130.0	0.0270	Open
P59	J1_30	J1_31	145.00	600.0	125.0	0.0493	Open
P60	J1_30	J2_30	145.00	500.0	120.0	0.0296	Open
P61	J1_31	J1_32	145.00	500.0	125.0	0.0301	Open
P62	J1_31	J2_31	145.00	500.0	125.0	0.0195	Open
P63	J1_32	J1_33	145.00	350.0	125.0	0.0297	Open
P64	J1_32	J2_32	145.00	350.0	130.0	0.0178	Open
P65	J1_33	J1_34	145.00	450.0	125.0	0.0383	Open
P66	J1_33	J2_33	145.00	300.0	120.0	0.0395	Open
P67	J1_34	J1_35	145.00	600.0	120.0	0.0487	Open
P68	J1_34	J2_34	145.00	350.0	130.0	0.0062	Open
P69	J1_35	J1_36	145.00	450.0	120.0	0.0398	Open
P70	J1_35	J2_35	145.00	600.0	125.0	0.0079	Open
P71	J1_36	J1_37	145.00	400.0	120.0	0.0283	Open
P72	J1_36	J2_36	145.00	400.0	125.0	0.0312	Open
P73	J1_37	J1_38	145.00	300.0	130.0	0.0082	Open
P74	J1_37	J2_37	145.00	600.0	130.0	0.0162	Open
P75	J1_38	J1_39	145.00	450.0	130.0	0.0119	Open
P76	J1_38	J2_38	145.00	300.0	125.0	0.0441	Open
P77	J1_39	J1_40	145.00	600.0	130.0	0.0418	Open
P78	J1_39	J2_39	145.00	300.0	125.0	0.0489	Open
P79	J1_40	J1_41	145.00	400.0	125.0	0.0005	Open
P80	J1_40	J2_40	145.00	350.0	130.0	0.0349	Open
P81	J1_41	J1_42	145.00	450.0	130.0	0.0311	Open
P82	J1_41	J2_41	145.00	350.0	125.0	0.0498	Open
P83	J1_42	J1_43	145.00	450.0	125.0	0.0404	Open
P84	J1_42	J2_42	145.00	500.0	130.0	0.0172	Open
P85	J1_43	J1_44	145.00	500.0	120.0	0.0014	Open
P86	J1_43	J2_43	145.00	500.0	130.0	0.0036	Open
P87	J1_44	J1_45	145.00	300.0	125.0	0.0148	Open
P88	J1_44	J2_44	145.00	450.0	130.0	0.0399	Open
P89	J1_45	J1_46	145.00	600.0	130.0	0.0183	Open
P90	J1_45	J2_45	145.00	450.0	125.0	0.0439	Open
P91	J1_46	J1_47	145.00	450.0	130.0	0.0110	Open
P92	J1_46	J2_46	145.00	350.0	130.0	0.0418	Open
P93	J1_47	J1_48	145.00	300.0	130.0	0.0034	Open
P94	J1_47	J2_47	145.00	500.0	130.0	0.0305	Open
P95	J1_48	J1_49	145.00	500.0	125.0	0.0363	Open
P96	J1_48	J2_48	145.00	600.0	120.0	0.0047	Open
P97	J1_49	J1_50	145.00	500.0	120.0	0.0326	Open
P98	J1_49	J2_49	145.00	350.0	120.0	0.0174	Open
P99	J1_50	J1_51	145.00	300.0	120.0	0.0161	Open
P100	J1_50	J2_50	145.00	450.0	120.0	0.0393	Open
P101	J1_51	J1_52	145.00	350.0	120.0	0.0367	Open
P102	J1_51	J2_51	145.00	600.0	120.0	0.0356	Open
P103	J1_52	J1_53	145.00	400.0	130.0	0.0059	Open
P104	J1_52	J2_52	145.00	450.0	130.0	0.0232	Open
P105	J1_53	J1_54	145.00	500.0	130.0	0.0336	Open
P106	J1_53	J2_53	145.00	450.0	130.0	0.0483	Open
P107	J1_54	J1_55	145.00	400.0	120.0	0.0374	Open
P108	J1_54	J2_54	145.00	600.0	130.0	0.0328	Open
P109	J1_55	J1_56	145.00	400.0	120.0	0.0227	Open
P110	J1_55	J2_55	145.00	300.0	125.0	0.0379	Open
P111	J1_56	J1_57	145.00	450.0	120.0	0.0076	Open
P112	J1_56	J2_56	145.00	400.0	120.0	0.0113	Open
P113	J1_57	J1_58	145.00	300.0	125.0	0.0173	Open
P114	J1_57	J2_57	145.00	450.0	120.0	0.0075	Open
P115	J1_58	J1_59	145.00	350.0	130.0	0.0352	Open
P116	J1_58	J2_58	145.00	300.0	130.0	0.0314	Open
P117	J1_59	J1_60	145.00	400.0	120.0	0.0022	Open
P118	J1_59	J2_59	145.00	500.0	120.0	0.0128	Open
P119	J1_60	J1_61	145.00	500.0	120.0	0.0051	Open
P120	J1_60	J2_60	145.00	300.0	120.0	0.0319	Open
P121	J1_61	J1_62	145.00	350.0	130.0	0.0216	Open
P122	J1_61	J2_61	145.00	450.0	130.0	0.0152	Open
P123	J1_62	J1_63	145.00	350.0	130.0	0.0278	Open
P124	J1_62	J2_62	145.00	350.0	130.0	0.0283	Open
P125	J1_63	J1_64	145.00	450.0	130.0	0.0214	Open
P126	J1_63	J2_63	145.00	450.0	120.0	0.0035	Open
P127	J1_64	J1_65	145.00	350.0	120.0	0.0339	Open
P128	J1_64	J2_64	145.00	300.0	130.0	0.0028	Open
P129	J1_65	J1_66	145.00	450.0	120.0	0.0488	Open
P130	J1_65	J2_65	145.00	400.0	120.0	0.0462	Open
P131	J1_66	J1_67	145.00	500.0	125.0	0.0319	Open
P132	J1_66	J2_66	145.00	500.0	125.0	0.0271	Open
P133	J1_67	J1_68	145.00	500.0	120.0	0.0411	Open
P134	J1_67	J2_67	145.00	600.0	125.0	0.0485	Open
P135	J1_68	J1_69	145.00	450.0	130.0	0.0102	Open
P136	J1_68	J2_68	145.00	450.0	130.0	0.0354	Open
P137	J1_69	J1_70	145.00	300.0	120.0	0.0363	Open
P138	J1_69	J2_69	145.00	400.0	130.0	0.0243	Open
P139	J1_70	J1_71	145.00	600.0	120.0	0.0042	Open
P140	J1_70	J2_70	145.00	600.0	130.0	0.0230	Open
P141	J1_71	J1_72	145.00	300.0	120.0	0.0354	Open
P142	J1_71	J2_71	145.00	600.0	120.0	0.0287	Open
P143	J1_72	J2_72	145.00	350.0	120.0	0.0145	Open
P144	J2_1	J2_2	145.00	350.0	130.0	0.0178	Open
P145	J2_1	J3_1	145.00	600.0	120.0	0.0311	Open
P146	J2_2	J2_3	145.00	100.0	130.0	0.0207	Open
P147	J2_2	J3_2	145.00	100.0	140.0	0.0047	Open
P148	J2_3	J2_4	145.00	150.0	130.0	0.1218	Open
P149	J2_3	J3_3	145.00	300.0	135.0	0.0151	Open
P150	J2_4	J2_5	145.00	200.0	140.0	0.1295	Open
P151	J2_4	J3_4	145.00	200.0	135.0	0.1179	Open
P152	J2_5	J2_6	145.00	300.0	130.0	0.1461	Open
P153	J2_5	J3_5	145.00	250.0	125.0	0.0162	Open
P154	J2_6	J2_7	145.00	200.0	140.0	0.0047	Open
P155	J2_6	J3_6	145.00	250.0	125.0	0.0530	Open
P156	J2_7	J2_8	145.00	100.0	130.0	0.1061	Open
P157	J2_7	J3_7	145.00	100.0	125.0	0.0761	Open
P158	J2_8	J2_9	145.00	200.0	125.0	0.0765	Open
P159	J2_8	J3_8	145.00	300.0	140.0	0.1415	Open
P160	J2_9	J2_10	145.00	200.0	130.0	0.1393	Open
P161	J2_9	J3_9	145.00	100.0	140.0	0.0842	Open
P162	J2_10	J2_11	145.00	200.0	130.0	0.0901	Open
P163	J2_10	J3_10	145.00	300.0	135.0	0.1098	Open
P164	J2_11	J2_12	145.00	450.0	130.0	0.0232	Open
P165	J2_11	J3_11	145.00	350.0	120.0	0.0219	Open
P166	J2_12	J2_13	145.00	300.0	135.0	0.0911	Open
P167	J2_12	J3_12	145.00	100.0	125.0	0.0452	Open
P168	J2_13	J2_14	145.00	300.0	125.0	0.0967	Open
P169	J2_13	J3_13	145.00	250.0	125.0	0.1162	Open
P170	J2_14	J2_15	145.00	200.0	125.0	0.1061	Open
P171	J2_14	J3_14	145.00	300.0	130.0	0.1485	Open
P172	J2_15	J2_16	145.00	150.0	140.0	0.0565	Open
P173	J2_15	J3_15	145.00	250.0	140.0	0.1294	Open
P174	J2_16	J2_17	145.00	150.0	135.0	0.1492	Open
P175	J2_16	J3_16	145.00	300.0	135.0	0.1108	Open
P176	J2_17	J2_18	145.00	250.0	125.0	0.0253	Open
P177	J2_17	J3_17	145.00	300.0	140.0	0.0874	Open
P178	J2_18	J2_19	145.00	150.0	140.0	0.0761	Open
P179	J2_18	J3_18	145.00	250.0	130.0	0.0936	Open
P180	J2_19	J2_20	145.00	300.0	140.0	0.1400	Open
P181	J2_19	J3_19	145.00	200.0	135.0	0.0760	Open
P182	J2_20	J2_21	145.00	250.0	125.0	0.0349	Open
P183	J2_20	J3_20	145.00	250.0	130.0	0.0838	Open
P184	J2_21	J2_22	145.00	500.0	120.0	0.0124	Open
P185	J2_21	J3_21	145.00	600.0	130.0	0.0204	Open
P186	J2_22	J2_23	145.00	300.0	135.0	0.1431	Open
P187	J2_22	J3_22	145.00	150.0	140.0	0.0901	Open
P188	J2_23	J2_24	145.00	150.0	140.0	0.0089	Open
P189	J2_23	J3_23	145.00	150.0	130.0	0.0428	Open
P190	J2_24	J2_25	145.00	300.0	125.0	0.1281	Open
P191	J2_24	J3_24	145.00	150.0	135.0	0.1220	Open
P192	J2_25	J2_26	145.00	200.0	140.0	0.0421	Open
P193	J2_25	J3_25	145.00	250.0	140.0	0.1104	Open
P194	J2_26	J2_27	145.00	250.0	125.0	0.1187	Open
P195	J2_26	J3_26	145.00	200.0	130.0	0.1223	Open
P196	J2_27	J2_28	145.00	250.0	125.0	0.0373	Open
P197	J2_27	J3_27	145.00	250.0	130.0	0.1029	Open
P198	J2_28	J2_29	145.00	100.0	135.0	0.0009	Open
P199	J2_28	J3_28	145.00	200.0	135.0	0.0800	Open
P200	J2_29	J2_30	145.00	200.0	130.0	0.0211	Open
P201	J2_29	J3_29	145.00	200.0	140.0	0.1445	Open
P202	J2_30	J2_31	145.00	250.0	140.0	0.1333	Open
P203	J2_30	J3_30	145.00	300.0	140.0	0.0134	Open
P204	J2_31	J2_32	145.00	350.0	120.0	0.0228	Open
P205	J2_31	J3_31	145.00	400.0	125.0	0.0312	Open
P206	J2_32	J2_33	145.00	250.0	130.0	0.1434	Open
P207	J2_32	J3_32	145.00	150.0	140.0	0.1242	Open
P208	J2_33	J2_34	145.00	100.0	130.0	0.1256	Open
P209	J2_33	J3_33	145.00	200.0	130.0	0.1308	Open
P210	J2_34	J2_35	145.00	150.0	140.0	0.1260	Open
P211	J2_34	J3_34	145.00	200.0	135.0	0.1491	Open
P212	J2_35	J2_36	145.00	150.0	140.0	0.0712	Open
P213	J2_35	J3_35	145.00	150.0	135.0	0.1010	Open
P214	J2_36	J2_37	145.00	150.0	130.0	0.0954	Open
P215	J2_36	J3_36	145.00	250.0	130.0	0.0339	Open
P216	J2_37	J2_38	145.00	100.0	135.0	0.1275	Open
P217	J2_37	J3_37	145.00	150.0	135.0	0.1288	Open
P218	J2_38	J2_39	145.00	100.0	135.0	0.0718	Open
P219	J2_38	J3_38	145.00	150.0	125.0	0.1337	Open
P220	J2_39	J2_40	145.00	200.0	135.0	0.0007	Open
P221	J2_39	J3_39	145.00	250.0	125.0	0.0352	Open
P222	J2_40	J2_41	145.00	250.0	135.0	0.1070	Open
P223	J2_40	J3_40	145.00	200.0	140.0	0.1126	Open
P224	J2_41	J2_42	145.00	500.0	130.0	0.0313	Open
P225	J2_41	J3_41	145.00	400.0	120.0	0.0005	Open
P226	J2_42	J2_43	145.00	200.0	125.0	0.0874	Open
P227	J2_42	J3_42	145.00	250.0	125.0	0.1455	Open
P228	J2_43	J2_44	145.00	200.0	130.0	0.0241	Open
P229	J2_43	J3_43	145.00	200.0	125.0	0.0880	Open
P230	J2_44	J2_45	145.00	150.0	130.0	0.0310	Open
P231	J2_44	J3_44	145.00	200.0	140.0	0.0961	Open
P232	J2_45	J2_46	145.00	150.0	135.0	0.1485	Open
P233	J2_45	J3_45	145.00	250.0	125.0	0.0497	Open
P234	J2_46	J2_47	145.00	200.0	125.0	0.0145	Open
P235	J2_46	J3_46	145.00	300.0	125.0	0.0715	Open
P236	J2_47	J2_48	145.00	150.0	140.0	0.0037	Open
P237	J2_47	J3_47	145.00	150.0	130.0	0.1309	Open
P238	J2_48	J2_49	145.00	200.0	125.0	0.0400	Open
P239	J2_48	J3_48	145.00	250.0	140.0	0.0918	Open
P240	J2_49	J2_50	145.00	200.0	135.0	0.0451	Open
P241	J2_49	J3_49	145.00	200.0	125.0	0.0308	Open
P242	J2_50	J2_51	145.00	200.0	125.0	0.0891	Open
P243	J2_50	J3_50	145.00	150.0	140.0	0.1184	Open
P244	J2_51	J2_52	145.00	400.0	120.0	0.0353	Open
P245	J2_51	J3_51	145.00	300.0	120.0	0.0185	Open
P246	J2_52	J2_53	145.00	300.0	125.0	0.1264	Open
P247	J2_52	J3_52	145.00	150.0	140.0	0.0584	Open
P248	J2_53	J2_54	145.00	200.0	140.0	0.0042	Open
P249	J2_53	J3_53	145.00	100.0	125.0	0.0636	Open
P250	J2_54	J2_55	145.00	150.0	140.0	0.0905	Open
P251	J2_54	J3_54	145.00	150.0	125.0	0.0981	Open
P252	J2_55	J2_56	145.00	150.0	125.0	0.0996	Open
P253	J2_55	J3_55	145.00	200.0	140.0	0.0493	Open
P254	J2_56	J2_57	145.00	300.0	125.0	0.0920	Open
P255	J2_56	J3_56	145.00	100.0	130.0	0.1490	Open
P256	J2_57	J2_58	145.00	200.0	130.0	0.0786	Open
P257	J2_57	J3_57	145.00	150.0	140.0	0.1001	Open
P258	J2_58	J2_59	145.00	250.0	130.0	0.0610	Open
P259	J2_58	J3_58	145.00	300.0	130.0	0.0552	Open
P260	J2_59	J2_60	145.00	150.0	135.0	0.0987	Open
P261	J2_59	J3_59	145.00	100.0	130.0	0.1480	Open
P262	J2_60	J2_61	145.00	100.0	125.0	0.0895	Open
P263	J2_60	J3_60	145.00	300.0	130.0	0.0827	Open
P264	J2_61	J2_62	145.00	450.0	130.0	0.0264	Open
P265	J2_61	J3_61	145.00	350.0	125.0	0.0373	Open
P266	J2_62	J2_63	145.00	250.0	130.0	0.1224	Open
P267	J2_62	J3_62	145.00	250.0	135.0	0.1059	Open
P268	J2_63	J2_64	145.00	200.0	140.0	0.1074	Open
P269	J2_63	J3_63	145.00	150.0	135.0	0.0093	Open
P270	J2_64	J2_65	145.00	300.0	130.0	0.0657	Open
P271	J2_64	J3_64	145.00	150.0	140.0	0.0133	Open
P272	J2_65	J2_66	145.00	100.0	135.0	0.0903	Open
P273	J2_65	J3_65	145.00	200.0	135.0	0.1225	Open
P274	J2_66	J2_67	145.00	200.0	140.0	0.0522	Open
P275	J2_66	J3_66	145.00	100.0	125.0	0.1045	Open
P276	J2_67	J2_68	145.00	250.0	130.0	0.0342	Open
P277	J2_67	J3_67	145.00	300.0	140.0	0.1172	Open
P278	J2_68	J2_69	145.00	150.0	135.0	0.1342	Open
P279	J2_68	J3_68	145.00	250.0	125.0	0.0652	Open
P280	J2_69	J2_70	145.00	100.0	140.0	0.0270	Open
P281	J2_69	J3_69	145.00	300.0	125.0	0.0438	Open
P282	J2_70	J2_71	145.00	150.0	140.0	0.1062	Open
P283	J2_70	J3_70	145.00	100.0	125.0	0.1177	Open
P284	J2_71	J2_72	145.00	500.0	120.0	0.0194	Open
P285	J2_71	J3_71	145.00	350.0	120.0	0.0017	Open
P286	J2_72	J3_72	145.00	300.0	125.0	0.1348	Open
P287	J3_1	J3_2	145.00	350.0	130.0	0.0443	Open
P288	J3_1	J4_1	145.00	400.0	130.0	0.0326	Open
P289	J3_2	J3_3	145.00	300.0	125.0	0.0766	Open
P290	J3_2	J4_2	145.00	250.0	140.0	0.1169	Open
P291	J3_3	J3_4	145.00	300.0	130.0	0.0090	Open
P292	J3_3	J4_3	145.00	200.0	135.0	0.1125	Open
P293	J3_4	J3_5	145.00	150.0	140.0	0.0107	Open
P294	J3_4	J4_4	145.00	100.0	130.0	0.0767	Open
P295	J3_5	J3_6	145.00	250.0	130.0	0.0533	Open
P296	J3_5	J4_5	145.00	300.0	130.0	0.0054	Open
P297	J3_6	J3_7	145.00	300.0	125.0	0.1283	Open
P298	J3_6	J4_6	145.00	150.0	135.0	0.0937	Open
P299	J3_7	J3_8	145.00	100.0	140.0	0.0205	Open
P300	J3_7	J4_7	145.00	100.0	135.0	0.0039	Open
P301	J3_8	J3_9	145.00	200.0	135.0	0.0082	Open
P302	J3_8	J4_8	145.00	100.0	135.0	0.0159	Open
P303	J3_9	J3_10	145.00	100.0	125.0	0.0602	Open
P304	J3_9	J4_9	145.00	100.0	130.0	0.0255	Open
P305	J3_10	J3_11	145.00	100.0	125.0	0.0499	Open
P306	J3_10	J4_10	145.00	100.0	140.0	0.0917	Open
P307	J3_11	J3_12	145.00	350.0	130.0	0.0120	Open
P308	J3_11	J4_11	145.00	450.0	130.0	0.0193	Open
P309	J3_12	J3_13	145.00	150.0	130.0	0.0597	Open
P310	J3_12	J4_12	145.00	100.0	125.0	0.0203	Open
P311	J3_13	J3_14	145.00	250.0	130.0	0.1074	Open
P312	J3_13	J4_13	145.00	250.0	135.0	0.0772	Open
P313	J3_14	J3_15	145.00	150.0	130.0	0.0807	Open
P314	J3_14	J4_14	145.00	150.0	125.0	0.0499	Open
P315	J3_15	J3_16	145.00	150.0	125.0	0.0076	Open
P316	J3_15	J4_15	145.00	300.0	130.0	0.0158	Open
P317	J3_16	J3_17	145.00	150.0	130.0	0.0447	Open
P318	J3_16	J4_16	145.00	200.0	140.0	0.0812	Open
P319	J3_17	J3_18	145.00	300.0	140.0	0.0035	Open
P320	J3_17	J4_17	145.00	100.0	135.0	0.0311	Open
P321	J3_18	J3_19	145.00	200.0	135.0	0.1408	Open
P322	J3_18	J4_18	145.00	200.0	135.0	0.0620	Open
P323	J3_19	J3_20	145.00	100.0	130.0	0.0080	Open
P324	J3_19	J4_19	145.00	200.0	140.0	0.0881	Open
P325	J3_20	J3_21	145.00	300.0	135.0	0.1012	Open
P326	J3_20	J4_20	145.00	300.0	140.0	0.0812	Open
P327	J3_21	J3_22	145.00	450.0	130.0	0.0256	Open
P328	J3_21	J4_21	145.00	300.0	120.0	0.0279	Open
P329	J3_22	J3_23	145.00	100.0	130.0	0.1395	Open
P330	J3_22	J4_22	145.00	250.0	135.0	0.0945	Open
P331	J3_23	J3_24	145.00	250.0	135.0	0.0448	Open
P332	J3_23	J4_23	145.00	250.0	140.0	0.0914	Open
P333	J3_24	J3_25	145.00	150.0	140.0	0.0352	Open
P334	J3_24	J4_24	145.00	150.0	125.0	0.0691	Open
P335	J3_25	J3_26	145.00	200.0	125.0	0.0027	Open
P336	J3_25	J4_25	145.00	200.0	125.0	0.0059	Open
P337	J3_26	J3_27	145.00	150.0	140.0	0.1297	Open
P338	J3_26	J4_26	145.00	250.0	140.0	0.1262	Open
P339	J3_27	J3_28	145.00	100.0	135.0	0.0691	Open
P340	J3_27	J4_27	145.00	300.0	135.0	0.1128	Open
P341	J3_28	J3_29	145.00	100.0	130.0	0.1218	Open
P342	J3_28	J4_28	145.00	250.0	125.0	0.1448	Open
P343	J3_29	J3_30	145.00	300.0	125.0	0.0264	Open
P344	J3_29	J4_29	145.00	150.0	130.0	0.0132	Open
P345	J3_30	J3_31	145.00	250.0	140.0	0.0542	Open
P346	J3_30	J4_30	145.00	200.0	135.0	0.1133	Open
P347	J3_31	J3_32	145.00	600.0	130.0	0.0092	Open
P348	J3_31	J4_31	145.00	450.0	125.0	0.0281	Open
P349	J3_32	J3_33	145.00	200.0	135.0	0.0540	Open
P350	J3_32	J4_32	145.00	100.0	135.0	0.0387	Open
P351	J3_33	J3_34	145.00	100.0	140.0	0.0440	Open
P352	J3_33	J4_33	145.00	250.0	140.0	0.1372	Open
P353	J3_34	J3_35	145.00	100.0	130.0	0.0041	Open
P354	J3_34	J4_34	145.00	250.0	140.0	0.1275	Open
P355	J3_35	J3_36	145.00	250.0	130.0	0.0050	Open
P356	J3_35	J4_35	145.00	250.0	140.0	0.0954	Open
P357	J3_36	J3_37	145.00	300.0	130.0	0.0460	Open
P358	J3_36	J4_36	145.00	250.0	140.0	0.1122	Open
P359	J3_37	J3_38	145.00	100.0	125.0	0.1214	Open
P360	J3_37	J4_37	145.00	300.0	140.0	0.0280	Open
P361	J3_38	J3_39	145.00	300.0	135.0	0.0136	Open
P362	J3_38	J4_38	145.00	100.0	135.0	0.1447	Open
P363	J3_39	J3_40	145.00	150.0	135.0	0.0466	Open
P364	J3_39	J4_39	145.00	100.0	125.0	0.0502	Open
P365	J3_40	J3_41	145.00	300.0	125.0	0.0619	Open
P366	J3_40	J4_40	145.00	100.0	130.0	0.0913	Open
P367	J3_41	J3_42	145.00	500.0	120.0	0.0117	Open
P368	J3_41	J4_41	145.00	600.0	130.0	0.0115	Open
P369	J3_42	J3_43	145.00	200.0	140.0	0.0336	Open
P370	J3_42	J4_42	145.00	250.0	130.0	0.0138	Open
P371	J3_43	J3_44	145.00	250.0	135.0	0.0499	Open
P372	J3_43	J4_43	145.00	300.0	135.0	0.1217	Open
P373	J3_44	J3_45	145.00	150.0	130.0	0.0527	Open
P374	J3_44	J4_44	145.00	250.0	135.0	0.0853	Open
P375	J3_45	J3_46	145.00	300.0	140.0	0.0381	Open
P376	J3_45	J4_45	145.00	100.0	125.0	0.1125	Open
P377	J3_46	J3_47	145.00	300.0	130.0	0.0878	Open
P378	J3_46	J4_46	145.00	300.0	140.0	0.0742	Open
P379	J3_47	J3_48	145.00	200.0	140.0	0.0960	Open
P380	J3_47	J4_47	145.00	200.0	140.0	0.1058	Open
P381	J3_48	J3_49	145.00	150.0	135.0	0.0461	Open
P382	J3_48	J4_48	145.00	200.0	135.0	0.0335	Open
P383	J3_49	J3_50	145.00	100.0	130.0	0.1104	Open
P384	J3_49	J4_49	145.00	150.0	130.0	0.0935	Open
P385	J3_50	J3_51	145.00	100.0	130.0	0.0917	Open
P386	J3_50	J4_50	145.00	300.0	135.0	0.1457	Open
P387	J3_51	J3_52	145.00	350.0	120.0	0.0236	Open
P388	J3_51	J4_51	145.00	400.0	130.0	0.0323	Open
P389	J3_52	J3_53	145.00	250.0	130.0	0.1161	Open
P390	J3_52	J4_52	145.00	100.0	140.0	0.0324	Open
P391	J3_53	J3_54	145.00	200.0	135.0	0.0465	Open
P392	J3_53	J4_53	145.00	150.0	130.0	0.1458	Open
P393	J3_54	J3_55	145.00	100.0	135.0	0.0258	Open
P394	J3_54	J4_54	145.00	150.0	135.0	0.0871	Open
P395	J3_55	J3_56	145.00	100.0	135.0	0.0988	Open
P396	J3_55	J4_55	145.00	200.0	140.0	0.1392	Open
P397	J3_56	J3_57	145.00	250.0	135.0	0.0327	Open
P398	J3_56	J4_56	145.00	150.0	140.0	0.1183	Open
P399	J3_57	J3_58	145.00	100.0	130.0	0.0934	Open
P400	J3_57	J4_57	145.00	250.0	140.0	0.0136	Open
P401	J3_58	J3_59	145.00	300.0	140.0	0.0085	Open
P402	J3_58	J4_58	145.00	100.0	140.0	0.0280	Open
P403	J3_59	J3_60	145.00	150.0	140.0	0.0524	Open
P404	J3_59	J4_59	145.00	100.0	125.0	0.1013	Open
P405	J3_60	J3_61	145.00	300.0	130.0	0.0836	Open
P406	J3_60	J4_60	145.00	300.0	140.0	0.1467	Open
P407	J3_61	J3_62	145.00	600.0	120.0	0.0389	Open
P408	J3_61	J4_61	145.00	400.0	125.0	0.0338	Open
P409	J3_62	J3_63	145.00	300.0	140.0	0.0050	Open
P410	J3_62	J4_62	145.00	300.0	140.0	0.0240	Open
P411	J3_63	J3_64	145.00	150.0	125.0	0.0774	Open
P412	J3_63	J4_63	145.00	250.0	140.0	0.0848	Open
P413	J3_64	J3_65	145.00	300.0	125.0	0.0203	Open
P414	J3_64	J4_64	145.00	200.0	140.0	0.0964	Open
P415	J3_65	J3_66	145.00	150.0	140.0	0.0445	Open
P416	J3_65	J4_65	145.00	200.0	130.0	0.0213	Open
P417	J3_66	J3_67	145.00	150.0	125.0	0.0587	Open
P418	J3_66	J4_66	145.00	150.0	140.0	0.0598	Open
P419	J3_67	J3_68	145.00	300.0	135.0	0.0024	Open
P420	J3_67	J4_67	145.00	200.0	140.0	0.0552	Open
P421	J3_68	J3_69	145.00	300.0	135.0	0.0773	Open
P422	J3_68	J4_68	145.00	300.0	135.0	0.0459	Open
P423	J3_69	J3_70	145.00	200.0	135.0	0.0135	Open
P424	J3_69	J4_69	145.00	100.0	125.0	0.1394	Open
P425	J3_70	J3_71	145.00	200.0	130.0	0.1355	Open
P426	J3_70	J4_70	145.00	200.0	135.0	0.0211	Open
P427	J3_71	J3_72	145.00	400.0	120.0	0.0229	Open
P428	J3_71	J4_71	145.00	600.0	120.0	0.0433	Open
P429	J3_72	J4_72	145.00	200.0	140.0	0.1239	Open
P430	J4_1	J4_2	145.00	450.0	125.0	0.0286	Open
P431	J4_1	J5_1	145.00	400.0	120.0	0.0184	Open
P432	J4_2	J4_3	145.00	100.0	125.0	0.1204	Open
P433	J4_2	J5_2	145.00	150.0	130.0	0.1237	Open
P434	J4_3	J4_4	145.00	100.0	125.0	0.1148	Open
P435	J4_3	J5_3	145.00	250.0	135.0	0.0509	Open
P436	J4_4	J4_5	145.00	200.0	135.0	0.1227	Open
P437	J4_4	J5_4	145.00	200.0	140.0	0.0739	Open
P438	J4_5	J4_6	145.00	100.0	130.0	0.1281	Open
P439	J4_5	J5_5	145.00	200.0	130.0	0.1231	Open
P440	J4_6	J4_7	145.00	300.0	135.0	0.0851	Open
P441	J4_6	J5_6	145.00	150.0	130.0	0.1497	Open
P442	J4_7	J4_8	145.00	200.0	140.0	0.1403	Open
P443	J4_7	J5_7	145.00	150.0	130.0	0.0346	Open
P444	J4_8	J4_9	145.00	100.0	125.0	0.0412	Open
P445	J4_8	J5_8	145.00	100.0	140.0	0.0628	Open
P446	J4_9	J4_10	145.00	150.0	125.0	0.0827	Open
P447	J4_9	J5_9	145.00	200.0	140.0	0.0947	Open
P448	J4_10	J4_11	145.00	150.0	140.0	0.0947	Open
P449	J4_10	J5_10	145.00	200.0	125.0	0.0438	Open
P450	J4_11	J4_12	145.00	300.0	130.0	0.0338	Open
P451	J4_11	J5_11	145.00	500.0	130.0	0.0034	Open
P452	J4_12	J4_13	145.00	100.0	135.0	0.0588	Open
P453	J4_12	J5_12	145.00	250.0	130.0	0.0984	Open
P454	J4_13	J4_14	145.00	200.0	140.0	0.0439	Open
P455	J4_13	J5_13	145.00	150.0	135.0	0.1372	Open
P456	J4_14	J4_15	145.00	250.0	130.0	0.1220	Open
P457	J4_14	J5_14	145.00	250.0	125.0	0.0064	Open
P458	J4_15	J4_16	145.00	300.0	130.0	0.0420	Open
P459	J4_15	J5_15	145.00	200.0	140.0	0.0906	Open
P460	J4_16	J4_17	145.00	200.0	130.0	0.0047	Open
P461	J4_16	J5_16	145.00	100.0	140.0	0.0964	Open
P462	J4_17	J4_18	145.00	100.0	140.0	0.1007	Open
P463	J4_17	J5_17	145.00	100.0	125.0	0.0865	Open
P464	J4_18	J4_19	145.00	200.0	140.0	0.0441	Open
P465	J4_18	J5_18	145.00	300.0	130.0	0.0018	Open
P466	J4_19	J4_20	145.00	150.0	130.0	0.0392	Open
P467	J4_19	J5_19	145.00	250.0	135.0	0.0744	Open
P468	J4_20	J4_21	145.00	300.0	135.0	0.1369	Open
P469	J4_20	J5_20	145.00	150.0	130.0	0.1342	Open
P470	J4_21	J4_22	145.00	400.0	125.0	0.0355	Open
P471	J4_21	J5_21	145.00	500.0	125.0	0.0446	Open
P472	J4_22	J4_23	145.00	200.0	125.0	0.1323	Open
P473	J4_22	J5_22	145.00	100.0	130.0	0.0847	Open
P474	J4_23	J4_24	145.00	200.0	125.0	0.1053	Open
P475	J4_23	J5_23	145.00	100.0	125.0	0.0360	Open
P476	J4_24	J4_25	145.00	200.0	130.0	0.1471	Open
P477	J4_24	J5_24	145.00	300.0	130.0	0.0006	Open
P478	J4_25	J4_26	145.00	150.0	140.0	0.1089	Open
P479	J4_25	J5_25	145.00	200.0	130.0	0.0400	Open
P480	J4_26	J4_27	145.00	250.0	130.0	0.0789	Open
P481	J4_26	J5_26	145.00	300.0	125.0	0.1389	Open
P482	J4_27	J4_28	145.00	100.0	135.0	0.0275	Open
P483	J4_27	J5_27	145.00	100.0	135.0	0.0963	Open
P484	J4_28	J4_29	145.00	200.0	140.0	0.0970	Open
P485	J4_28	J5_28	145.00	300.0	140.0	0.0058	Open
P486	J4_29	J4_30	145.00	150.0	140.0	0.1236	Open
P487	J4_29	J5_29	145.00	150.0	140.0	0.1256	Open
P488	J4_30	J4_31	145.00	250.0	130.0	0.1209	Open
P489	J4_30	J5_30	145.00	150.0	140.0	0.1394	Open
P490	J4_31	J4_32	145.00	600.0	130.0	0.0053	Open
P491	J4_31	J5_31	145.00	450.0	130.0	0.0235	Open
P492	J4_32	J4_33	145.00	200.0	125.0	0.0721	Open
P493	J4_32	J5_32	145.00	250.0	135.0	0.1119	Open
P494	J4_33	J4_34	145.00	200.0	125.0	0.0293	Open
P495	J4_33	J5_33	145.00	150.0	140.0	0.0426	Open
P496	J4_34	J4_35	145.00	250.0	125.0	0.0727	Open
P497	J4_34	J5_34	145.00	200.0	135.0	0.1060	Open
P498	J4_35	J4_36	145.00	300.0	130.0	0.0057	Open
P499	J4_35	J5_35	145.00	150.0	130.0	0.0016	Open
P500	J4_36	J4_37	145.00	150.0	130.0	0.0703	Open
P501	J4_36	J5_36	145.00	150.0	140.0	0.0418	Open
P502	J4_37	J4_38	145.00	200.0	125.0	0.1315	Open
P503	J4_37	J5_37	145.00	300.0	135.0	0.0120	Open
P504	J4_38	J4_39	145.00	200.0	135.0	0.0361	Open
P505	J4_38	J5_38	145.00	100.0	125.0	0.0230	Open
P506	J4_39	J4_40	145.00	250.0	130.0	0.0301	Open
P507	J4_39	J5_39	145.00	300.0	135.0	0.0634	Open
P508	J4_40	J4_41	145.00	200.0	125.0	0.0112	Open
P509	J4_40	J5_40	145.00	150.0	135.0	0.0734	Open
P510	J4_41	J4_42	145.00	350.0	125.0	0.0099	Open
P511	J4_41	J5_41	145.00	300.0	120.0	0.0117	Open
P512	J4_42	J4_43	145.00	200.0	135.0	0.0317	Open
P513	J4_42	J5_42	145.00	200.0	130.0	0.1439	Open
P514	J4_43	J4_44	145.00	300.0	130.0	0.1154	Open
P515	J4_43	J5_43	145.00	300.0	125.0	0.1367	Open
P516	J4_44	J4_45	145.00	250.0	135.0	0.0092	Open
P517	J4_44	J5_44	145.00	300.0	135.0	0.1317	Open
P518	J4_45	J4_46	145.00	300.0	130.0	0.0735	Open
P519	J4_45	J5_45	145.00	250.0	130.0	0.1486	Open
P520	J4_46	J4_47	145.00	300.0	125.0	0.1136	Open
P521	J4_46	J5_46	145.00	300.0	125.0	0.0963	Open
P522	J4_47	J4_48	145.00	150.0	125.0	0.1387	Open
P523	J4_47	J5_47	145.00	200.0	140.0	0.0182	Open
P524	J4_48	J4_49	145.00	250.0	140.0	0.0131	Open
P525	J4_48	J5_48	145.00	300.0	135.0	0.1192	Open
P526	J4_49	J4_50	145.00	250.0	125.0	0.1218	Open
P527	J4_49	J5_49	145.00	300.0	130.0	0.0750	Open
P528	J4_50	J4_51	145.00	250.0	135.0	0.0713	Open
P529	J4_50	J5_50	145.00	250.0	135.0	0.0278	Open
P530	J4_51	J4_52	145.00	600.0	120.0	0.0076	Open
P531	J4_51	J5_51	145.00	500.0	130.0	0.0212	Open
P532	J4_52	J4_53	145.00	200.0	140.0	0.1144	Open
P533	J4_52	J5_52	145.00	150.0	125.0	0.0762	Open
P534	J4_53	J4_54	145.00	250.0	125.0	0.0075	Open
P535	J4_53	J5_53	145.00	100.0	140.0	0.0128	Open
P536	J4_54	J4_55	145.00	100.0	125.0	0.1139	Open
P537	J4_54	J5_54	145.00	150.0	135.0	0.1283	Open
P538	J4_55	J4_56	145.00	250.0	140.0	0.1226	Open
P539	J4_55	J5_55	145.00	200.0	135.0	0.0946	Open
P540	J4_56	J4_57	145.00	250.0	130.0	0.0940	Open
P541	J4_56	J5_56	145.00	300.0	130.0	0.1065	Open
P542	J4_57	J4_58	145.00	250.0	130.0	0.0227	Open
P543	J4_57	J5_57	145.00	250.0	140.0	0.1170	Open
P544	J4_58	J4_59	145.00	100.0	125.0	0.0524	Open
P545	J4_58	J5_58	145.00	100.0	130.0	0.0138	Open
P546	J4_59	J4_60	145.00	100.0	135.0	0.0054	Open
P547	J4_59	J5_59	145.00	100.0	140.0	0.0894	Open
P548	J4_60	J4_61	145.00	300.0	130.0	0.0797	Open
P549	J4_60	J5_60	145.00	200.0	140.0	0.0116	Open
P550	J4_61	J4_62	145.00	400.0	130.0	0.0035	Open
P551	J4_61	J5_61	145.00	600.0	130.0	0.0105	Open
P552	J4_62	J4_63	145.00	100.0	125.0	0.0429	Open
P553	J4_62	J5_62	145.00	250.0	140.0	0.0851	Open
P554	J4_63	J4_64	145.00	250.0	130.0	0.0190	Open
P555	J4_63	J5_63	145.00	300.0	125.0	0.0721	Open
P556	J4_64	J4_65	145.00	100.0	125.0	0.0782	Open
P557	J4_64	J5_64	145.00	300.0	130.0	0.0249	Open
P558	J4_65	J4_66	145.00	300.0	130.0	0.0732	Open
P559	J4_65	J5_65	145.00	150.0	125.0	0.0118	Open
P560	J4_66	J4_67	145.00	100.0	125.0	0.0906	Open
P561	J4_66	J5_66	145.00	200.0	135.0	0.1137	Open
P562	J4_67	J4_68	145.00	150.0	125.0	0.0605	Open
P563	J4_67	J5_67	145.00	100.0	125.0	0.0282	Open
P564	J4_68	J4_69	145.00	200.0	130.0	0.0802	Open
P565	J4_68	J5_68	145.00	100.0	135.0	0.0543	Open
P566	J4_69	J4_70	145.00	100.0	135.0	0.0496	Open
P567	J4_69	J5_69	145.00	150.0	125.0	0.1308	Open
P568	J4_70	J4_71	145.00	100.0	130.0	0.1013	Open
P569	J4_70	J5_70	145.00	300.0	130.0	0.0031	Open
P570	J4_71	J4_72	145.00	350.0	125.0	0.0285	Open
P571	J4_71	J5_71	145.00	500.0	120.0	0.0103	Open
P572	J4_72	J5_72	145.00	300.0	135.0	0.1444	Open
P573	J5_1	J5_2	145.00	450.0	125.0	0.0425	Open
P574	J5_1	J6_1	145.00	400.0	120.0	0.0096	Open
P575	J5_2	J5_3	145.00	250.0	140.0	0.0930	Open
P576	J5_2	J6_2	145.00	200.0	130.0	0.0284	Open
P577	J5_3	J5_4	145.00	100.0	130.0	0.0695	Open
P578	J5_3	J6_3	145.00	300.0	130.0	0.0426	Open
P579	J5_4	J5_5	145.00	300.0	140.0	0.0587	Open
P580	J5_4	J6_4	145.00	200.0	125.0	0.0657	Open
P581	J5_5	J5_6	145.00	250.0	140.0	0.0949	Open
P582	J5_5	J6_5	145.00	200.0	140.0	0.0583	Open
P583	J5_6	J5_7	145.00	250.0	125.0	0.0717	Open
P584	J5_6	J6_6	145.00	200.0	125.0	0.0781	Open
P585	J5_7	J5_8	145.00	300.0	130.0	0.1417	Open
P586	J5_7	J6_7	145.00	300.0	140.0	0.0684	Open
P587	J5_8	J5_9	145.00	300.0	125.0	0.1434	Open
P588	J5_8	J6_8	145.00	100.0	135.0	0.0042	Open
P589	J5_9	J5_10	145.00	100.0	135.0	0.1419	Open
P590	J5_9	J6_9	145.00	100.0	130.0	0.0281	Open
P591	J5_10	J5_11	145.00	250.0	135.0	0.0484	Open
P592	J5_10	J6_10	145.00	300.0	140.0	0.1342	Open
P593	J5_11	J5_12	145.00	450.0	120.0	0.0444	Open
P594	J5_11	J6_11	145.00	450.0	120.0	0.0496	Open
P595	J5_12	J5_13	145.00	100.0	140.0	0.0794	Open
P596	J5_12	J6_12	145.00	150.0	125.0	0.1138	Open
P597	J5_13	J5_14	145.00	300.0	130.0	0.1310	Open
P598	J5_13	J6_13	145.00	250.0	130.0	0.0227	Open
P599	J5_14	J5_15	145.00	100.0	125.0	0.0213	Open
P600	J5_14	J6_14	145.00	150.0	135.0	0.1435	Open
P601	J5_15	J5_16	145.00	200.0	140.0	0.1424	Open
P602	J5_15	J6_15	145.00	250.0	125.0	0.0303	Open
P603	J5_16	J5_17	145.00	250.0	140.0	0.1235	Open
P604	J5_16	J6_16	145.00	150.0	130.0	0.0395	Open
P605	J5_17	J5_18	145.00	200.0	135.0	0.1371	Open
P606	J5_17	J6_17	145.00	300.0	135.0	0.1176	Open
P607	J5_18	J5_19	145.00	200.0	140.0	0.1028	Open
P608	J5_18	J6_18	145.00	100.0	130.0	0.0800	Open
P609	J5_19	J5_20	145.00	200.0	135.0	0.0608	Open
P610	J5_19	J6_19	145.00	300.0	135.0	0.0475	Open
P611	J5_20	J5_21	145.00	150.0	125.0	0.0600	Open
P612	J5_20	J6_20	145.00	150.0	140.0	0.0641	Open
P613	J5_21	J5_22	145.00	450.0	130.0	0.0451	Open
P614	J5_21	J6_21	145.00	350.0	130.0	0.0108	Open
P615	J5_22	J5_23	145.00	100.0	125.0	0.0865	Open
P616	J5_22	J6_22	145.00	100.0	135.0	0.1331	Open
P617	J5_23	J5_24	145.00	300.0	130.0	0.0548	Open
P618	J5_23	J6_23	145.00	250.0	140.0	0.0982	Open
P619	J5_24	J5_25	145.00	100.0	140.0	0.0962	Open
P620	J5_24	J6_24	145.00	250.0	140.0	0.0378	Open
P621	J5_25	J5_26	145.00	150.0	140.0	0.1090	Open
P622	J5_25	J6_25	145.00	100.0	125.0	0.0764	Open
P623	J5_26	J5_27	145.00	100.0	135.0	0.0109	Open
P624	J5_26	J6_26	145.00	200.0	135.0	0.1285	Open
P625	J5_27	J5_28	145.00	250.0	130.0	0.1476	Open
P626	J5_27	J6_27	145.00	300.0	125.0	0.0993	Open
P627	J5_28	J5_29	145.00	300.0	135.0	0.0465	Open
P628	J5_28	J6_28	145.00	250.0	130.0	0.0757	Open
P629	J5_29	J5_30	145.00	300.0	130.0	0.1431	Open
P630	J5_29	J6_29	145.00	150.0	125.0	0.1463	Open
P631	J5_30	J5_31	145.00	300.0	125.0	0.0475	Open
P632	J5_30	J6_30	145.00	150.0	140.0	0.0128	Open
P633	J5_31	J5_32	145.00	400.0	125.0	0.0148	Open
P634	J5_31	J6_31	145.00	450.0	130.0	0.0030	Open
P635	J5_32	J5_33	145.00	200.0	125.0	0.0571	Open
P636	J5_32	J6_32	145.00	250.0	135.0	0.0828	Open
P637	J5_33	J5_34	145.00	200.0	130.0	0.0631	Open
P638	J5_33	J6_33	145.00	250.0	140.0	0.0220	Open
P639	J5_34	J5_35	145.00	150.0	130.0	0.0310	Open
P640	J5_34	J6_34	145.00	250.0	130.0	0.1242	Open
P641	J5_35	J5_36	145.00	150.0	140.0	0.0253	Open
P642	J5_35	J6_35	145.00	300.0	125.0	0.1281	Open
P643	J5_36	J5_37	145.00	100.0	130.0	0.0517	Open
P644	J5_36	J6_36	145.00	150.0	125.0	0.1278	Open
P645	J5_37	J5_38	145.00	100.0	140.0	0.1202	Open
P646	J5_37	J6_37	145.00	150.0	135.0	0.1274	Open
P647	J5_38	J5_39	145.00	150.0	135.0	0.0260	Open
P648	J5_38	J6_38	145.00	300.0	135.0	0.0644	Open
P649	J5_39	J5_40	145.00	250.0	125.0	0.0173	Open
P650	J5_39	J6_39	145.00	150.0	140.0	0.1371	Open
P651	J5_40	J5_41	145.00	250.0	135.0	0.0540	Open
P652	J5_40	J6_40	145.00	200.0	135.0	0.0166	Open
P653	J5_41	J5_42	145.00	400.0	130.0	0.0252	Open
P654	J5_41	J6_41	145.00	350.0	120.0	0.0123	Open
P655	J5_42	J5_43	145.00	250.0	125.0	0.0893	Open
P656	J5_42	J6_42	145.00	250.0	140.0	0.0573	Open
P657	J5_43	J5_44	145.00	200.0	140.0	0.0635	Open
P658	J5_43	J6_43	145.00	200.0	140.0	0.0712	Open
P659	J5_44	J5_45	145.00	100.0	130.0	0.0464	Open
P660	J5_44	J6_44	145.00	100.0	140.0	0.0408	Open
P661	J5_45	J5_46	145.00	150.0	130.0	0.0831	Open
P662	J5_45	J6_45	145.00	250.0	140.0	0.0776	Open
P663	J5_46	J5_47	145.00	300.0	130.0	0.0319	Open
P664	J5_46	J6_46	145.00	100.0	125.0	0.1298	Open
P665	J5_47	J5_48	145.00	200.0	125.0	0.1470	Open
P666	J5_47	J6_47	145.00	250.0	130.0	0.0862	Open
P667	J5_48	J5_49	145.00	200.0	140.0	0.1075	Open
P668	J5_48	J6_48	145.00	200.0	140.0	0.0559	Open
P669	J5_49	J5_50	145.00	250.0	130.0	0.0864	Open
P670	J5_49	J6_49	145.00	100.0	125.0	0.1181	Open
P671	J5_50	J5_51	145.00	200.0	140.0	0.1333	Open
P672	J5_50	J6_50	145.00	150.0	140.0	0.0808	Open
P673	J5_51	J5_52	145.00	600.0	125.0	0.0157	Open
P674	J5_51	J6_51	145.00	300.0	120.0	0.0402	Open
P675	J5_52	J5_53	145.00	300.0	140.0	0.0299	Open
P676	J5_52	J6_52	145.00	300.0	125.0	0.0890	Open
P677	J5_53	J5_54	145.00	200.0	135.0	0.0751	Open
P678	J5_53	J6_53	145.00	300.0	125.0	0.0338	Open
P679	J5_54	J5_55	145.00	150.0	135.0	0.1388	Open
P680	J5_54	J6_54	145.00	100.0	135.0	0.1026	Open
P681	J5_55	J5_56	145.00	300.0	125.0	0.1217	Open
P682	J5_55	J6_55	145.00	250.0	130.0	0.0184	Open
P683	J5_56	J5_57	145.00	200.0	135.0	0.0718	Open
P684	J5_56	J6_56	145.00	200.0	130.0	0.1477	Open
P685	J5_57	J5_58	145.00	300.0	140.0	0.0413	Open
P686	J5_57	J6_57	145.00	200.0	130.0	0.0704	Open
P687	J5_58	J5_59	145.00	250.0	135.0	0.0980	Open
P688	J5_58	J6_58	145.00	250.0	140.0	0.0892	Open
P689	J5_59	J5_60	145.00	150.0	140.0	0.0816	Open
P690	J5_59	J6_59	145.00	200.0	125.0	0.0654	Open
P691	J5_60	J5_61	145.00	250.0	125.0	0.1039	Open
P692	J5_60	J6_60	145.00	150.0	130.0	0.0218	Open
P693	J5_61	J5_62	145.00	500.0	120.0	0.0070	Open
P694	J5_61	J6_61	145.00	500.0	125.0	0.0242	Open
P695	J5_62	J5_63	145.00	100.0	140.0	0.1149	Open
P696	J5_62	J6_62	145.00	100.0	140.0	0.0664	Open
P697	J5_63	J5_64	145.00	300.0	130.0	0.0181	Open
P698	J5_63	J6_63	145.00	200.0	125.0	0.1442	Open
P699	J5_64	J5_65	145.00	200.0	130.0	0.0557	Open
P700	J5_64	J6_64	145.00	100.0	140.0	0.0172	Open
P701	J5_65	J5_66	145.00	300.0	125.0	0.0337	Open
P702	J5_65	J6_65	145.00	300.0	135.0	0.0690	Open
P703	J5_66	J5_67	145.00	300.0	130.0	0.0978	Open
P704	J5_66	J6_66	145.00	250.0	125.0	0.0338	Open
P705	J5_67	J5_68	145.00	150.0	135.0	0.0179	Open
P706	J5_67	J6_67	145.00	300.0	135.0	0.1067	Open
P707	J5_68	J5_69	145.00	150.0	140.0	0.0200	Open
P708	J5_68	J6_68	145.00	300.0	125.0	0.0673	Open
P709	J5_69	J5_70	145.00	150.0	130.0	0.1254	Open
P710	J5_69	J6_69	145.00	300.0	140.0	0.0722	Open
P711	J5_70	J5_71	145.00	250.0	140.0	0.0426	Open
P712	J5_70	J6_70	145.00	300.0	125.0	0.1129	Open
P713	J5_71	J5_72	145.00	500.0	125.0	0.0359	Open
P714	J5_71	J6_71	145.00	350.0	130.0	0.0041	Open
P715	J5_72	J6_72	145.00	150.0	140.0	0.1231	Open
P716	J6_1	J6_2	145.00	600.0	120.0	0.0111	Open
P717	J6_1	J7_1	145.00	600.0	130.0	0.0219	Open
P718	J6_2	J6_3	145.00	150.0	125.0	0.0651	Open
P719	J6_2	J7_2	145.00	200.0	130.0	0.0111	Open
P720	J6_3	J6_4	145.00	150.0	140.0	0.1414	Open
P721	J6_3	J7_3	145.00	100.0	135.0	0.0505	Open
P722	J6_4	J6_5	145.00	250.0	130.0	0.0002	Open
P723	J6_4	J7_4	145.00	150.0	125.0	0.1257	Open
P724	J6_5	J6_6	145.00	200.0	130.0	0.0268	Open
P725	J6_5	J7_5	145.00	250.0	140.0	0.0910	Open
P726	J6_6	J6_7	145.00	250.0	130.0	0.1300	Open
P727	J6_6	J7_6	145.00	250.0	130.0	0.0783	Open
P728	J6_7	J6_8	145.00	200.0	140.0	0.0389	Open
P729	J6_7	J7_7	145.00	150.0	140.0	0.1128	Open
P730	J6_8	J6_9	145.00	100.0	140.0	0.1056	Open
P731	J6_8	J7_8	145.00	100.0	135.0	0.0451	Open
P732	J6_9	J6_10	145.00	300.0	135.0	0.0091	Open
P733	J6_9	J7_9	145.00	300.0	140.0	0.0908	Open
P734	J6_10	J6_11	145.00	200.0	130.0	0.0552	Open
P735	J6_10	J7_10	145.00	200.0	130.0	0.1360	Open
P736	J6_11	J6_12	145.00	350.0	130.0	0.0170	Open
P737	J6_11	J7_11	145.00	450.0	125.0	0.0272	Open
P738	J6_12	J6_13	145.00	300.0	130.0	0.0337	Open
P739	J6_12	J7_12	145.00	300.0	140.0	0.0067	Open
P740	J6_13	J6_14	145.00	250.0	130.0	0.0291	Open
P741	J6_13	J7_13	145.00	200.0	130.0	0.0682	Open
P742	J6_14	J6_15	145.00	100.0	140.0	0.1288	Open
P743	J6_14	J7_14	145.00	100.0	135.0	0.0172	Open
P744	J6_15	J6_16	145.00	200.0	130.0	0.0600	Open
P745	J6_15	J7_15	145.00	300.0	130.0	0.0830	Open
P746	J6_16	J6_17	145.00	200.0	125.0	0.1127	Open
P747	J6_16	J7_16	145.00	250.0	125.0	0.1218	Open
P748	J6_17	J6_18	145.00	150.0	135.0	0.0656	Open
P749	J6_17	J7_17	145.00	200.0	125.0	0.0133	Open
P750	J6_18	J6_19	145.00	200.0	135.0	0.0655	Open
P751	J6_18	J7_18	145.00	150.0	125.0	0.1418	Open
P752	J6_19	J6_20	145.00	100.0	125.0	0.1375	Open
P753	J6_19	J7_19	145.00	250.0	125.0	0.0710	Open
P754	J6_20	J6_21	145.00	250.0	140.0	0.1452	Open
P755	J6_20	J7_20	145.00	200.0	125.0	0.0605	Open
P756	J6_21	J6_22	145.00	500.0	130.0	0.0062	Open
P757	J6_21	J7_21	145.00	500.0	125.0	0.0352	Open
P758	J6_22	J6_23	145.00	200.0	140.0	0.0305	Open
P759	J6_22	J7_22	145.00	150.0	135.0	0.0296	Open
P760	J6_23	J6_24	145.00	150.0	130.0	0.0207	Open
P761	J6_23	J7_23	145.00	250.0	140.0	0.1034	Open
P762	J6_24	J6_25	145.00	150.0	130.0	0.1227	Open
P763	J6_24	J7_24	145.00	150.0	135.0	0.0561	Open
P764	J6_25	J6_26	145.00	150.0	135.0	0.1219	Open
P765	J6_25	J7_25	145.00	200.0	140.0	0.1214	Open
P766	J6_26	J6_27	145.00	200.0	125.0	0.0806	Open
P767	J6_26	J7_26	145.00	150.0	135.0	0.0491	Open
P768	J6_27	J6_28	145.00	250.0	130.0	0.1022	Open
P769	J6_27	J7_27	145.00	150.0	140.0	0.0747	Open
P770	J6_28	J6_29	145.00	300.0	135.0	0.1132	Open
P771	J6_28	J7_28	145.00	100.0	135.0	0.0851	Open
P772	J6_29	J6_30	145.00	250.0	125.0	0.0578	Open
P773	J6_29	J7_29	145.00	200.0	125.0	0.1471	Open
P774	J6_30	J6_31	145.00	100.0	140.0	0.1255	Open
P775	J6_30	J7_30	145.00	200.0	125.0	0.0704	Open
P776	J6_31	J6_32	145.00	450.0	130.0	0.0479	Open
P777	J6_31	J7_31	145.00	400.0	125.0	0.0426	Open
P778	J6_32	J6_33	145.00	250.0	125.0	0.0939	Open
P779	J6_32	J7_32	145.00	250.0	125.0	0.1340	Open
P780	J6_33	J6_34	145.00	200.0	125.0	0.1070	Open
P781	J6_33	J7_33	145.00	250.0	135.0	0.1488	Open
P782	J6_34	J6_35	145.00	300.0	140.0	0.1423	Open
P783	J6_34	J7_34	145.00	200.0	125.0	0.1010	Open
P784	J6_35	J6_36	145.00	150.0	140.0	0.1436	Open
P785	J6_35	J7_35	145.00	100.0	135.0	0.0362	Open
P786	J6_36	J6_37	145.00	150.0	125.0	0.0783	Open
P787	J6_36	J7_36	145.00	200.0	125.0	0.0600	Open
P788	J6_37	J6_38	145.00	250.0	135.0	0.1393	Open
P789	J6_37	J7_37	145.00	100.0	125.0	0.0734	Open
P790	J6_38	J6_39	145.00	100.0	140.0	0.0984	Open
P791	J6_38	J7_38	145.00	300.0	125.0	0.0923	Open
P792	J6_39	J6_40	145.00	150.0	130.0	0.1015	Open
P793	J6_39	J7_39	145.00	100.0	125.0	0.0158	Open
P794	J6_40	J6_41	145.00	200.0	140.0	0.0270	Open
P795	J6_40	J7_40	145.00	300.0	125.0	0.0616	Open
P796	J6_41	J6_42	145.00	400.0	130.0	0.0184	Open
P797	J6_41	J7_41	145.00	600.0	130.0	0.0161	Open
P798	J6_42	J6_43	145.00	200.0	125.0	0.0124	Open
P799	J6_42	J7_42	145.00	250.0	125.0	0.0902	Open
P800	J6_43	J6_44	145.00	250.0	130.0	0.0897	Open
P801	J6_43	J7_43	145.00	200.0	125.0	0.0780	Open
P802	J6_44	J6_45	145.00	300.0	135.0	0.0103	Open
P803	J6_44	J7_44	145.00	100.0	125.0	0.0930	Open
P804	J6_45	J6_46	145.00	100.0	135.0	0.0805	Open
P805	J6_45	J7_45	145.00	100.0	135.0	0.1031	Open
P806	J6_46	J6_47	145.00	200.0	140.0	0.0009	Open
P807	J6_46	J7_46	145.00	250.0	125.0	0.1061	Open
P808	J6_47	J6_48	145.00	300.0	140.0	0.0566	Open
P809	J6_47	J7_47	145.00	100.0	140.0	0.0878	Open
P810	J6_48	J6_49	145.00	300.0	135.0	0.1122	Open
P811	J6_48	J7_48	145.00	250.0	130.0	0.0204	Open
P812	J6_49	J6_50	145.00	100.0	130.0	0.1304	Open
P813	J6_49	J7_49	145.00	250.0	135.0	0.0487	Open
P814	J6_50	J6_51	145.00	150.0	130.0	0.0292	Open
P815	J6_50	J7_50	145.00	300.0	135.0	0.0555	Open
P816	J6_51	J6_52	145.00	600.0	120.0	0.0202	Open
P817	J6_51	J7_51	145.00	500.0	125.0	0.0193	Open
P818	J6_52	J6_53	145.00	150.0	130.0	0.1026	Open
P819	J6_52	J7_52	145.00	150.0	130.0	0.0061	Open
P820	J6_53	J6_54	145.00	200.0	140.0	0.1005	Open
P821	J6_53	J7_53	145.00	150.0	140.0	0.0960	Open
P822	J6_54	J6_55	145.00	150.0	125.0	0.0517	Open
P823	J6_54	J7_54	145.00	150.0	140.0	0.1354	Open
P824	J6_55	J6_56	145.00	100.0	135.0	0.0514	Open
P825	J6_55	J7_55	145.00	100.0	130.0	0.0486	Open
P826	J6_56	J6_57	145.00	250.0	125.0	0.1144	Open
P827	J6_56	J7_56	145.00	300.0	130.0	0.1251	Open
P828	J6_57	J6_58	145.00	250.0	130.0	0.0547	Open
P829	J6_57	J7_57	145.00	200.0	140.0	0.0155	Open
P830	J6_58	J6_59	145.00	200.0	125.0	0.0128	Open
P831	J6_58	J7_58	145.00	300.0	130.0	0.0383	Open
P832	J6_59	J6_60	145.00	150.0	140.0	0.0284	Open
P833	J6_59	J7_59	145.00	100.0	125.0	0.0199	Open
P834	J6_60	J6_61	145.00	250.0	135.0	0.0804	Open
P835	J6_60	J7_60	145.00	150.0	130.0	0.1208	Open
P836	J6_61	J6_62	145.00	600.0	120.0	0.0311	Open
P837	J6_61	J7_61	145.00	500.0	125.0	0.0136	Open
P838	J6_62	J6_63	145.00	100.0	140.0	0.0503	Open
P839	J6_62	J7_62	145.00	250.0	130.0	0.0420	Open
P840	J6_63	J6_64	145.00	200.0	125.0	0.0759	Open
P841	J6_63	J7_63	145.00	300.0	135.0	0.1414	Open
P842	J6_64	J6_65	145.00	300.0	130.0	0.1115	Open
P843	J6_64	J7_64	145.00	300.0	135.0	0.1477	Open
P844	J6_65	J6_66	145.00	200.0	130.0	0.0903	Open
P845	J6_65	J7_65	145.00	250.0	140.0	0.1069	Open
P846	J6_66	J6_67	145.00	300.0	125.0	0.1236	Open
P847	J6_66	J7_66	145.00	200.0	130.0	0.0220	Open
P848	J6_67	J6_68	145.00	150.0	125.0	0.1077	Open
P849	J6_67	J7_67	145.00	200.0	135.0	0.0678	Open
P850	J6_68	J6_69	145.00	150.0	135.0	0.0818	Open
P851	J6_68	J7_68	145.00	100.0	135.0	0.0520	Open
P852	J6_69	J6_70	145.00	300.0	125.0	0.0658	Open
P853	J6_69	J7_69	145.00	200.0	140.0	0.0562	Open
P854	J6_70	J6_71	145.00	100.0	140.0	0.0735	Open
P855	J6_70	J7_70	145.00	300.0	130.0	0.1018	Open
P856	J6_71	J6_72	145.00	400.0	120.0	0.0297	Open
P857	J6_71	J7_71	145.00	350.0	120.0	0.0159	Open
P858	J6_72	J7_72	145.00	300.0	130.0	0.1327	Open
P859	J7_1	J7_2	145.00	500.0	125.0	0.0301	Open
P860	J7_1	J8_1	145.00	300.0	125.0	0.0177	Open
P861	J7_2	J7_3	145.00	250.0	125.0	0.1199	Open
P862	J7_2	J8_2	145.00	200.0	140.0	0.0072	Open
P863	J7_3	J7_4	145.00	150.0	140.0	0.0445	Open
P864	J7_3	J8_3	145.00	200.0	140.0	0.0816	Open
P865	J7_4	J7_5	145.00	150.0	140.0	0.1007	Open
P866	J7_4	J8_4	145.00	200.0	125.0	0.0969	Open
P867	J7_5	J7_6	145.00	150.0	135.0	0.0582	Open
P868	J7_5	J8_5	145.00	300.0	140.0	0.0774	Open
P869	J7_6	J7_7	145.00	100.0	130.0	0.1087	Open
P870	J7_6	J8_6	145.00	150.0	130.0	0.0410	Open
P871	J7_7	J7_8	145.00	200.0	130.0	0.0787	Open
P872	J7_7	J8_7	145.00	200.0	130.0	0.1373	Open
P873	J7_8	J7_9	145.00	250.0	140.0	0.1205	Open
P874	J7_8	J8_8	145.00	150.0	140.0	0.0618	Open
P875	J7_9	J7_10	145.00	250.0	135.0	0.0272	Open
P876	J7_9	J8_9	145.00	100.0	140.0	0.1440	Open
P877	J7_10	J7_11	145.00	250.0	135.0	0.1260	Open
P878	J7_10	J8_10	145.00	100.0	125.0	0.0532	Open
P879	J7_11	J7_12	145.00	450.0	125.0	0.0331	Open
P880	J7_11	J8_11	145.00	600.0	125.0	0.0309	Open
P881	J7_12	J7_13	145.00	150.0	140.0	0.0624	Open
P882	J7_12	J8_12	145.00	300.0	125.0	0.0007	Open
P883	J7_13	J7_14	145.00	150.0	130.0	0.0536	Open
P884	J7_13	J8_13	145.00	200.0	140.0	0.1478	Open
P885	J7_14	J7_15	145.00	150.0	135.0	0.0909	Open
P886	J7_14	J8_14	145.00	300.0	135.0	0.1416	Open
P887	J7_15	J7_16	145.00	150.0	140.0	0.1449	Open
P888	J7_15	J8_15	145.00	250.0	130.0	0.1289	Open
P889	J7_16	J7_17	145.00	100.0	130.0	0.0393	Open
P890	J7_16	J8_16	145.00	250.0	135.0	0.0188	Open
P891	J7_17	J7_18	145.00	200.0	135.0	0.0569	Open
P892	J7_17	J8_17	145.00	250.0	125.0	0.0904	Open
P893	J7_18	J7_19	145.00	100.0	140.0	0.0527	Open
P894	J7_18	J8_18	145.00	200.0	140.0	0.0601	Open
P895	J7_19	J7_20	145.00	250.0	140.0	0.0557	Open
P896	J7_19	J8_19	145.00	100.0	125.0	0.0271	Open
P897	J7_20	J7_21	145.00	150.0	130.0	0.0332	Open
P898	J7_20	J8_20	145.00	150.0	135.0	0.1405	Open
P899	J7_21	J7_22	145.00	450.0	120.0	0.0055	Open
P900	J7_21	J8_21	145.00	300.0	120.0	0.0050	Open
P901	J7_22	J7_23	145.00	250.0	125.0	0.1111	Open
P902	J7_22	J8_22	145.00	100.0	135.0	0.1213	Open
P903	J7_23	J7_24	145.00	200.0	125.0	0.0377	Open
P904	J7_23	J8_23	145.00	200.0	140.0	0.0522	Open
P905	J7_24	J7_25	145.00	200.0	130.0	0.1272	Open
P906	J7_24	J8_24	145.00	200.0	125.0	0.1021	Open
P907	J7_25	J7_26	145.00	200.0	135.0	0.0199	Open
P908	J7_25	J8_25	145.00	150.0	125.0	0.0682	Open
P909	J7_26	J7_27	145.00	100.0	140.0	0.0906	Open
P910	J7_26	J8_26	145.00	200.0	130.0	0.0617	Open
P911	J7_27	J7_28	145.00	200.0	130.0	0.0565	Open
P912	J7_27	J8_27	145.00	100.0	135.0	0.1484	Open
P913	J7_28	J7_29	145.00	200.0	125.0	0.0424	Open
P914	J7_28	J8_28	145.00	100.0	125.0	0.1255	Open
P915	J7_29	J7_30	145.00	300.0	130.0	0.1018	Open
P916	J7_29	J8_29	145.00	300.0	130.0	0.0169	Open
P917	J7_30	J7_31	145.00	150.0	135.0	0.1281	Open
P918	J7_30	J8_30	145.00	300.0	135.0	0.0821	Open
P919	J7_31	J7_32	145.00	600.0	120.0	0.0097	Open
P920	J7_31	J8_31	145.00	400.0	130.0	0.0468	Open
P921	J7_32	J7_33	145.00	300.0	130.0	0.1259	Open
P922	J7_32	J8_32	145.00	250.0	130.0	0.0110	Open
P923	J7_33	J7_34	145.00	250.0	135.0	0.1035	Open
P924	J7_33	J8_33	145.00	300.0	125.0	0.1112	Open
P925	J7_34	J7_35	145.00	150.0	135.0	0.0431	Open
P926	J7_34	J8_34	145.00	200.0	130.0	0.0464	Open
P927	J7_35	J7_36	145.00	250.0	140.0	0.0766	Open
P928	J7_35	J8_35	145.00	200.0	140.0	0.0501	Open
P929	J7_36	J7_37	145.00	200.0	135.0	0.0468	Open
P930	J7_36	J8_36	145.00	250.0	125.0	0.0656	Open
P931	J7_37	J7_38	145.00	300.0	125.0	0.0227	Open
P932	J7_37	J8_37	145.00	150.0	125.0	0.1147	Open
P933	J7_38	J7_39	145.00	200.0	130.0	0.1184	Open
P934	J7_38	J8_38	145.00	200.0	140.0	0.0762	Open
P935	J7_39	J7_40	145.00	300.0	130.0	0.0731	Open
P936	J7_39	J8_39	145.00	100.0	130.0	0.1050	Open
P937	J7_40	J7_41	145.00	300.0	130.0	0.0876	Open
P938	J7_40	J8_40	145.00	100.0	125.0	0.0086	Open
P939	J7_41	J7_42	145.00	450.0	125.0	0.0357	Open
P940	J7_41	J8_41	145.00	450.0	130.0	0.0366	Open
P941	J7_42	J7_43	145.00	250.0	125.0	0.0351	Open
P942	J7_42	J8_42	145.00	300.0	125.0	0.0438	Open
P943	J7_43	J7_44	145.00	250.0	125.0	0.0155	Open
P944	J7_43	J8_43	145.00	250.0	130.0	0.0203	Open
P945	J7_44	J7_45	145.00	150.0	135.0	0.1494	Open
P946	J7_44	J8_44	145.00	200.0	125.0	0.1109	Open
P947	J7_45	J7_46	145.00	100.0	130.0	0.1224	Open
P948	J7_45	J8_45	145.00	250.0	130.0	0.1448	Open
P949	J7_46	J7_47	145.00	300.0	140.0	0.0891	Open
P950	J7_46	J8_46	145.00	250.0	130.0	0.0855	Open
P951	J7_47	J7_48	145.00	100.0	135.0	0.0320	Open
P952	J7_47	J8_47	145.00	100.0	130.0	0.0648	Open
P953	J7_48	J7_49	145.00	200.0	135.0	0.0019	Open
P954	J7_48	J8_48	145.00	200.0	125.0	0.1074	Open
P955	J7_49	J7_50	145.00	100.0	130.0	0.0632	Open
P956	J7_49	J8_49	145.00	250.0	135.0	0.0862	Open
P957	J7_50	J7_51	145.00	300.0	140.0	0.0638	Open
P958	J7_50	J8_50	145.00	150.0	130.0	0.0605	Open
P959	J7_51	J7_52	145.00	450.0	125.0	0.0272	Open
P960	J7_51	J8_51	145.00	350.0	120.0	0.0408	Open
P961	J7_52	J7_53	145.00	250.0	130.0	0.0317	Open
P962	J7_52	J8_52	145.00	200.0	140.0	0.1484	Open
P963	J7_53	J7_54	145.00	300.0	130.0	0.1378	Open
P964	J7_53	J8_53	145.00	200.0	135.0	0.0534	Open
P965	J7_54	J7_55	145.00	200.0	125.0	0.1349	Open
P966	J7_54	J8_54	145.00	300.0	140.0	0.0112	Open
P967	J7_55	J7_56	145.00	300.0	130.0	0.1384	Open
P968	J7_55	J8_55	145.00	150.0	125.0	0.1269	Open
P969	J7_56	J7_57	145.00	150.0	135.0	0.1340	Open
P970	J7_56	J8_56	145.00	200.0	125.0	0.0088	Open
P971	J7_57	J7_58	145.00	200.0	135.0	0.1112	Open
P972	J7_57	J8_57	145.00	150.0	135.0	0.1293	Open
P973	J7_58	J7_59	145.00	300.0	135.0	0.0791	Open
P974	J7_58	J8_58	145.00	100.0	130.0	0.0184	Open
P975	J7_59	J7_60	145.00	250.0	130.0	0.0341	Open
P976	J7_59	J8_59	145.00	100.0	130.0	0.0612	Open
P977	J7_60	J7_61	145.00	150.0	130.0	0.0900	Open
P978	J7_60	J8_60	145.00	100.0	140.0	0.0542	Open
P979	J7_61	J7_62	145.00	400.0	130.0	0.0492	Open
P980	J7_61	J8_61	145.00	600.0	125.0	0.0289	Open
P981	J7_62	J7_63	145.00	150.0	125.0	0.1423	Open
P982	J7_62	J8_62	145.00	250.0	130.0	0.0378	Open
P983	J7_63	J7_64	145.00	250.0	140.0	0.0140	Open
P984	J7_63	J8_63	145.00	250.0	125.0	0.0888	Open
P985	J7_64	J7_65	145.00	150.0	130.0	0.1003	Open
P986	J7_64	J8_64	145.00	100.0	130.0	0.0754	Open
P987	J7_65	J7_66	145.00	100.0	135.0	0.0786	Open
P988	J7_65	J8_65	145.00	200.0	130.0	0.1355	Open
P989	J7_66	J7_67	145.00	150.0	140.0	0.0123	Open
P990	J7_66	J8_66	145.00	150.0	135.0	0.0790	Open
P991	J7_67	J7_68	145.00	250.0	130.0	0.1021	Open
P992	J7_67	J8_67	145.00	200.0	130.0	0.1428	Open
P993	J7_68	J7_69	145.00	300.0	125.0	0.0416	Open
P994	J7_68	J8_68	145.00	250.0	135.0	0.0699	Open
P995	J7_69	J7_70	145.00	200.0	135.0	0.1347	Open
P996	J7_69	J8_69	145.00	250.0	130.0	0.1206	Open
P997	J7_70	J7_71	145.00	300.0	130.0	0.0412	Open
P998	J7_70	J8_70	145.00	150.0	140.0	0.0450	Open
P999	J7_71	J7_72	145.00	300.0	120.0	0.0482	Open
P1000	J7_71	J8_71	145.00	400.0	130.0	0.0013	Open
P1001	J7_72	J8_72	145.00	300.0	140.0	0.1219	Open
P1002	J8_1	J8_2	145.00	300.0	120.0	0.0197	Open
P1003	J8_1	J9_1	145.00	450.0	120.0	0.0454	Open
P1004	J8_2	J8_3	145.00	100.0	125.0	0.0891	Open
P1005	J8_2	J9_2	145.00	250.0	130.0	0.0854	Open
P1006	J8_3	J8_4	145.00	100.0	135.0	0.0558	Open
P1007	J8_3	J9_3	145.00	200.0	135.0	0.0882	Open
P1008	J8_4	J8_5	145.00	250.0	140.0	0.0124	Open
P1009	J8_4	J9_4	145.00	100.0	130.0	0.1334	Open
P1010	J8_5	J8_6	145.00	100.0	130.0	0.0447	Open
P1011	J8_5	J9_5	145.00	200.0	125.0	0.1308	Open
P1012	J8_6	J8_7	145.00	300.0	125.0	0.0903	Open
P1013	J8_6	J9_6	145.00	250.0	130.0	0.0224	Open
P1014	J8_7	J8_8	145.00	200.0	125.0	0.0360	Open
P1015	J8_7	J9_7	145.00	300.0	125.0	0.1468	Open
P1016	J8_8	J8_9	145.00	300.0	125.0	0.1079	Open
P1017	J8_8	J9_8	145.00	200.0	130.0	0.0453	Open
P1018	J8_9	J8_10	145.00	300.0	130.0	0.0933	Open
P1019	J8_9	J9_9	145.00	100.0	135.0	0.0948	Open
P1020	J8_10	J8_11	145.00	250.0	125.0	0.0771	Open
P1021	J8_10	J9_10	145.00	100.0	130.0	0.0671	Open
P1022	J8_11	J8_12	145.00	350.0	125.0	0.0183	Open
P1023	J8_11	J9_11	145.00	300.0	120.0	0.0458	Open
P1024	J8_12	J8_13	145.00	100.0	140.0	0.0678	Open
P1025	J8_12	J9_12	145.00	300.0	135.0	0.0225	Open
P1026	J8_13	J8_14	145.00	100.0	140.0	0.0416	Open
P1027	J8_13	J9_13	145.00	150.0	135.0	0.0004	Open
P1028	J8_14	J8_15	145.00	200.0	135.0	0.0708	Open
P1029	J8_14	J9_14	145.00	250.0	140.0	0.0755	Open
P1030	J8_15	J8_16	145.00	150.0	135.0	0.0445	Open
P1031	J8_15	J9_15	145.00	100.0	125.0	0.1178	Open
P1032	J8_16	J8_17	145.00	250.0	125.0	0.0949	Open
P1033	J8_16	J9_16	145.00	150.0	135.0	0.0724	Open
P1034	J8_17	J8_18	145.00	150.0	140.0	0.0769	Open
P1035	J8_17	J9_17	145.00	100.0	135.0	0.0560	Open
P1036	J8_18	J8_19	145.00	200.0	130.0	0.0953	Open
P1037	J8_18	J9_18	145.00	200.0	130.0	0.0866	Open
P1038	J8_19	J8_20	145.00	100.0	130.0	0.0784	Open
P1039	J8_19	J9_19	145.00	100.0	125.0	0.1351	Open
P1040	J8_20	J8_21	145.00	150.0	140.0	0.0695	Open
P1041	J8_20	J9_20	145.00	200.0	135.0	0.0433	Open
P1042	J8_21	J8_22	145.00	600.0	125.0	0.0269	Open
P1043	J8_21	J9_21	145.00	600.0	125.0	0.0155	Open
P1044	J8_22	J8_23	145.00	200.0	135.0	0.1491	Open
P1045	J8_22	J9_22	145.00	300.0	125.0	0.0075	Open
P1046	J8_23	J8_24	145.00	150.0	125.0	0.1143	Open
P1047	J8_23	J9_23	145.00	300.0	125.0	0.0198	Open
P1048	J8_24	J8_25	145.00	250.0	130.0	0.0708	Open
P1049	J8_24	J9_24	145.00	100.0	140.0	0.1457	Open
P1050	J8_25	J8_26	145.00	250.0	135.0	0.1032	Open
P1051	J8_25	J9_25	145.00	100.0	125.0	0.0014	Open
P1052	J8_26	J8_27	145.00	150.0	140.0	0.0293	Open
P1053	J8_26	J9_26	145.00	100.0	130.0	0.0655	Open
P1054	J8_27	J8_28	145.00	150.0	135.0	0.0683	Open
P1055	J8_27	J9_27	145.00	200.0	135.0	0.0380	Open
P1056	J8_28	J8_29	145.00	200.0	125.0	0.0744	Open
P1057	J8_28	J9_28	145.00	250.0	140.0	0.0926	Open
P1058	J8_29	J8_30	145.00	200.0	125.0	0.0904	Open
P1059	J8_29	J9_29	145.00	250.0	130.0	0.1312	Open
P1060	J8_30	J8_31	145.00	300.0	140.0	0.1288	Open
P1061	J8_30	J9_30	145.00	150.0	135.0	0.1228	Open
P1062	J8_31	J8_32	145.00	450.0	120.0	0.0301	Open
P1063	J8_31	J9_31	145.00	500.0	125.0	0.0128	Open
P1064	J8_32	J8_33	145.00	300.0	125.0	0.1446	Open
P1065	J8_32	J9_32	145.00	150.0	140.0	0.0662	Open
P1066	J8_33	J8_34	145.00	250.0	125.0	0.0454	Open
P1067	J8_33	J9_33	145.00	300.0	135.0	0.0894	Open
P1068	J8_34	J8_35	145.00	300.0	140.0	0.0948	Open
P1069	J8_34	J9_34	145.00	150.0	125.0	0.0188	Open
P1070	J8_35	J8_36	145.00	150.0	135.0	0.1427	Open
P1071	J8_35	J9_35	145.00	200.0	130.0	0.0704	Open
P1072	J8_36	J8_37	145.00	100.0	135.0	0.0291	Open
P1073	J8_36	J9_36	145.00	150.0	135.0	0.1259	Open
P1074	J8_37	J8_38	145.00	200.0	140.0	0.1449	Open
P1075	J8_37	J9_37	145.00	150.0	135.0	0.0040	Open
P1076	J8_38	J8_39	145.00	100.0	135.0	0.0496	Open
P1077	J8_38	J9_38	145.00	150.0	130.0	0.0671	Open
P1078	J8_39	J8_40	145.00	300.0	125.0	0.0374	Open
P1079	J8_39	J9_39	145.00	250.0	135.0	0.0440	Open
P1080	J8_40	J8_41	145.00	300.0	125.0	0.0782	Open
P1081	J8_40	J9_40	145.00	300.0	135.0	0.0508	Open
P1082	J8_41	J8_42	145.00	300.0	130.0	0.0102	Open
P1083	J8_41	J9_41	145.00	450.0	125.0	0.0207	Open
P1084	J8_42	J8_43	145.00	300.0	130.0	0.0773	Open
P1085	J8_42	J9_42	145.00	200.0	125.0	0.1015	Open
P1086	J8_43	J8_44	145.00	300.0	135.0	0.0817	Open
P1087	J8_43	J9_43	145.00	300.0	125.0	0.1102	Open
P1088	J8_44	J8_45	145.00	100.0	140.0	0.1130	Open
P1089	J8_44	J9_44	145.00	200.0	125.0	0.0214	Open
P1090	J8_45	J8_46	145.00	150.0	130.0	0.1193	Open
P1091	J8_45	J9_45	145.00	150.0	130.0	0.1245	Open
P1092	J8_46	J8_47	145.00	250.0	140.0	0.0533	Open
P1093	J8_46	J9_46	145.00	100.0	125.0	0.0589	Open
P1094	J8_47	J8_48	145.00	100.0	130.0	0.1203	Open
P1095	J8_47	J9_47	145.00	200.0	140.0	0.0716	Open
P1096	J8_48	J8_49	145.00	250.0	135.0	0.1273	Open
P1097	J8_48	J9_48	145.00	250.0	130.0	0.0251	Open
P1098	J8_49	J8_50	145.00	100.0	125.0	0.0672	Open
P1099	J8_49	J9_49	145.00	100.0	130.0	0.1337	Open
P1100	J8_50	J8_51	145.00	250.0	140.0	0.0668	Open
P1101	J8_50	J9_50	145.00	100.0	125.0	0.1460	Open
P1102	J8_51	J8_52	145.00	450.0	125.0	0.0136	Open
P1103	J8_51	J9_51	145.00	400.0	130.0	0.0459	Open
P1104	J8_52	J8_53	145.00	200.0	135.0	0.0939	Open
P1105	J8_52	J9_52	145.00	250.0	130.0	0.0691	Open
P1106	J8_53	J8_54	145.00	250.0	125.0	0.0840	Open
P1107	J8_53	J9_53	145.00	250.0	125.0	0.0003	Open
P1108	J8_54	J8_55	145.00	250.0	130.0	0.1253	Open
P1109	J8_54	J9_54	145.00	250.0	135.0	0.1255	Open
P1110	J8_55	J8_56	145.00	100.0	125.0	0.0099	Open
P1111	J8_55	J9_55	145.00	250.0	140.0	0.1382	Open
P1112	J8_56	J8_57	145.00	150.0	135.0	0.0515	Open
P1113	J8_56	J9_56	145.00	150.0	130.0	0.0466	Open
P1114	J8_57	J8_58	145.00	300.0	135.0	0.0803	Open
P1115	J8_57	J9_57	145.00	200.0	140.0	0.0430	Open
P1116	J8_58	J8_59	145.00	300.0	130.0	0.1450	Open
P1117	J8_58	J9_58	145.00	300.0	135.0	0.0901	Open
P1118	J8_59	J8_60	145.00	200.0	130.0	0.0712	Open
P1119	J8_59	J9_59	145.00	250.0	125.0	0.0399	Open
P1120	J8_60	J8_61	145.00	250.0	135.0	0.0353	Open
P1121	J8_60	J9_60	145.00	150.0	130.0	0.1450	Open
P1122	J8_61	J8_62	145.00	450.0	120.0	0.0485	Open
P1123	J8_61	J9_61	145.00	300.0	130.0	0.0366	Open
P1124	J8_62	J8_63	145.00	100.0	125.0	0.0962	Open
P1125	J8_62	J9_62	145.00	250.0	135.0	0.0384	Open
P1126	J8_63	J8_64	145.00	100.0	140.0	0.1280	Open
P1127	J8_63	J9_63	145.00	250.0	130.0	0.0138	Open
P1128	J8_64	J8_65	145.00	150.0	125.0	0.0326	Open
P1129	J8_64	J9_64	145.00	200.0	125.0	0.0573	Open
P1130	J8_65	J8_66	145.00	100.0	135.0	0.0231	Open
P1131	J8_65	J9_65	145.00	300.0	125.0	0.0303	Open
P1132	J8_66	J8_67	145.00	300.0	140.0	0.0954	Open
P1133	J8_66	J9_66	145.00	100.0	135.0	0.1472	Open
P1134	J8_67	J8_68	145.00	100.0	140.0	0.0353	Open
P1135	J8_67	J9_67	145.00	100.0	125.0	0.0497	Open
P1136	J8_68	J8_69	145.00	250.0	140.0	0.1046	Open
P1137	J8_68	J9_68	145.00	150.0	135.0	0.0738	Open
P1138	J8_69	J8_70	145.00	150.0	135.0	0.1438	Open
P1139	J8_69	J9_69	145.00	100.0	125.0	0.0299	Open
P1140	J8_70	J8_71	145.00	200.0	135.0	0.1283	Open
P1141	J8_70	J9_70	145.00	100.0	130.0	0.0955	Open
P1142	J8_71	J8_72	145.00	400.0	130.0	0.0423	Open
P1143	J8_71	J9_71	145.00	300.0	125.0	0.0235	Open
P1144	J8_72	J9_72	145.00	250.0	135.0	0.1340	Open
P1145	J9_1	J9_2	145.00	300.0	130.0	0.0428	Open
P1146	J9_1	J10_1	145.00	600.0	130.0	0.0228	Open
P1147	J9_2	J9_3	145.00	100.0	135.0	0.0667	Open
P1148	J9_2	J10_2	145.00	200.0	135.0	0.0645	Open
P1149	J9_3	J9_4	145.00	150.0	135.0	0.1101	Open
P1150	J9_3	J10_3	145.00	150.0	140.0	0.0943	Open
P1151	J9_4	J9_5	145.00	250.0	130.0	0.1355	Open
P1152	J9_4	J10_4	145.00	300.0	140.0	0.0739	Open
P1153	J9_5	J9_6	145.00	250.0	130.0	0.1093	Open
P1154	J9_5	J10_5	145.00	200.0	125.0	0.0764	Open
P1155	J9_6	J9_7	145.00	300.0	140.0	0.0269	Open
P1156	J9_6	J10_6	145.00	150.0	135.0	0.1489	Open
P1157	J9_7	J9_8	145.00	300.0	135.0	0.0672	Open
P1158	J9_7	J10_7	145.00	150.0	125.0	0.1319	Open
P1159	J9_8	J9_9	145.00	100.0	125.0	0.0051	Open
P1160	J9_8	J10_8	145.00	300.0	140.0	0.1279	Open
P1161	J9_9	J9_10	145.00	100.0	140.0	0.1211	Open
P1162	J9_9	J10_9	145.00	300.0	135.0	0.1162	Open
P1163	J9_10	J9_11	145.00	200.0	135.0	0.0134	Open
P1164	J9_10	J10_10	145.00	200.0	130.0	0.1290	Open
P1165	J9_11	J9_12	145.00	500.0	120.0	0.0066	Open
P1166	J9_11	J10_11	145.00	600.0	125.0	0.0278	Open
P1167	J9_12	J9_13	145.00	300.0	130.0	0.0674	Open
P1168	J9_12	J10_12	145.00	200.0	135.0	0.1181	Open
P1169	J9_13	J9_14	145.00	250.0	125.0	0.0403	Open
P1170	J9_13	J10_13	145.00	100.0	130.0	0.0591	Open
P1171	J9_14	J9_15	145.00	300.0	135.0	0.1311	Open
P1172	J9_14	J10_14	145.00	250.0	125.0	0.1415	Open
P1173	J9_15	J9_16	145.00	100.0	135.0	0.0893	Open
P1174	J9_15	J10_15	145.00	250.0	125.0	0.0752	Open
P1175	J9_16	J9_17	145.00	150.0	130.0	0.0439	Open
P1176	J9_16	J10_16	145.00	250.0	140.0	0.1317	Open
P1177	J9_17	J9_18	145.00	150.0	140.0	0.1360	Open
P1178	J9_17	J10_17	145.00	300.0	140.0	0.0368	Open
P1179	J9_18	J9_19	145.00	150.0	130.0	0.0637	Open
P1180	J9_18	J10_18	145.00	200.0	125.0	0.0287	Open
P1181	J9_19	J9_20	145.00	100.0	135.0	0.0222	Open
P1182	J9_19	J10_19	145.00	300.0	140.0	0.1433	Open
P1183	J9_20	J9_21	145.00	150.0	130.0	0.0479	Open
P1184	J9_20	J10_20	145.00	200.0	140.0	0.0717	Open
P1185	J9_21	J9_22	145.00	350.0	125.0	0.0182	Open
P1186	J9_21	J10_21	145.00	300.0	130.0	0.0446	Open
P1187	J9_22	J9_23	145.00	100.0	135.0	0.1120	Open
P1188	J9_22	J10_22	145.00	150.0	130.0	0.0333	Open
P1189	J9_23	J9_24	145.00	300.0	130.0	0.0518	Open
P1190	J9_23	J10_23	145.00	150.0	125.0	0.0815	Open
P1191	J9_24	J9_25	145.00	100.0	135.0	0.0805	Open
P1192	J9_24	J10_24	145.00	250.0	130.0	0.1174	Open
P1193	J9_25	J9_26	145.00	250.0	140.0	0.0146	Open
P1194	J9_25	J10_25	145.00	100.0	135.0	0.0402	Open
P1195	J9_26	J9_27	145.00	100.0	125.0	0.0641	Open
P1196	J9_26	J10_26	145.00	200.0	125.0	0.0088	Open
P1197	J9_27	J9_28	145.00	150.0	140.0	0.0184	Open
P1198	J9_27	J10_27	145.00	200.0	135.0	0.1191	Open
P1199	J9_28	J9_29	145.00	200.0	135.0	0.0249	Open
P1200	J9_28	J10_28	145.00	250.0	135.0	0.0512	Open
P1201	J9_29	J9_30	145.00	250.0	125.0	0.0744	Open
P1202	J9_29	J10_29	145.00	150.0	130.0	0.1174	Open
P1203	J9_30	J9_31	145.00	250.0	135.0	0.1184	Open
P1204	J9_30	J10_30	145.00	200.0	130.0	0.1197	Open
P1205	J9_31	J9_32	145.00	500.0	130.0	0.0105	Open
P1206	J9_31	J10_31	145.00	350.0	120.0	0.0082	Open
P1207	J9_32	J9_33	145.00	100.0	135.0	0.1068	Open
P1208	J9_32	J10_32	145.00	200.0	140.0	0.0537	Open
P1209	J9_33	J9_34	145.00	300.0	135.0	0.1470	Open
P1210	J9_33	J10_33	145.00	150.0	140.0	0.1040	Open
P1211	J9_34	J9_35	145.00	150.0	135.0	0.0260	Open
P1212	J9_34	J10_34	145.00	300.0	135.0	0.1407	Open
P1213	J9_35	J9_36	145.00	150.0	125.0	0.0425	Open
P1214	J9_35	J10_35	145.00	200.0	125.0	0.0826	Open
P1215	J9_36	J9_37	145.00	300.0	125.0	0.0304	Open
P1216	J9_36	J10_36	145.00	250.0	140.0	0.0215	Open
P1217	J9_37	J9_38	145.00	100.0	140.0	0.0247	Open
P1218	J9_37	J10_37	145.00	300.0	135.0	0.1105	Open
P1219	J9_38	J9_39	145.00	100.0	125.0	0.1248	Open
P1220	J9_38	J10_38	145.00	250.0	125.0	0.0074	Open
P1221	J9_39	J9_40	145.00	250.0	135.0	0.0917	Open
P1222	J9_39	J10_39	145.00	300.0	130.0	0.1422	Open
P1223	J9_40	J9_41	145.00	200.0	125.0	0.0513	Open
P1224	J9_40	J10_40	145.00	200.0	140.0	0.0924	Open
P1225	J9_41	J9_42	145.00	450.0	130.0	0.0496	Open
P1226	J9_41	J10_41	145.00	400.0	120.0	0.0323	Open
P1227	J9_42	J9_43	145.00	250.0	140.0	0.0388	Open
P1228	J9_42	J10_42	145.00	250.0	125.0	0.0652	Open
P1229	J9_43	J9_44	145.00	100.0	140.0	0.0109	Open
P1230	J9_43	J10_43	145.00	100.0	130.0	0.1138	Open
P1231	J9_44	J9_45	145.00	100.0	140.0	0.0543	Open
P1232	J9_44	J10_44	145.00	150.0	125.0	0.0517	Open
P1233	J9_45	J9_46	145.00	300.0	135.0	0.0328	Open
P1234	J9_45	J10_45	145.00	300.0	125.0	0.1251	Open
P1235	J9_46	J9_47	145.00	200.0	135.0	0.0123	Open
P1236	J9_46	J10_46	145.00	250.0	130.0	0.0486	Open
P1237	J9_47	J9_48	145.00	100.0	130.0	0.1298	Open
P1238	J9_47	J10_47	145.00	150.0	130.0	0.1445	Open
P1239	J9_48	J9_49	145.00	100.0	135.0	0.1002	Open
P1240	J9_48	J10_48	145.00	200.0	130.0	0.0894	Open
P1241	J9_49	J9_50	145.00	250.0	125.0	0.1392	Open
P1242	J9_49	J10_49	145.00	100.0	140.0	0.1037	Open
P1243	J9_50	J9_51	145.00	300.0	135.0	0.0354	Open
P1244	J9_50	J10_50	145.00	150.0	130.0	0.0994	Open
P1245	J9_51	J9_52	145.00	400.0	120.0	0.0371	Open
P1246	J9_51	J10_51	145.00	350.0	130.0	0.0030	Open
P1247	J9_52	J9_53	145.00	100.0	140.0	0.0004	Open
P1248	J9_52	J10_52	145.00	300.0	135.0	0.0376	Open
P1249	J9_53	J9_54	145.00	200.0	135.0	0.0153	Open
P1250	J9_53	J10_53	145.00	200.0	130.0	0.1409	Open
P1251	J9_54	J9_55	145.00	150.0	140.0	0.0158	Open
P1252	J9_54	J10_54	145.00	200.0	130.0	0.0258	Open
P1253	J9_55	J9_56	145.00	100.0	140.0	0.1082	Open
P1254	J9_55	J10_55	145.00	300.0	140.0	0.1421	Open
P1255	J9_56	J9_57	145.00	300.0	125.0	0.0223	Open
P1256	J9_56	J10_56	145.00	250.0	130.0	0.0127	Open
P1257	J9_57	J9_58	145.00	100.0	125.0	0.0258	Open
P1258	J9_57	J10_57	145.00	250.0	130.0	0.1201	Open
P1259	J9_58	J9_59	145.00	150.0	130.0	0.0764	Open
P1260	J9_58	J10_58	145.00	200.0	130.0	0.1051	Open
P1261	J9_59	J9_60	145.00	300.0	140.0	0.1258	Open
P1262	J9_59	J10_59	145.00	150.0	135.0	0.0218	Open
P1263	J9_60	J9_61	145.00	100.0	140.0	0.0998	Open
P1264	J9_60	J10_60	145.00	200.0	130.0	0.1108	Open
P1265	J9_61	J9_62	145.00	500.0	130.0	0.0384	Open
P1266	J9_61	J10_61	145.00	500.0	125.0	0.0261	Open
P1267	J9_62	J9_63	145.00	150.0	140.0	0.0170	Open
P1268	J9_62	J10_62	145.00	100.0	125.0	0.0055	Open
P1269	J9_63	J9_64	145.00	250.0	140.0	0.0824	Open
P1270	J9_63	J10_63	145.00	200.0	130.0	0.1142	Open
P1271	J9_64	J9_65	145.00	200.0	135.0	0.0088	Open
P1272	J9_64	J10_64	145.00	150.0	135.0	0.1412	Open
P1273	J9_65	J9_66	145.00	100.0	140.0	0.0419	Open
P1274	J9_65	J10_65	145.00	200.0	125.0	0.0431	Open
P1275	J9_66	J9_67	145.00	200.0	140.0	0.0663	Open
P1276	J9_66	J10_66	145.00	200.0	140.0	0.0284	Open
P1277	J9_67	J9_68	145.00	200.0	135.0	0.0966	Open
P1278	J9_67	J10_67	145.00	300.0	135.0	0.1067	Open
P1279	J9_68	J9_69	145.00	200.0	125.0	0.1038	Open
P1280	J9_68	J10_68	145.00	100.0	130.0	0.0880	Open
P1281	J9_69	J9_70	145.00	300.0	130.0	0.1346	Open
P1282	J9_69	J10_69	145.00	100.0	125.0	0.0056	Open
P1283	J9_70	J9_71	145.00	300.0	130.0	0.0824	Open
P1284	J9_70	J10_70	145.00	300.0	125.0	0.0723	Open
P1285	J9_71	J9_72	145.00	400.0	125.0	0.0407	Open
P1286	J9_71	J10_71	145.00	500.0	130.0	0.0453	Open
P1287	J9_72	J10_72	145.00	100.0	135.0	0.0989	Open
P1288	J10_1	J10_2	145.00	500.0	125.0	0.0319	Open
P1289	J10_1	J11_1	145.00	400.0	130.0	0.0330	Open
P1290	J10_2	J10_3	145.00	300.0	140.0	0.0335	Open
P1291	J10_2	J11_2	145.00	200.0	125.0	0.1124	Open
P1292	J10_3	J10_4	145.00	300.0	125.0	0.0725	Open
P1293	J10_3	J11_3	145.00	250.0	125.0	0.0050	Open
P1294	J10_4	J10_5	145.00	200.0	140.0	0.1039	Open
P1295	J10_4	J11_4	145.00	150.0	135.0	0.0305	Open
P1296	J10_5	J10_6	145.00	250.0	130.0	0.0955	Open
P1297	J10_5	J11_5	145.00	250.0	140.0	0.0281	Open
P1298	J10_6	J10_7	145.00	200.0	140.0	0.0361	Open
P1299	J10_6	J11_6	145.00	300.0	135.0	0.0532	Open
P1300	J10_7	J10_8	145.00	250.0	125.0	0.0817	Open
P1301	J10_7	J11_7	145.00	200.0	125.0	0.1489	Open
P1302	J10_8	J10_9	145.00	250.0	125.0	0.0614	Open
P1303	J10_8	J11_8	145.00	100.0	140.0	0.0542	Open
P1304	J10_9	J10_10	145.00	100.0	125.0	0.0925	Open
P1305	J10_9	J11_9	145.00	100.0	130.0	0.0548	Open
P1306	J10_10	J10_11	145.00	100.0	140.0	0.0219	Open
P1307	J10_10	J11_10	145.00	200.0	125.0	0.1477	Open
P1308	J10_11	J10_12	145.00	300.0	130.0	0.0039	Open
P1309	J10_11	J11_11	145.00	450.0	125.0	0.0493	Open
P1310	J10_12	J10_13	145.00	200.0	135.0	0.1289	Open
P1311	J10_12	J11_12	145.00	150.0	135.0	0.1037	Open
P1312	J10_13	J10_14	145.00	200.0	140.0	0.1015	Open
P1313	J10_13	J11_13	145.00	100.0	125.0	0.0969	Open
P1314	J10_14	J10_15	145.00	150.0	125.0	0.0387	Open
P1315	J10_14	J11_14	145.00	200.0	140.0	0.1351	Open
P1316	J10_15	J10_16	145.00	150.0	135.0	0.0836	Open
P1317	J10_15	J11_15	145.00	200.0	125.0	0.0084	Open
P1318	J10_16	J10_17	145.00	300.0	140.0	0.0287	Open
P1319	J10_16	J11_16	145.00	100.0	130.0	0.0744	Open
P1320	J10_17	J10_18	145.00	100.0	140.0	0.0659	Open
P1321	J10_17	J11_17	145.00	200.0	135.0	0.0176	Open
P1322	J10_18	J10_19	145.00	200.0	130.0	0.0681	Open
P1323	J10_18	J11_18	145.00	300.0	130.0	0.0995	Open
P1324	J10_19	J10_20	145.00	300.0	140.0	0.0098	Open
P1325	J10_19	J11_19	145.00	300.0	125.0	0.0642	Open
P1326	J10_20	J10_21	145.00	100.0	140.0	0.1316	Open
P1327	J10_20	J11_20	145.00	200.0	135.0	0.1068	Open
P1328	J10_21	J10_22	145.00	500.0	120.0	0.0313	Open
P1329	J10_21	J11_21	145.00	450.0	125.0	0.0160	Open
P1330	J10_22	J10_23	145.00	200.0	135.0	0.0446	Open
P1331	J10_22	J11_22	145.00	250.0	140.0	0.1119	Open
P1332	J10_23	J10_24	145.00	100.0	130.0	0.1216	Open
P1333	J10_23	J11_23	145.00	100.0	130.0	0.0566	Open
P1334	J10_24	J10_25	145.00	100.0	130.0	0.0303	Open
P1335	J10_24	J11_24	145.00	100.0	125.0	0.0662	Open
P1336	J10_25	J10_26	145.00	150.0	140.0	0.0871	Open
P1337	J10_25	J11_25	145.00	150.0	135.0	0.0923	Open
P1338	J10_26	J10_27	145.00	150.0	135.0	0.1280	Open
P1339	J10_26	J11_26	145.00	100.0	125.0	0.0161	Open
P1340	J10_27	J10_28	145.00	200.0	125.0	0.0405	Open
P1341	J10_27	J11_27	145.00	300.0	130.0	0.0559	Open
P1342	J10_28	J10_29	145.00	250.0	130.0	0.0422	Open
P1343	J10_28	J11_28	145.00	300.0	140.0	0.1210	Open
P1344	J10_29	J10_30	145.00	150.0	125.0	0.0353	Open
P1345	J10_29	J11_29	145.00	300.0	130.0	0.0812	Open
P1346	J10_30	J10_31	145.00	300.0	140.0	0.0106	Open
P1347	J10_30	J11_30	145.00	100.0	140.0	0.0452	Open
P1348	J10_31	J10_32	145.00	600.0	130.0	0.0142	Open
P1349	J10_31	J11_31	145.00	350.0	125.0	0.0081	Open
P1350	J10_32	J10_33	145.00	250.0	140.0	0.1120	Open
P1351	J10_32	J11_32	145.00	250.0	130.0	0.0927	Open
P1352	J10_33	J10_34	145.00	250.0	125.0	0.0123	Open
P1353	J10_33	J11_33	145.00	300.0	140.0	0.0143	Open
P1354	J10_34	J10_35	145.00	150.0	130.0	0.0319	Open
P1355	J10_34	J11_34	145.00	200.0	140.0	0.0623	Open
P1356	J10_35	J10_36	145.00	250.0	125.0	0.0533	Open
P1357	J10_35	J11_35	145.00	200.0	125.0	0.0956	Open
P1358	J10_36	J10_37	145.00	250.0	135.0	0.1264	Open
P1359	J10_36	J11_36	145.00	150.0	125.0	0.1002	Open
P1360	J10_37	J10_38	145.00	150.0	125.0	0.0189	Open
P1361	J10_37	J11_37	145.00	300.0	130.0	0.0265	Open
P1362	J10_38	J10_39	145.00	150.0	125.0	0.0844	Open
P1363	J10_38	J11_38	145.00	200.0	130.0	0.0942	Open
P1364	J10_39	J10_40	145.00	300.0	130.0	0.0355	Open
P1365	J10_39	J11_39	145.00	100.0	125.0	0.0871	Open
P1366	J10_40	J10_41	145.00	300.0	130.0	0.0504	Open
P1367	J10_40	J11_40	145.00	300.0	125.0	0.0469	Open
P1368	J10_41	J10_42	145.00	450.0	130.0	0.0210	Open
P1369	J10_41	J11_41	145.00	400.0	120.0	0.0121	Open
P1370	J10_42	J10_43	145.00	300.0	140.0	0.0198	Open
P1371	J10_42	J11_42	145.00	150.0	125.0	0.1283	Open
P1372	J10_43	J10_44	145.00	200.0	125.0	0.0640	Open
P1373	J10_43	J11_43	145.00	250.0	140.0	0.1034	Open
P1374	J10_44	J10_45	145.00	200.0	140.0	0.0114	Open
P1375	J10_44	J11_44	145.00	200.0	125.0	0.0980	Open
P1376	J10_45	J10_46	145.00	250.0	130.0	0.0358	Open
P1377	J10_45	J11_45	145.00	150.0	130.0	0.1018	Open
P1378	J10_46	J10_47	145.00	300.0	140.0	0.0478	Open
P1379	J10_46	J11_46	145.00	100.0	130.0	0.1383	Open
P1380	J10_47	J10_48	145.00	200.0	140.0	0.0314	Open
P1381	J10_47	J11_47	145.00	300.0	130.0	0.0895	Open
P1382	J10_48	J10_49	145.00	150.0	135.0	0.0189	Open
P1383	J10_48	J11_48	145.00	150.0	135.0	0.0099	Open
P1384	J10_49	J10_50	145.00	300.0	130.0	0.0171	Open
P1385	J10_49	J11_49	145.00	250.0	125.0	0.0596	Open
P1386	J10_50	J10_51	145.00	300.0	125.0	0.0884	Open
P1387	J10_50	J11_50	145.00	100.0	125.0	0.1316	Open
P1388	J10_51	J10_52	145.00	300.0	120.0	0.0422	Open
P1389	J10_51	J11_51	145.00	600.0	125.0	0.0474	Open
P1390	J10_52	J10_53	145.00	100.0	140.0	0.0062	Open
P1391	J10_52	J11_52	145.00	150.0	125.0	0.0052	Open
P1392	J10_53	J10_54	145.00	150.0	130.0	0.0127	Open
P1393	J10_53	J11_53	145.00	200.0	135.0	0.0913	Open
P1394	J10_54	J10_55	145.00	300.0	135.0	0.1138	Open
P1395	J10_54	J11_54	145.00	300.0	135.0	0.0937	Open
P1396	J10_55	J10_56	145.00	100.0	135.0	0.0706	Open
P1397	J10_55	J11_55	145.00	300.0	125.0	0.0990	Open
P1398	J10_56	J10_57	145.00	100.0	135.0	0.0126	Open
P1399	J10_56	J11_56	145.00	300.0	130.0	0.0442	Open
P1400	J10_57	J10_58	145.00	200.0	130.0	0.1375	Open
P1401	J10_57	J11_57	145.00	100.0	135.0	0.0323	Open
P1402	J10_58	J10_59	145.00	300.0	135.0	0.1295	Open
P1403	J10_58	J11_58	145.00	150.0	140.0	0.1253	Open
P1404	J10_59	J10_60	145.00	300.0	140.0	0.0393	Open
P1405	J10_59	J11_59	145.00	150.0	135.0	0.0324	Open
P1406	J10_60	J10_61	145.00	100.0	125.0	0.0424	Open
P1407	J10_60	J11_60	145.00	250.0	125.0	0.1225	Open
P1408	J10_61	J10_62	145.00	450.0	130.0	0.0070	Open
P1409	J10_61	J11_61	145.00	450.0	125.0	0.0306	Open
P1410	J10_62	J10_63	145.00	250.0	135.0	0.0823	Open
P1411	J10_62	J11_62	145.00	300.0	135.0	0.0043	Open
P1412	J10_63	J10_64	145.00	150.0	135.0	0.0816	Open
P1413	J10_63	J11_63	145.00	100.0	130.0	0.1359	Open
P1414	J10_64	J10_65	145.00	300.0	140.0	0.0977	Open
P1415	J10_64	J11_64	145.00	150.0	140.0	0.1133	Open
P1416	J10_65	J10_66	145.00	300.0	135.0	0.1003	Open
P1417	J10_65	J11_65	145.00	100.0	130.0	0.0421	Open
P1418	J10_66	J10_67	145.00	250.0	140.0	0.1342	Open
P1419	J10_66	J11_66	145.00	250.0	130.0	0.0640	Open
P1420	J10_67	J10_68	145.00	300.0	125.0	0.0123	Open
P1421	J10_67	J11_67	145.00	150.0	130.0	0.1296	Open
P1422	J10_68	J10_69	145.00	300.0	140.0	0.0209	Open
P1423	J10_68	J11_68	145.00	250.0	140.0	0.1487	Open
P1424	J10_69	J10_70	145.00	200.0	130.0	0.0732	Open
P1425	J10_69	J11_69	145.00	100.0	140.0	0.0735	Open
P1426	J10_70	J10_71	145.00	250.0	130.0	0.1379	Open
P1427	J10_70	J11_70	145.00	300.0	125.0	0.0614	Open
P1428	J10_71	J10_72	145.00	450.0	125.0	0.0037	Open
P1429	J10_71	J11_71	145.00	400.0	125.0	0.0277	Open
P1430	J10_72	J11_72	145.00	200.0	125.0	0.0499	Open
P1431	J11_1	J11_2	145.00	600.0	120.0	0.0352	Open
P1432	J11_1	J12_1	145.00	350.0	125.0	0.0165	Open
P1433	J11_2	J11_3	145.00	300.0	130.0	0.0145	Open
P1434	J11_2	J12_2	145.00	450.0	120.0	0.0473	Open
P1435	J11_3	J11_4	145.00	300.0	130.0	0.0374	Open
P1436	J11_3	J12_3	145.00	400.0	130.0	0.0188	Open
P1437	J11_4	J11_5	145.00	400.0	130.0	0.0240	Open
P1438	J11_4	J12_4	145.00	600.0	125.0	0.0275	Open
P1439	J11_5	J11_6	145.00	600.0	120.0	0.0048	Open
P1440	J11_5	J12_5	145.00	300.0	120.0	0.0499	Open
P1441	J11_6	J11_7	145.00	300.0	130.0	0.0059	Open
P1442	J11_6	J12_6	145.00	500.0	125.0	0.0259	Open
P1443	J11_7	J11_8	145.00	300.0	130.0	0.0130	Open
P1444	J11_7	J12_7	145.00	400.0	125.0	0.0282	Open
P1445	J11_8	J11_9	145.00	450.0	125.0	0.0370	Open
P1446	J11_8	J12_8	145.00	400.0	120.0	0.0082	Open
P1447	J11_9	J11_10	145.00	400.0	130.0	0.0474	Open
P1448	J11_9	J12_9	145.00	300.0	120.0	0.0115	Open
P1449	J11_10	J11_11	145.00	400.0	130.0	0.0463	Open
P1450	J11_10	J12_10	145.00	600.0	120.0	0.0168	Open
P1451	J11_11	J11_12	145.00	350.0	120.0	0.0264	Open
P1452	J11_11	J12_11	145.00	600.0	130.0	0.0093	Open
P1453	J11_12	J11_13	145.00	450.0	125.0	0.0416	Open
P1454	J11_12	J12_12	145.00	300.0	125.0	0.0009	Open
P1455	J11_13	J11_14	145.00	400.0	125.0	0.0331	Open
P1456	J11_13	J12_13	145.00	350.0	120.0	0.0037	Open
P1457	J11_14	J11_15	145.00	400.0	130.0	0.0235	Open
P1458	J11_14	J12_14	145.00	500.0	125.0	0.0105	Open
P1459	J11_15	J11_16	145.00	450.0	130.0	0.0189	Open
P1460	J11_15	J12_15	145.00	400.0	125.0	0.0202	Open
P1461	J11_16	J11_17	145.00	300.0	130.0	0.0441	Open
P1462	J11_16	J12_16	145.00	400.0	125.0	0.0095	Open
P1463	J11_17	J11_18	145.00	600.0	120.0	0.0304	Open
P1464	J11_17	J12_17	145.00	500.0	125.0	0.0299	Open
P1465	J11_18	J11_19	145.00	300.0	125.0	0.0088	Open
P1466	J11_18	J12_18	145.00	500.0	130.0	0.0173	Open
P1467	J11_19	J11_20	145.00	400.0	120.0	0.0414	Open
P1468	J11_19	J12_19	145.00	350.0	130.0	0.0183	Open
P1469	J11_20	J11_21	145.00	300.0	130.0	0.0254	Open
P1470	J11_20	J12_20	145.00	450.0	120.0	0.0120	Open
P1471	J11_21	J11_22	145.00	350.0	125.0	0.0031	Open
P1472	J11_21	J12_21	145.00	400.0	125.0	0.0403	Open
P1473	J11_22	J11_23	145.00	600.0	125.0	0.0063	Open
P1474	J11_22	J12_22	145.00	400.0	120.0	0.0366	Open
P1475	J11_23	J11_24	145.00	300.0	120.0	0.0060	Open
P1476	J11_23	J12_23	145.00	500.0	125.0	0.0460	Open
P1477	J11_24	J11_25	145.00	450.0	130.0	0.0396	Open
P1478	J11_24	J12_24	145.00	400.0	120.0	0.0100	Open
P1479	J11_25	J11_26	145.00	400.0	125.0	0.0411	Open
P1480	J11_25	J12_25	145.00	350.0	130.0	0.0246	Open
P1481	J11_26	J11_27	145.00	450.0	120.0	0.0003	Open
P1482	J11_26	J12_26	145.00	300.0	120.0	0.0439	Open
P1483	J11_27	J11_28	145.00	500.0	120.0	0.0257	Open
P1484	J11_27	J12_27	145.00	400.0	120.0	0.0119	Open
P1485	J11_28	J11_29	145.00	300.0	125.0	0.0185	Open
P1486	J11_28	J12_28	145.00	350.0	125.0	0.0313	Open
P1487	J11_29	J11_30	145.00	400.0	120.0	0.0003	Open
P1488	J11_29	J12_29	145.00	600.0	125.0	0.0271	Open
P1489	J11_30	J11_31	145.00	500.0	125.0	0.0194	Open
P1490	J11_30	J12_30	145.00	450.0	130.0	0.0022	Open
P1491	J11_31	J11_32	145.00	300.0	120.0	0.0416	Open
P1492	J11_31	J12_31	145.00	400.0	130.0	0.0310	Open
P1493	J11_32	J11_33	145.00	500.0	120.0	0.0430	Open
P1494	J11_32	J12_32	145.00	450.0	130.0	0.0435	Open
P1495	J11_33	J11_34	145.00	300.0	125.0	0.0150	Open
P1496	J11_33	J12_33	145.00	450.0	125.0	0.0474	Open
P1497	J11_34	J11_35	145.00	350.0	120.0	0.0312	Open
P1498	J11_34	J12_34	145.00	300.0	130.0	0.0125	Open
P1499	J11_35	J11_36	145.00	400.0	125.0	0.0370	Open
P1500	J11_35	J12_35	145.00	600.0	125.0	0.0406	Open
P1501	J11_36	J11_37	145.00	350.0	130.0	0.0399	Open
P1502	J11_36	J12_36	145.00	350.0	120.0	0.0122	Open
P1503	J11_37	J11_38	145.00	600.0	120.0	0.0382	Open
P1504	J11_37	J12_37	145.00	350.0	120.0	0.0255	Open
P1505	J11_38	J11_39	145.00	500.0	125.0	0.0414	Open
P1506	J11_38	J12_38	145.00	450.0	125.0	0.0076	Open
P1507	J11_39	J11_40	145.00	500.0	130.0	0.0036	Open
P1508	J11_39	J12_39	145.00	400.0	120.0	0.0381	Open
P1509	J11_40	J11_41	145.00	500.0	125.0	0.0424	Open
P1510	J11_40	J12_40	145.00	450.0	130.0	0.0405	Open
P1511	J11_41	J11_42	145.00	400.0	130.0	0.0430	Open
P1512	J11_41	J12_41	145.00	500.0	125.0	0.0101	Open
P1513	J11_42	J11_43	145.00	300.0	120.0	0.0499	Open
P1514	J11_42	J12_42	145.00	300.0	120.0	0.0171	Open
P1515	J11_43	J11_44	145.00	350.0	125.0	0.0453	Open
P1516	J11_43	J12_43	145.00	500.0	130.0	0.0457	Open
P1517	J11_44	J11_45	145.00	300.0	130.0	0.0105	Open
P1518	J11_44	J12_44	145.00	600.0	130.0	0.0377	Open
P1519	J11_45	J11_46	145.00	450.0	130.0	0.0384	Open
P1520	J11_45	J12_45	145.00	300.0	130.0	0.0435	Open
P1521	J11_46	J11_47	145.00	500.0	130.0	0.0209	Open
P1522	J11_46	J12_46	145.00	300.0	120.0	0.0157	Open
P1523	J11_47	J11_48	145.00	400.0	125.0	0.0457	Open
P1524	J11_47	J12_47	145.00	500.0	130.0	0.0093	Open
P1525	J11_48	J11_49	145.00	350.0	130.0	0.0332	Open
P1526	J11_48	J12_48	145.00	350.0	120.0	0.0314	Open
P1527	J11_49	J11_50	145.00	350.0	125.0	0.0068	Open
P1528	J11_49	J12_49	145.00	400.0	130.0	0.0110	Open
P1529	J11_50	J11_51	145.00	300.0	125.0	0.0482	Open
P1530	J11_50	J12_50	145.00	500.0	130.0	0.0242	Open
P1531	J11_51	J11_52	145.00	300.0	125.0	0.0259	Open
P1532	J11_51	J12_51	145.00	350.0	120.0	0.0051	Open
P1533	J11_52	J11_53	145.00	300.0	120.0	0.0340	Open
P1534	J11_52	J12_52	145.00	400.0	120.0	0.0281	Open
P1535	J11_53	J11_54	145.00	600.0	125.0	0.0166	Open
P1536	J11_53	J12_53	145.00	400.0	120.0	0.0330	Open
P1537	J11_54	J11_55	145.00	450.0	120.0	0.0342	Open
P1538	J11_54	J12_54	145.00	600.0	120.0	0.0360	Open
P1539	J11_55	J11_56	145.00	600.0	120.0	0.0451	Open
P1540	J11_55	J12_55	145.00	300.0	130.0	0.0325	Open
P1541	J11_56	J11_57	145.00	400.0	130.0	0.0403	Open
P1542	J11_56	J12_56	145.00	400.0	125.0	0.0339	Open
P1543	J11_57	J11_58	145.00	300.0	130.0	0.0001	Open
P1544	J11_57	J12_57	145.00	350.0	120.0	0.0103	Open
P1545	J11_58	J11_59	145.00	500.0	125.0	0.0358	Open
P1546	J11_58	J12_58	145.00	500.0	130.0	0.0126	Open
P1547	J11_59	J11_60	145.00	300.0	130.0	0.0479	Open
P1548	J11_59	J12_59	145.00	500.0	130.0	0.0492	Open
P1549	J11_60	J11_61	145.00	500.0	125.0	0.0398	Open
P1550	J11_60	J12_60	145.00	450.0	125.0	0.0101	Open
P1551	J11_61	J11_62	145.00	450.0	130.0	0.0118	Open
P1552	J11_61	J12_61	145.00	450.0	120.0	0.0117	Open
P1553	J11_62	J11_63	145.00	300.0	130.0	0.0301	Open
P1554	J11_62	J12_62	145.00	450.0	125.0	0.0105	Open
P1555	J11_63	J11_64	145.00	300.0	120.0	0.0101	Open
P1556	J11_63	J12_63	145.00	350.0	120.0	0.0094	Open
P1557	J11_64	J11_65	145.00	600.0	120.0	0.0246	Open
P1558	J11_64	J12_64	145.00	300.0	125.0	0.0152	Open
P1559	J11_65	J11_66	145.00	350.0	120.0	0.0334	Open
P1560	J11_65	J12_65	145.00	300.0	130.0	0.0469	Open
P1561	J11_66	J11_67	145.00	600.0	130.0	0.0122	Open
P1562	J11_66	J12_66	145.00	300.0	130.0	0.0240	Open
P1563	J11_67	J11_68	145.00	600.0	120.0	0.0213	Open
P1564	J11_67	J12_67	145.00	500.0	120.0	0.0417	Open
P1565	J11_68	J11_69	145.00	450.0	130.0	0.0462	Open
P1566	J11_68	J12_68	145.00	450.0	130.0	0.0156	Open
P1567	J11_69	J11_70	145.00	450.0	120.0	0.0091	Open
P1568	J11_69	J12_69	145.00	450.0	125.0	0.0184	Open
P1569	J11_70	J11_71	145.00	400.0	130.0	0.0277	Open
P1570	J11_70	J12_70	145.00	450.0	125.0	0.0355	Open
P1571	J11_71	J11_72	145.00	450.0	125.0	0.0442	Open
P1572	J11_71	J12_71	145.00	450.0	120.0	0.0323	Open
P1573	J11_72	J12_72	145.00	600.0	125.0	0.0431	Open
P1574	J12_1	J12_2	145.00	500.0	125.0	0.0477	Open
P1575	J12_1	J13_1	145.00	600.0	125.0	0.0446	Open
P1576	J12_2	J12_3	145.00	100.0	135.0	0.1418	Open
P1577	J12_2	J13_2	145.00	300.0	140.0	0.0912	Open
P1578	J12_3	J12_4	145.00	300.0	130.0	0.1113	Open
P1579	J12_3	J13_3	145.00	250.0	140.0	0.0546	Open
P1580	J12_4	J12_5	145.00	250.0	130.0	0.0283	Open
P1581	J12_4	J13_4	145.00	150.0	140.0	0.0134	Open
P1582	J12_5	J12_6	145.00	150.0	135.0	0.1040	Open
P1583	J12_5	J13_5	145.00	300.0	130.0	0.1487	Open
P1584	J12_6	J12_7	145.00	150.0	130.0	0.0708	Open
P1585	J12_6	J13_6	145.00	200.0	135.0	0.0608	Open
P1586	J12_7	J12_8	145.00	150.0	135.0	0.0208	Open
P1587	J12_7	J13_7	145.00	200.0	140.0	0.0375	Open
P1588	J12_8	J12_9	145.00	150.0	130.0	0.0061	Open
P1589	J12_8	J13_8	145.00	100.0	135.0	0.0154	Open
P1590	J12_9	J12_10	145.00	150.0	125.0	0.0879	Open
P1591	J12_9	J13_9	145.00	200.0	135.0	0.1097	Open
P1592	J12_10	J12_11	145.00	200.0	130.0	0.1395	Open
P1593	J12_10	J13_10	145.00	150.0	130.0	0.0866	Open
P1594	J12_11	J12_12	145.00	350.0	125.0	0.0326	Open
P1595	J12_11	J13_11	145.00	450.0	130.0	0.0180	Open
P1596	J12_12	J12_13	145.00	200.0	135.0	0.1027	Open
P1597	J12_12	J13_12	145.00	200.0	135.0	0.1263	Open
P1598	J12_13	J12_14	145.00	300.0	125.0	0.1457	Open
P1599	J12_13	J13_13	145.00	200.0	135.0	0.1308	Open
P1600	J12_14	J12_15	145.00	300.0	135.0	0.1456	Open
P1601	J12_14	J13_14	145.00	100.0	125.0	0.1400	Open
P1602	J12_15	J12_16	145.00	150.0	135.0	0.0809	Open
P1603	J12_15	J13_15	145.00	250.0	125.0	0.0722	Open
P1604	J12_16	J12_17	145.00	250.0	130.0	0.1397	Open
P1605	J12_16	J13_16	145.00	200.0	125.0	0.1451	Open
P1606	J12_17	J12_18	145.00	300.0	135.0	0.0546	Open
P1607	J12_17	J13_17	145.00	100.0	125.0	0.0872	Open
P1608	J12_18	J12_19	145.00	250.0	135.0	0.0659	Open
P1609	J12_18	J13_18	145.00	300.0	125.0	0.0889	Open
P1610	J12_19	J12_20	145.00	250.0	130.0	0.0917	Open
P1611	J12_19	J13_19	145.00	300.0	125.0	0.0258	Open
P1612	J12_20	J12_21	145.00	150.0	135.0	0.0535	Open
P1613	J12_20	J13_20	145.00	300.0	125.0	0.1157	Open
P1614	J12_21	J12_22	145.00	600.0	130.0	0.0486	Open
P1615	J12_21	J13_21	145.00	600.0	120.0	0.0200	Open
P1616	J12_22	J12_23	145.00	150.0	130.0	0.1114	Open
P1617	J12_22	J13_22	145.00	100.0	125.0	0.1082	Open
P1618	J12_23	J12_24	145.00	250.0	140.0	0.0062	Open
P1619	J12_23	J13_23	145.00	150.0	135.0	0.0515	Open
P1620	J12_24	J12_25	145.00	200.0	125.0	0.0750	Open
P1621	J12_24	J13_24	145.00	200.0	140.0	0.1292	Open
P1622	J12_25	J12_26	145.00	100.0	125.0	0.1230	Open
P1623	J12_25	J13_25	145.00	200.0	135.0	0.0637	Open
P1624	J12_26	J12_27	145.00	250.0	130.0	0.1416	Open
P1625	J12_26	J13_26	145.00	250.0	135.0	0.0349	Open
P1626	J12_27	J12_28	145.00	300.0	135.0	0.0695	Open
P1627	J12_27	J13_27	145.00	200.0	125.0	0.0505	Open
P1628	J12_28	J12_29	145.00	150.0	130.0	0.0143	Open
P1629	J12_28	J13_28	145.00	200.0	135.0	0.0361	Open
P1630	J12_29	J12_30	145.00	150.0	135.0	0.0853	Open
P1631	J12_29	J13_29	145.00	250.0	135.0	0.1088	Open
P1632	J12_30	J12_31	145.00	200.0	125.0	0.1323	Open
P1633	J12_30	J13_30	145.00	150.0	130.0	0.1099	Open
P1634	J12_31	J12_32	145.00	500.0	130.0	0.0334	Open
P1635	J12_31	J13_31	145.00	400.0	120.0	0.0089	Open
P1636	J12_32	J12_33	145.00	150.0	125.0	0.0026	Open
P1637	J12_32	J13_32	145.00	200.0	125.0	0.1310	Open
P1638	J12_33	J12_34	145.00	100.0	135.0	0.0040	Open
P1639	J12_33	J13_33	145.00	150.0	125.0	0.1419	Open
P1640	J12_34	J12_35	145.00	200.0	135.0	0.0876	Open
P1641	J12_34	J13_34	145.00	150.0	135.0	0.1315	Open
P1642	J12_35	J12_36	145.00	150.0	130.0	0.0969	Open
P1643	J12_35	J13_35	145.00	250.0	135.0	0.0166	Open
P1644	J12_36	J12_37	145.00	150.0	135.0	0.1346	Open
P1645	J12_36	J13_36	145.00	100.0	140.0	0.0769	Open
P1646	J12_37	J12_38	145.00	300.0	125.0	0.0421	Open
P1647	J12_37	J13_37	145.00	300.0	135.0	0.0466	Open
P1648	J12_38	J12_39	145.00	250.0	140.0	0.0099	Open
P1649	J12_38	J13_38	145.00	150.0	140.0	0.0183	Open
P1650	J12_39	J12_40	145.00	200.0	140.0	0.0504	Open
P1651	J12_39	J13_39	145.00	200.0	125.0	0.0144	Open
P1652	J12_40	J12_41	145.00	250.0	130.0	0.0987	Open
P1653	J12_40	J13_40	145.00	250.0	135.0	0.1233	Open
P1654	J12_41	J12_42	145.00	400.0	125.0	0.0423	Open
P1655	J12_41	J13_41	145.00	500.0	130.0	0.0395	Open
P1656	J12_42	J12_43	145.00	200.0	135.0	0.0931	Open
P1657	J12_42	J13_42	145.00	200.0	135.0	0.0770	Open
P1658	J12_43	J12_44	145.00	300.0	130.0	0.0323	Open
P1659	J12_43	J13_43	145.00	100.0	140.0	0.0797	Open
P1660	J12_44	J12_45	145.00	300.0	135.0	0.0167	Open
P1661	J12_44	J13_44	145.00	200.0	135.0	0.1445	Open
P1662	J12_45	J12_46	145.00	100.0	130.0	0.0697	Open
P1663	J12_45	J13_45	145.00	300.0	140.0	0.1358	Open
P1664	J12_46	J12_47	145.00	250.0	135.0	0.1283	Open
P1665	J12_46	J13_46	145.00	150.0	130.0	0.1234	Open
P1666	J12_47	J12_48	145.00	300.0	130.0	0.0788	Open
P1667	J12_47	J13_47	145.00	200.0	135.0	0.0199	Open
P1668	J12_48	J12_49	145.00	250.0	125.0	0.0602	Open
P1669	J12_48	J13_48	145.00	150.0	140.0	0.0675	Open
P1670	J12_49	J12_50	145.00	150.0	140.0	0.0980	Open
P1671	J12_49	J13_49	145.00	250.0	130.0	0.0426	Open
P1672	J12_50	J12_51	145.00	150.0	125.0	0.0502	Open
P1673	J12_50	J13_50	145.00	100.0	125.0	0.1213	Open
P1674	J12_51	J12_52	145.00	500.0	130.0	0.0407	Open
P1675	J12_51	J13_51	145.00	500.0	120.0	0.0442	Open
P1676	J12_52	J12_53	145.00	300.0	125.0	0.0244	Open
P1677	J12_52	J13_52	145.00	250.0	135.0	0.0208	Open
P1678	J12_53	J12_54	145.00	100.0	130.0	0.0327	Open
P1679	J12_53	J13_53	145.00	300.0	130.0	0.0985	Open
P1680	J12_54	J12_55	145.00	200.0	140.0	0.1194	Open
P1681	J12_54	J13_54	145.00	200.0	135.0	0.1448	Open
P1682	J12_55	J12_56	145.00	200.0	140.0	0.1468	Open
P1683	J12_55	J13_55	145.00	300.0	135.0	0.0953	Open
P1684	J12_56	J12_57	145.00	300.0	125.0	0.0442	Open
P1685	J12_56	J13_56	145.00	150.0	130.0	0.0088	Open
P1686	J12_57	J12_58	145.00	150.0	125.0	0.0559	Open
P1687	J12_57	J13_57	145.00	150.0	130.0	0.0359	Open
P1688	J12_58	J12_59	145.00	250.0	130.0	0.0197	Open
P1689	J12_58	J13_58	145.00	300.0	135.0	0.0695	Open
P1690	J12_59	J12_60	145.00	300.0	130.0	0.1392	Open
P1691	J12_59	J13_59	145.00	100.0	125.0	0.1366	Open
P1692	J12_60	J12_61	145.00	200.0	140.0	0.0281	Open
P1693	J12_60	J13_60	145.00	100.0	140.0	0.0552	Open
P1694	J12_61	J12_62	145.00	450.0	125.0	0.0011	Open
P1695	J12_61	J13_61	145.00	450.0	125.0	0.0490	Open
P1696	J12_62	J12_63	145.00	300.0	140.0	0.1193	Open
P1697	J12_62	J13_62	145.00	100.0	135.0	0.1405	Open
P1698	J12_63	J12_64	145.00	250.0	125.0	0.0774	Open
P1699	J12_63	J13_63	145.00	300.0	135.0	0.0711	Open
P1700	J12_64	J12_65	145.00	100.0	130.0	0.0052	Open
P1701	J12_64	J13_64	145.00	300.0	140.0	0.1270	Open
P1702	J12_65	J12_66	145.00	150.0	130.0	0.1153	Open
P1703	J12_65	J13_65	145.00	150.0	140.0	0.0871	Open
P1704	J12_66	J12_67	145.00	100.0	135.0	0.0935	Open
P1705	J12_66	J13_66	145.00	200.0	135.0	0.0656	Open
P1706	J12_67	J12_68	145.00	200.0	125.0	0.0662	Open
P1707	J12_67	J13_67	145.00	200.0	130.0	0.0904	Open
P1708	J12_68	J12_69	145.00	150.0	135.0	0.0773	Open
P1709	J12_68	J13_68	145.00	100.0	140.0	0.0944	Open
P1710	J12_69	J12_70	145.00	250.0	140.0	0.0276	Open
P1711	J12_69	J13_69	145.00	250.0	130.0	0.1416	Open
P1712	J12_70	J12_71	145.00	200.0	135.0	0.0180	Open
P1713	J12_70	J13_70	145.00	300.0	135.0	0.1094	Open
P1714	J12_71	J12_72	145.00	350.0	125.0	0.0477	Open
P1715	J12_71	J13_71	145.00	450.0	120.0	0.0094	Open
P1716	J12_72	J13_72	145.00	100.0	140.0	0.0145	Open
P1717	J13_1	J13_2	145.00	600.0	120.0	0.0323	Open
P1718	J13_1	J14_1	145.00	350.0	125.0	0.0395	Open
P1719	J13_2	J13_3	145.00	250.0	125.0	0.1198	Open
P1720	J13_2	J14_2	145.00	150.0	125.0	0.0166	Open
P1721	J13_3	J13_4	145.00	150.0	140.0	0.0812	Open
P1722	J13_3	J14_3	145.00	250.0	125.0	0.1484	Open
P1723	J13_4	J13_5	145.00	200.0	130.0	0.1389	Open
P1724	J13_4	J14_4	145.00	100.0	140.0	0.0294	Open
P1725	J13_5	J13_6	145.00	150.0	140.0	0.1422	Open
P1726	J13_5	J14_5	145.00	300.0	135.0	0.0280	Open
P1727	J13_6	J13_7	145.00	250.0	140.0	0.1196	Open
P1728	J13_6	J14_6	145.00	250.0	140.0	0.0959	Open
P1729	J13_7	J13_8	145.00	300.0	130.0	0.1115	Open
P1730	J13_7	J14_7	145.00	100.0	125.0	0.1303	Open
P1731	J13_8	J13_9	145.00	200.0	130.0	0.0520	Open
P1732	J13_8	J14_8	145.00	300.0	140.0	0.0539	Open
P1733	J13_9	J13_10	145.00	250.0	140.0	0.1351	Open
P1734	J13_9	J14_9	145.00	250.0	130.0	0.1329	Open
P1735	J13_10	J13_11	145.00	150.0	140.0	0.0861	Open
P1736	J13_10	J14_10	145.00	300.0	130.0	0.0133	Open
P1737	J13_11	J13_12	145.00	450.0	125.0	0.0206	Open
P1738	J13_11	J14_11	145.00	600.0	130.0	0.0457	Open
P1739	J13_12	J13_13	145.00	200.0	125.0	0.1208	Open
P1740	J13_12	J14_12	145.00	300.0	135.0	0.0848	Open
P1741	J13_13	J13_14	145.00	150.0	130.0	0.0077	Open
P1742	J13_13	J14_13	145.00	150.0	135.0	0.0265	Open
P1743	J13_14	J13_15	145.00	300.0	135.0	0.0058	Open
P1744	J13_14	J14_14	145.00	300.0	140.0	0.0279	Open
P1745	J13_15	J13_16	145.00	100.0	130.0	0.0863	Open
P1746	J13_15	J14_15	145.00	300.0	135.0	0.0581	Open
P1747	J13_16	J13_17	145.00	100.0	130.0	0.0513	Open
P1748	J13_16	J14_16	145.00	100.0	130.0	0.1469	Open
P1749	J13_17	J13_18	145.00	250.0	135.0	0.0538	Open
P1750	J13_17	J14_17	145.00	100.0	135.0	0.1299	Open
P1751	J13_18	J13_19	145.00	200.0	130.0	0.0270	Open
P1752	J13_18	J14_18	145.00	150.0	130.0	0.0801	Open
P1753	J13_19	J13_20	145.00	300.0	140.0	0.0117	Open
P1754	J13_19	J14_19	145.00	150.0	125.0	0.0100	Open
P1755	J13_20	J13_21	145.00	200.0	130.0	0.1181	Open
P1756	J13_20	J14_20	145.00	200.0	125.0	0.0992	Open
P1757	J13_21	J13_22	145.00	450.0	125.0	0.0494	Open
P1758	J13_21	J14_21	145.00	600.0	125.0	0.0296	Open
P1759	J13_22	J13_23	145.00	150.0	125.0	0.0953	Open
P1760	J13_22	J14_22	145.00	250.0	125.0	0.0367	Open
P1761	J13_23	J13_24	145.00	200.0	140.0	0.0246	Open
P1762	J13_23	J14_23	145.00	200.0	125.0	0.1122	Open
P1763	J13_24	J13_25	145.00	200.0	140.0	0.1176	Open
P1764	J13_24	J14_24	145.00	200.0	130.0	0.0890	Open
P1765	J13_25	J13_26	145.00	300.0	125.0	0.0724	Open
P1766	J13_25	J14_25	145.00	300.0	140.0	0.0258	Open
P1767	J13_26	J13_27	145.00	150.0	130.0	0.1214	Open
P1768	J13_26	J14_26	145.00	100.0	125.0	0.0065	Open
P1769	J13_27	J13_28	145.00	100.0	135.0	0.0405	Open
P1770	J13_27	J14_27	145.00	150.0	125.0	0.0934	Open
P1771	J13_28	J13_29	145.00	100.0	130.0	0.1270	Open
P1772	J13_28	J14_28	145.00	300.0	125.0	0.0424	Open
P1773	J13_29	J13_30	145.00	150.0	135.0	0.0716	Open
P1774	J13_29	J14_29	145.00	300.0	130.0	0.0054	Open
P1775	J13_30	J13_31	145.00	200.0	125.0	0.0336	Open
P1776	J13_30	J14_30	145.00	150.0	130.0	0.1084	Open
P1777	J13_31	J13_32	145.00	450.0	130.0	0.0085	Open
P1778	J13_31	J14_31	145.00	400.0	120.0	0.0430	Open
P1779	J13_32	J13_33	145.00	100.0	140.0	0.0064	Open
P1780	J13_32	J14_32	145.00	300.0	130.0	0.0500	Open
P1781	J13_33	J13_34	145.00	150.0	140.0	0.1288	Open
P1782	J13_33	J14_33	145.00	200.0	140.0	0.0747	Open
P1783	J13_34	J13_35	145.00	150.0	135.0	0.0424	Open
P1784	J13_34	J14_34	145.00	150.0	130.0	0.0741	Open
P1785	J13_35	J13_36	145.00	150.0	135.0	0.0386	Open
P1786	J13_35	J14_35	145.00	300.0	125.0	0.0089	Open
P1787	J13_36	J13_37	145.00	200.0	140.0	0.1399	Open
P1788	J13_36	J14_36	145.00	100.0	130.0	0.0778	Open
P1789	J13_37	J13_38	145.00	300.0	125.0	0.0492	Open
P1790	J13_37	J14_37	145.00	200.0	130.0	0.0541	Open
P1791	J13_38	J13_39	145.00	150.0	140.0	0.1241	Open
P1792	J13_38	J14_38	145.00	150.0	135.0	0.0062	Open
P1793	J13_39	J13_40	145.00	250.0	125.0	0.0591	Open
P1794	J13_39	J14_39	145.00	100.0	125.0	0.0242	Open
P1795	J13_40	J13_41	145.00	150.0	135.0	0.1102	Open
P1796	J13_40	J14_40	145.00	200.0	130.0	0.0509	Open
P1797	J13_41	J13_42	145.00	400.0	125.0	0.0352	Open
P1798	J13_41	J14_41	145.00	300.0	125.0	0.0086	Open
P1799	J13_42	J13_43	145.00	250.0	130.0	0.0907	Open
P1800	J13_42	J14_42	145.00	100.0	130.0	0.0689	Open
P1801	J13_43	J13_44	145.00	150.0	130.0	0.0836	Open
P1802	J13_43	J14_43	145.00	100.0	135.0	0.0493	Open
P1803	J13_44	J13_45	145.00	150.0	130.0	0.0264	Open
P1804	J13_44	J14_44	145.00	200.0	130.0	0.0310	Open
P1805	J13_45	J13_46	145.00	200.0	140.0	0.0982	Open
P1806	J13_45	J14_45	145.00	200.0	140.0	0.0095	Open
P1807	J13_46	J13_47	145.00	150.0	140.0	0.0547	Open
P1808	J13_46	J14_46	145.00	250.0	140.0	0.0360	Open
P1809	J13_47	J13_48	145.00	200.0	140.0	0.1192	Open
P1810	J13_47	J14_47	145.00	200.0	130.0	0.0733	Open
P1811	J13_48	J13_49	145.00	300.0	130.0	0.0982	Open
P1812	J13_48	J14_48	145.00	100.0	140.0	0.0592	Open
P1813	J13_49	J13_50	145.00	200.0	135.0	0.0849	Open
P1814	J13_49	J14_49	145.00	100.0	130.0	0.0776	Open
P1815	J13_50	J13_51	145.00	200.0	130.0	0.0646	Open
P1816	J13_50	J14_50	145.00	300.0	130.0	0.1476	Open
P1817	J13_51	J13_52	145.00	350.0	120.0	0.0449	Open
P1818	J13_51	J14_51	145.00	600.0	125.0	0.0266	Open
P1819	J13_52	J13_53	145.00	150.0	125.0	0.1033	Open
P1820	J13_52	J14_52	145.00	150.0	125.0	0.0695	Open
P1821	J13_53	J13_54	145.00	300.0	130.0	0.0077	Open
P1822	J13_53	J14_53	145.00	250.0	125.0	0.0045	Open
P1823	J13_54	J13_55	145.00	300.0	140.0	0.0351	Open
P1824	J13_54	J14_54	145.00	100.0	135.0	0.0640	Open
P1825	J13_55	J13_56	145.00	300.0	125.0	0.0817	Open
P1826	J13_55	J14_55	145.00	250.0	125.0	0.0966	Open
P1827	J13_56	J13_57	145.00	200.0	135.0	0.0893	Open
P1828	J13_56	J14_56	145.00	100.0	130.0	0.0616	Open
P1829	J13_57	J13_58	145.00	250.0	140.0	0.1002	Open
P1830	J13_57	J14_57	145.00	200.0	130.0	0.0603	Open
P1831	J13_58	J13_59	145.00	300.0	135.0	0.0898	Open
P1832	J13_58	J14_58	145.00	150.0	140.0	0.0773	Open
P1833	J13_59	J13_60	145.00	100.0	140.0	0.0645	Open
P1834	J13_59	J14_59	145.00	250.0	125.0	0.1449	Open
P1835	J13_60	J13_61	145.00	250.0	135.0	0.1223	Open
P1836	J13_60	J14_60	145.00	100.0	130.0	0.0245	Open
P1837	J13_61	J13_62	145.00	350.0	120.0	0.0413	Open
P1838	J13_61	J14_61	145.00	500.0	125.0	0.0473	Open
P1839	J13_62	J13_63	145.00	300.0	125.0	0.0485	Open
P1840	J13_62	J14_62	145.00	100.0	125.0	0.1013	Open
P1841	J13_63	J13_64	145.00	150.0	130.0	0.0480	Open
P1842	J13_63	J14_63	145.00	200.0	140.0	0.0901	Open
P1843	J13_64	J13_65	145.00	200.0	140.0	0.1184	Open
P1844	J13_64	J14_64	145.00	150.0	125.0	0.0385	Open
P1845	J13_65	J13_66	145.00	100.0	125.0	0.0053	Open
P1846	J13_65	J14_65	145.00	100.0	125.0	0.1481	Open
P1847	J13_66	J13_67	145.00	200.0	135.0	0.0417	Open
P1848	J13_66	J14_66	145.00	150.0	125.0	0.0038	Open
P1849	J13_67	J13_68	145.00	300.0	125.0	0.0378	Open
P1850	J13_67	J14_67	145.00	300.0	125.0	0.1107	Open
P1851	J13_68	J13_69	145.00	250.0	135.0	0.1361	Open
P1852	J13_68	J14_68	145.00	200.0	125.0	0.0730	Open
P1853	J13_69	J13_70	145.00	100.0	125.0	0.0747	Open
P1854	J13_69	J14_69	145.00	200.0	135.0	0.0610	Open
P1855	J13_70	J13_71	145.00	300.0	135.0	0.0898	Open
P1856	J13_70	J14_70	145.00	300.0	125.0	0.0170	Open
P1857	J13_71	J13_72	145.00	300.0	130.0	0.0189	Open
P1858	J13_71	J14_71	145.00	350.0	120.0	0.0316	Open
P1859	J13_72	J14_72	145.00	250.0	125.0	0.1162	Open
P1860	J14_1	J14_2	145.00	500.0	130.0	0.0135	Open
P1861	J14_1	J15_1	145.00	600.0	120.0	0.0240	Open
P1862	J14_2	J14_3	145.00	100.0	135.0	0.0967	Open
P1863	J14_2	J15_2	145.00	100.0	135.0	0.0651	Open
P1864	J14_3	J14_4	145.00	150.0	140.0	0.0738	Open
P1865	J14_3	J15_3	145.00	200.0	125.0	0.0420	Open
P1866	J14_4	J14_5	145.00	200.0	135.0	0.0642	Open
P1867	J14_4	J15_4	145.00	200.0	140.0	0.1157	Open
P1868	J14_5	J14_6	145.00	250.0	130.0	0.1376	Open
P1869	J14_5	J15_5	145.00	150.0	140.0	0.1079	Open
P1870	J14_6	J14_7	145.00	200.0	140.0	0.0065	Open
P1871	J14_6	J15_6	145.00	200.0	140.0	0.1453	Open
P1872	J14_7	J14_8	145.00	200.0	125.0	0.0520	Open
P1873	J14_7	J15_7	145.00	150.0	130.0	0.0657	Open
P1874	J14_8	J14_9	145.00	250.0	130.0	0.0561	Open
P1875	J14_8	J15_8	145.00	300.0	140.0	0.0878	Open
P1876	J14_9	J14_10	145.00	200.0	140.0	0.0794	Open
P1877	J14_9	J15_9	145.00	150.0	140.0	0.0853	Open
P1878	J14_10	J14_11	145.00	250.0	140.0	0.0755	Open
P1879	J14_10	J15_10	145.00	300.0	140.0	0.1060	Open
P1880	J14_11	J14_12	145.00	500.0	120.0	0.0374	Open
P1881	J14_11	J15_11	145.00	350.0	130.0	0.0050	Open
P1882	J14_12	J14_13	145.00	100.0	125.0	0.1090	Open
P1883	J14_12	J15_12	145.00	150.0	125.0	0.0698	Open
P1884	J14_13	J14_14	145.00	250.0	140.0	0.1279	Open
P1885	J14_13	J15_13	145.00	200.0	130.0	0.1328	Open
P1886	J14_14	J14_15	145.00	250.0	125.0	0.0819	Open
P1887	J14_14	J15_14	145.00	250.0	135.0	0.0154	Open
P1888	J14_15	J14_16	145.00	300.0	125.0	0.1318	Open
P1889	J14_15	J15_15	145.00	250.0	130.0	0.0224	Open
P1890	J14_16	J14_17	145.00	100.0	125.0	0.0782	Open
P1891	J14_16	J15_16	145.00	250.0	130.0	0.0090	Open
P1892	J14_17	J14_18	145.00	100.0	125.0	0.1446	Open
P1893	J14_17	J15_17	145.00	250.0	125.0	0.1200	Open
P1894	J14_18	J14_19	145.00	300.0	135.0	0.0788	Open
P1895	J14_18	J15_18	145.00	250.0	130.0	0.1115	Open
P1896	J14_19	J14_20	145.00	250.0	130.0	0.0402	Open
P1897	J14_19	J15_19	145.00	300.0	130.0	0.0791	Open
P1898	J14_20	J14_21	145.00	100.0	130.0	0.1138	Open
P1899	J14_20	J15_20	145.00	100.0	130.0	0.0187	Open
P1900	J14_21	J14_22	145.00	350.0	130.0	0.0315	Open
P1901	J14_21	J15_21	145.00	600.0	130.0	0.0021	Open
P1902	J14_22	J14_23	145.00	300.0	135.0	0.0124	Open
P1903	J14_22	J15_22	145.00	200.0	125.0	0.0883	Open
P1904	J14_23	J14_24	145.00	200.0	135.0	0.0371	Open
P1905	J14_23	J15_23	145.00	150.0	135.0	0.0258	Open
P1906	J14_24	J14_25	145.00	100.0	140.0	0.1008	Open
P1907	J14_24	J15_24	145.00	150.0	135.0	0.0300	Open
P1908	J14_25	J14_26	145.00	200.0	125.0	0.1138	Open
P1909	J14_25	J15_25	145.00	300.0	125.0	0.1106	Open
P1910	J14_26	J14_27	145.00	200.0	135.0	0.0621	Open
P1911	J14_26	J15_26	145.00	250.0	140.0	0.1477	Open
P1912	J14_27	J14_28	145.00	150.0	130.0	0.0402	Open
P1913	J14_27	J15_27	145.00	300.0	135.0	0.1171	Open
P1914	J14_28	J14_29	145.00	200.0	135.0	0.0987	Open
P1915	J14_28	J15_28	145.00	200.0	130.0	0.0833	Open
P1916	J14_29	J14_30	145.00	250.0	125.0	0.0573	Open
P1917	J14_29	J15_29	145.00	200.0	140.0	0.1170	Open
P1918	J14_30	J14_31	145.00	300.0	140.0	0.0624	Open
P1919	J14_30	J15_30	145.00	100.0	125.0	0.0921	Open
P1920	J14_31	J14_32	145.00	500.0	125.0	0.0469	Open
P1921	J14_31	J15_31	145.00	400.0	125.0	0.0487	Open
P1922	J14_32	J14_33	145.00	100.0	140.0	0.0089	Open
P1923	J14_32	J15_32	145.00	250.0	130.0	0.1345	Open
P1924	J14_33	J14_34	145.00	200.0	130.0	0.1452	Open
P1925	J14_33	J15_33	145.00	300.0	135.0	0.0822	Open
P1926	J14_34	J14_35	145.00	100.0	140.0	0.1065	Open
P1927	J14_34	J15_34	145.00	200.0	140.0	0.0552	Open
P1928	J14_35	J14_36	145.00	250.0	140.0	0.1166	Open
P1929	J14_35	J15_35	145.00	250.0	130.0	0.0010	Open
P1930	J14_36	J14_37	145.00	250.0	125.0	0.0616	Open
P1931	J14_36	J15_36	145.00	250.0	140.0	0.0478	Open
P1932	J14_37	J14_38	145.00	150.0	140.0	0.1235	Open
P1933	J14_37	J15_37	145.00	300.0	135.0	0.0911	Open
P1934	J14_38	J14_39	145.00	300.0	135.0	0.1270	Open
P1935	J14_38	J15_38	145.00	200.0	135.0	0.1163	Open
P1936	J14_39	J14_40	145.00	150.0	125.0	0.0417	Open
P1937	J14_39	J15_39	145.00	100.0	135.0	0.0383	Open
P1938	J14_40	J14_41	145.00	100.0	130.0	0.0236	Open
P1939	J14_40	J15_40	145.00	150.0	140.0	0.0250	Open
P1940	J14_41	J14_42	145.00	400.0	130.0	0.0441	Open
P1941	J14_41	J15_41	145.00	450.0	125.0	0.0236	Open
P1942	J14_42	J14_43	145.00	150.0	140.0	0.0132	Open
P1943	J14_42	J15_42	145.00	250.0	125.0	0.0755	Open
P1944	J14_43	J14_44	145.00	100.0	130.0	0.0399	Open
P1945	J14_43	J15_43	145.00	300.0	140.0	0.1282	Open
P1946	J14_44	J14_45	145.00	100.0	140.0	0.0817	Open
P1947	J14_44	J15_44	145.00	100.0	130.0	0.1410	Open
P1948	J14_45	J14_46	145.00	300.0	140.0	0.0597	Open
P1949	J14_45	J15_45	145.00	300.0	125.0	0.0392	Open
P1950	J14_46	J14_47	145.00	150.0	140.0	0.1229	Open
P1951	J14_46	J15_46	145.00	150.0	130.0	0.0300	Open
P1952	J14_47	J14_48	145.00	150.0	140.0	0.0480	Open
P1953	J14_47	J15_47	145.00	100.0	135.0	0.0319	Open
P1954	J14_48	J14_49	145.00	100.0	125.0	0.1454	Open
P1955	J14_48	J15_48	145.00	250.0	135.0	0.1179	Open
P1956	J14_49	J14_50	145.00	300.0	125.0	0.0341	Open
P1957	J14_49	J15_49	145.00	300.0	140.0	0.1482	Open
P1958	J14_50	J14_51	145.00	250.0	135.0	0.1070	Open
P1959	J14_50	J15_50	145.00	250.0	125.0	0.1353	Open
P1960	J14_51	J14_52	145.00	600.0	130.0	0.0475	Open
P1961	J14_51	J15_51	145.00	600.0	120.0	0.0270	Open
P1962	J14_52	J14_53	145.00	200.0	135.0	0.1463	Open
P1963	J14_52	J15_52	145.00	150.0	130.0	0.0709	Open
P1964	J14_53	J14_54	145.00	250.0	140.0	0.0764	Open
P1965	J14_53	J15_53	145.00	150.0	125.0	0.1067	Open
P1966	J14_54	J14_55	145.00	250.0	125.0	0.1194	Open
P1967	J14_54	J15_54	145.00	200.0	130.0	0.0381	Open
P1968	J14_55	J14_56	145.00	300.0	125.0	0.0946	Open
P1969	J14_55	J15_55	145.00	300.0	130.0	0.1172	Open
P1970	J14_56	J14_57	145.00	250.0	135.0	0.0943	Open
P1971	J14_56	J15_56	145.00	100.0	135.0	0.0476	Open
P1972	J14_57	J14_58	145.00	250.0	125.0	0.0959	Open
P1973	J14_57	J15_57	145.00	300.0	140.0	0.0488	Open
P1974	J14_58	J14_59	145.00	200.0	125.0	0.0842	Open
P1975	J14_58	J15_58	145.00	150.0	130.0	0.0434	Open
P1976	J14_59	J14_60	145.00	200.0	135.0	0.0463	Open
P1977	J14_59	J15_59	145.00	100.0	140.0	0.1266	Open
P1978	J14_60	J14_61	145.00	200.0	130.0	0.1140	Open
P1979	J14_60	J15_60	145.00	300.0	125.0	0.0700	Open
P1980	J14_61	J14_62	145.00	450.0	130.0	0.0051	Open
P1981	J14_61	J15_61	145.00	500.0	130.0	0.0152	Open
P1982	J14_62	J14_63	145.00	300.0	130.0	0.0461	Open
P1983	J14_62	J15_62	145.00	150.0	130.0	0.1436	Open
P1984	J14_63	J14_64	145.00	100.0	140.0	0.0199	Open
P1985	J14_63	J15_63	145.00	300.0	125.0	0.1058	Open
P1986	J14_64	J14_65	145.00	250.0	140.0	0.0239	Open
P1987	J14_64	J15_64	145.00	100.0	125.0	0.0261	Open
P1988	J14_65	J14_66	145.00	100.0	140.0	0.0055	Open
P1989	J14_65	J15_65	145.00	150.0	140.0	0.0707	Open
P1990	J14_66	J14_67	145.00	300.0	135.0	0.0402	Open
P1991	J14_66	J15_66	145.00	150.0	130.0	0.0741	Open
P1992	J14_67	J14_68	145.00	150.0	130.0	0.1076	Open
P1993	J14_67	J15_67	145.00	300.0	135.0	0.0773	Open
P1994	J14_68	J14_69	145.00	150.0	140.0	0.1381	Open
P1995	J14_68	J15_68	145.00	100.0	140.0	0.0120	Open
P1996	J14_69	J14_70	145.00	200.0	135.0	0.1085	Open
P1997	J14_69	J15_69	145.00	150.0	140.0	0.0313	Open
P1998	J14_70	J14_71	145.00	300.0	125.0	0.1075	Open
P1999	J14_70	J15_70	145.00	150.0	130.0	0.1078	Open
P2000	J14_71	J14_72	145.00	500.0	120.0	0.0487	Open
P2001	J14_71	J15_71	145.00	400.0	125.0	0.0289	Open
P2002	J14_72	J15_72	145.00	250.0	135.0	0.0250	Open
P2003	J15_1	J15_2	145.00	500.0	130.0	0.0160	Open
P2004	J15_1	J16_1	145.00	350.0	120.0	0.0055	Open
P2005	J15_2	J15_3	145.00	150.0	125.0	0.0693	Open
P2006	J15_2	J16_2	145.00	300.0	135.0	0.0437	Open
P2007	J15_3	J15_4	145.00	300.0	125.0	0.0657	Open
P2008	J15_3	J16_3	145.00	200.0	130.0	0.0655	Open
P2009	J15_4	J15_5	145.00	100.0	130.0	0.0705	Open
P2010	J15_4	J16_4	145.00	200.0	140.0	0.0262	Open
P2011	J15_5	J15_6	145.00	250.0	125.0	0.1149	Open
P2012	J15_5	J16_5	145.00	150.0	135.0	0.1244	Open
P2013	J15_6	J15_7	145.00	300.0	130.0	0.1316	Open
P2014	J15_6	J16_6	145.00	250.0	135.0	0.0868	Open
P2015	J15_7	J15_8	145.00	300.0	130.0	0.0801	Open
P2016	J15_7	J16_7	145.00	300.0	125.0	0.0511	Open
P2017	J15_8	J15_9	145.00	300.0	130.0	0.0717	Open
P2018	J15_8	J16_8	145.00	300.0	130.0	0.0362	Open
P2019	J15_9	J15_10	145.00	250.0	135.0	0.1274	Open
P2020	J15_9	J16_9	145.00	100.0	130.0	0.1280	Open
P2021	J15_10	J15_11	145.00	150.0	135.0	0.0248	Open
P2022	J15_10	J16_10	145.00	200.0	135.0	0.0250	Open
P2023	J15_11	J15_12	145.00	300.0	130.0	0.0042	Open
P2024	J15_11	J16_11	145.00	350.0	125.0	0.0487	Open
P2025	J15_12	J15_13	145.00	250.0	130.0	0.1025	Open
P2026	J15_12	J16_12	145.00	150.0	130.0	0.0617	Open
P2027	J15_13	J15_14	145.00	150.0	135.0	0.0578	Open
P2028	J15_13	J16_13	145.00	150.0	125.0	0.1424	Open
P2029	J15_14	J15_15	145.00	200.0	135.0	0.1135	Open
P2030	J15_14	J16_14	145.00	250.0	130.0	0.0661	Open
P2031	J15_15	J15_16	145.00	250.0	135.0	0.1087	Open
P2032	J15_15	J16_15	145.00	300.0	140.0	0.0171	Open
P2033	J15_16	J15_17	145.00	200.0	135.0	0.1384	Open
P2034	J15_16	J16_16	145.00	100.0	135.0	0.0830	Open
P2035	J15_17	J15_18	145.00	250.0	125.0	0.0709	Open
P2036	J15_17	J16_17	145.00	150.0	140.0	0.1479	Open
P2037	J15_18	J15_19	145.00	200.0	140.0	0.0546	Open
P2038	J15_18	J16_18	145.00	300.0	140.0	0.0402	Open
P2039	J15_19	J15_20	145.00	300.0	140.0	0.0465	Open
P2040	J15_19	J16_19	145.00	250.0	130.0	0.0739	Open
P2041	J15_20	J15_21	145.00	250.0	140.0	0.0032	Open
P2042	J15_20	J16_20	145.00	100.0	125.0	0.0309	Open
P2043	J15_21	J15_22	145.00	300.0	120.0	0.0369	Open
P2044	J15_21	J16_21	145.00	500.0	130.0	0.0445	Open
P2045	J15_22	J15_23	145.00	250.0	135.0	0.0021	Open
P2046	J15_22	J16_22	145.00	150.0	130.0	0.0395	Open
P2047	J15_23	J15_24	145.00	300.0	125.0	0.1473	Open
P2048	J15_23	J16_23	145.00	250.0	135.0	0.0742	Open
P2049	J15_24	J15_25	145.00	100.0	140.0	0.0788	Open
P2050	J15_24	J16_24	145.00	200.0	130.0	0.0192	Open
P2051	J15_25	J15_26	145.00	300.0	135.0	0.1244	Open
P2052	J15_25	J16_25	145.00	250.0	135.0	0.1144	Open
P2053	J15_26	J15_27	145.00	300.0	135.0	0.0836	Open
P2054	J15_26	J16_26	145.00	150.0	130.0	0.0918	Open
P2055	J15_27	J15_28	145.00	300.0	140.0	0.0326	Open
P2056	J15_27	J16_27	145.00	100.0	125.0	0.1318	Open
P2057	J15_28	J15_29	145.00	300.0	130.0	0.0593	Open
P2058	J15_28	J16_28	145.00	250.0	130.0	0.0441	Open
P2059	J15_29	J15_30	145.00	300.0	140.0	0.0254	Open
P2060	J15_29	J16_29	145.00	300.0	130.0	0.0835	Open
P2061	J15_30	J15_31	145.00	300.0	135.0	0.0764	Open
P2062	J15_30	J16_30	145.00	300.0	130.0	0.1155	Open
P2063	J15_31	J15_32	145.00	600.0	120.0	0.0136	Open
P2064	J15_31	J16_31	145.00	350.0	130.0	0.0004	Open
P2065	J15_32	J15_33	145.00	150.0	135.0	0.0405	Open
P2066	J15_32	J16_32	145.00	150.0	140.0	0.0116	Open
P2067	J15_33	J15_34	145.00	250.0	140.0	0.0029	Open
P2068	J15_33	J16_33	145.00	150.0	130.0	0.0472	Open
P2069	J15_34	J15_35	145.00	250.0	140.0	0.0482	Open
P2070	J15_34	J16_34	145.00	100.0	140.0	0.0017	Open
P2071	J15_35	J15_36	145.00	100.0	125.0	0.0799	Open
P2072	J15_35	J16_35	145.00	150.0	140.0	0.0119	Open
P2073	J15_36	J15_37	145.00	150.0	125.0	0.0122	Open
P2074	J15_36	J16_36	145.00	200.0	135.0	0.0500	Open
P2075	J15_37	J15_38	145.00	250.0	130.0	0.0588	Open
P2076	J15_37	J16_37	145.00	200.0	130.0	0.1303	Open
P2077	J15_38	J15_39	145.00	100.0	130.0	0.0427	Open
P2078	J15_38	J16_38	145.00	300.0	130.0	0.0356	Open
P2079	J15_39	J15_40	145.00	150.0	130.0	0.0538	Open
P2080	J15_39	J16_39	145.00	100.0	125.0	0.0870	Open
P2081	J15_40	J15_41	145.00	300.0	125.0	0.0102	Open
P2082	J15_40	J16_40	145.00	100.0	125.0	0.0771	Open
P2083	J15_41	J15_42	145.00	350.0	130.0	0.0027	Open
P2084	J15_41	J16_41	145.00	500.0	120.0	0.0196	Open
P2085	J15_42	J15_43	145.00	200.0	125.0	0.0072	Open
P2086	J15_42	J16_42	145.00	200.0	140.0	0.1072	Open
P2087	J15_43	J15_44	145.00	200.0	135.0	0.1423	Open
P2088	J15_43	J16_43	145.00	250.0	140.0	0.0624	Open
P2089	J15_44	J15_45	145.00	250.0	135.0	0.1098	Open
P2090	J15_44	J16_44	145.00	200.0	130.0	0.0855	Open
P2091	J15_45	J15_46	145.00	100.0	135.0	0.0895	Open
P2092	J15_45	J16_45	145.00	150.0	125.0	0.0360	Open
P2093	J15_46	J15_47	145.00	300.0	125.0	0.0217	Open
P2094	J15_46	J16_46	145.00	150.0	140.0	0.0550	Open
P2095	J15_47	J15_48	145.00	200.0	140.0	0.0423	Open
P2096	J15_47	J16_47	145.00	300.0	125.0	0.1351	Open
P2097	J15_48	J15_49	145.00	200.0	140.0	0.0294	Open
P2098	J15_48	J16_48	145.00	150.0	135.0	0.1253	Open
P2099	J15_49	J15_50	145.00	200.0	140.0	0.0506	Open
P2100	J15_49	J16_49	145.00	200.0	130.0	0.0964	Open
P2101	J15_50	J15_51	145.00	200.0	140.0	0.0147	Open
P2102	J15_50	J16_50	145.00	200.0	135.0	0.0151	Open
P2103	J15_51	J15_52	145.00	350.0	125.0	0.0472	Open
P2104	J15_51	J16_51	145.00	300.0	125.0	0.0374	Open
P2105	J15_52	J15_53	145.00	100.0	125.0	0.0381	Open
P2106	J15_52	J16_52	145.00	100.0	135.0	0.0767	Open
P2107	J15_53	J15_54	145.00	150.0	125.0	0.0927	Open
P2108	J15_53	J16_53	145.00	150.0	125.0	0.1135	Open
P2109	J15_54	J15_55	145.00	150.0	135.0	0.0277	Open
P2110	J15_54	J16_54	145.00	200.0	125.0	0.0604	Open
P2111	J15_55	J15_56	145.00	250.0	125.0	0.1458	Open
P2112	J15_55	J16_55	145.00	200.0	125.0	0.0808	Open
P2113	J15_56	J15_57	145.00	250.0	140.0	0.0559	Open
P2114	J15_56	J16_56	145.00	100.0	125.0	0.0068	Open
P2115	J15_57	J15_58	145.00	100.0	140.0	0.1471	Open
P2116	J15_57	J16_57	145.00	150.0	140.0	0.0972	Open
P2117	J15_58	J15_59	145.00	150.0	135.0	0.0892	Open
P2118	J15_58	J16_58	145.00	200.0	125.0	0.1113	Open
P2119	J15_59	J15_60	145.00	150.0	135.0	0.0538	Open
P2120	J15_59	J16_59	145.00	100.0	125.0	0.0888	Open
P2121	J15_60	J15_61	145.00	100.0	125.0	0.1403	Open
P2122	J15_60	J16_60	145.00	100.0	130.0	0.0953	Open
P2123	J15_61	J15_62	145.00	450.0	130.0	0.0237	Open
P2124	J15_61	J16_61	145.00	500.0	125.0	0.0190	Open
P2125	J15_62	J15_63	145.00	100.0	140.0	0.0284	Open
P2126	J15_62	J16_62	145.00	200.0	135.0	0.0511	Open
P2127	J15_63	J15_64	145.00	200.0	140.0	0.1031	Open
P2128	J15_63	J16_63	145.00	300.0	130.0	0.0052	Open
P2129	J15_64	J15_65	145.00	150.0	135.0	0.0516	Open
P2130	J15_64	J16_64	145.00	150.0	135.0	0.1224	Open
P2131	J15_65	J15_66	145.00	150.0	135.0	0.0353	Open
P2132	J15_65	J16_65	145.00	300.0	140.0	0.1079	Open
P2133	J15_66	J15_67	145.00	250.0	130.0	0.1070	Open
P2134	J15_66	J16_66	145.00	200.0	135.0	0.0043	Open
P2135	J15_67	J15_68	145.00	300.0	130.0	0.1120	Open
P2136	J15_67	J16_67	145.00	250.0	125.0	0.0750	Open
P2137	J15_68	J15_69	145.00	150.0	130.0	0.1092	Open
P2138	J15_68	J16_68	145.00	100.0	140.0	0.0451	Open
P2139	J15_69	J15_70	145.00	100.0	130.0	0.0199	Open
P2140	J15_69	J16_69	145.00	200.0	130.0	0.0729	Open
P2141	J15_70	J15_71	145.00	250.0	135.0	0.0122	Open
P2142	J15_70	J16_70	145.00	100.0	135.0	0.1409	Open
P2143	J15_71	J15_72	145.00	600.0	125.0	0.0175	Open
P2144	J15_71	J16_71	145.00	300.0	120.0	0.0130	Open
P2145	J15_72	J16_72	145.00	100.0	125.0	0.0815	Open
P2146	J16_1	J16_2	145.00	350.0	120.0	0.0396	Open
P2147	J16_1	J17_1	145.00	400.0	120.0	0.0231	Open
P2148	J16_2	J16_3	145.00	150.0	135.0	0.0999	Open
P2149	J16_2	J17_2	145.00	200.0	140.0	0.0027	Open
P2150	J16_3	J16_4	145.00	100.0	135.0	0.0222	Open
P2151	J16_3	J17_3	145.00	250.0	130.0	0.0725	Open
P2152	J16_4	J16_5	145.00	150.0	125.0	0.0906	Open
P2153	J16_4	J17_4	145.00	150.0	140.0	0.1306	Open
P2154	J16_5	J16_6	145.00	200.0	130.0	0.0256	Open
P2155	J16_5	J17_5	145.00	300.0	125.0	0.0116	Open
P2156	J16_6	J16_7	145.00	200.0	140.0	0.1432	Open
P2157	J16_6	J17_6	145.00	200.0	140.0	0.0259	Open
P2158	J16_7	J16_8	145.00	200.0	125.0	0.1195	Open
P2159	J16_7	J17_7	145.00	200.0	140.0	0.0376	Open
P2160	J16_8	J16_9	145.00	300.0	125.0	0.0690	Open
P2161	J16_8	J17_8	145.00	100.0	130.0	0.1083	Open
P2162	J16_9	J16_10	145.00	300.0	125.0	0.0262	Open
P2163	J16_9	J17_9	145.00	150.0	130.0	0.0533	Open
P2164	J16_10	J16_11	145.00	200.0	135.0	0.0743	Open
P2165	J16_10	J17_10	145.00	250.0	130.0	0.0920	Open
P2166	J16_11	J16_12	145.00	300.0	120.0	0.0475	Open
P2167	J16_11	J17_11	145.00	500.0	120.0	0.0288	Open
P2168	J16_12	J16_13	145.00	100.0	140.0	0.0312	Open
P2169	J16_12	J17_12	145.00	250.0	135.0	0.1409	Open
P2170	J16_13	J16_14	145.00	250.0	125.0	0.0358	Open
P2171	J16_13	J17_13	145.00	200.0	140.0	0.1113	Open
P2172	J16_14	J16_15	145.00	200.0	125.0	0.0624	Open
P2173	J16_14	J17_14	145.00	300.0	130.0	0.0954	Open
P2174	J16_15	J16_16	145.00	300.0	140.0	0.0804	Open
P2175	J16_15	J17_15	145.00	250.0	135.0	0.0313	Open
P2176	J16_16	J16_17	145.00	200.0	140.0	0.0956	Open
P2177	J16_16	J17_16	145.00	250.0	135.0	0.0423	Open
P2178	J16_17	J16_18	145.00	250.0	130.0	0.0077	Open
P2179	J16_17	J17_17	145.00	200.0	135.0	0.0259	Open
P2180	J16_18	J16_19	145.00	200.0	135.0	0.1030	Open
P2181	J16_18	J17_18	145.00	150.0	135.0	0.0767	Open
P2182	J16_19	J16_20	145.00	150.0	130.0	0.1286	Open
P2183	J16_19	J17_19	145.00	100.0	130.0	0.0064	Open
P2184	J16_20	J16_21	145.00	150.0	130.0	0.0104	Open
P2185	J16_20	J17_20	145.00	200.0	130.0	0.0028	Open
P2186	J16_21	J16_22	145.00	350.0	120.0	0.0048	Open
P2187	J16_21	J17_21	145.00	450.0	125.0	0.0352	Open
P2188	J16_22	J16_23	145.00	200.0	130.0	0.1212	Open
P2189	J16_22	J17_22	145.00	300.0	140.0	0.0282	Open
P2190	J16_23	J16_24	145.00	100.0	125.0	0.0466	Open
P2191	J16_23	J17_23	145.00	100.0	135.0	0.0664	Open
P2192	J16_24	J16_25	145.00	300.0	135.0	0.1034	Open
P2193	J16_24	J17_24	145.00	150.0	125.0	0.1055	Open
P2194	J16_25	J16_26	145.00	100.0	135.0	0.0806	Open
P2195	J16_25	J17_25	145.00	250.0	140.0	0.0029	Open
P2196	J16_26	J16_27	145.00	100.0	130.0	0.1374	Open
P2197	J16_26	J17_26	145.00	150.0	135.0	0.0875	Open
P2198	J16_27	J16_28	145.00	300.0	130.0	0.1305	Open
P2199	J16_27	J17_27	145.00	200.0	140.0	0.0408	Open
P2200	J16_28	J16_29	145.00	100.0	140.0	0.0077	Open
P2201	J16_28	J17_28	145.00	150.0	125.0	0.0491	Open
P2202	J16_29	J16_30	145.00	300.0	140.0	0.1404	Open
P2203	J16_29	J17_29	145.00	200.0	135.0	0.0711	Open
P2204	J16_30	J16_31	145.00	200.0	125.0	0.0906	Open
P2205	J16_30	J17_30	145.00	250.0	125.0	0.0533	Open
P2206	J16_31	J16_32	145.00	500.0	125.0	0.0318	Open
P2207	J16_31	J17_31	145.00	350.0	130.0	0.0360	Open
P2208	J16_32	J16_33	145.00	200.0	135.0	0.1444	Open
P2209	J16_32	J17_32	145.00	150.0	140.0	0.0016	Open
P2210	J16_33	J16_34	145.00	200.0	125.0	0.0205	Open
P2211	J16_33	J17_33	145.00	200.0	125.0	0.0986	Open
P2212	J16_34	J16_35	145.00	300.0	140.0	0.0509	Open
P2213	J16_34	J17_34	145.00	100.0	135.0	0.0641	Open
P2214	J16_35	J16_36	145.00	300.0	125.0	0.0915	Open
P2215	J16_35	J17_35	145.00	250.0	125.0	0.0117	Open
P2216	J16_36	J16_37	145.00	250.0	130.0	0.1326	Open
P2217	J16_36	J17_36	145.00	250.0	125.0	0.1237	Open
P2218	J16_37	J16_38	145.00	200.0	125.0	0.0652	Open
P2219	J16_37	J17_37	145.00	200.0	130.0	0.0638	Open
P2220	J16_38	J16_39	145.00	250.0	140.0	0.1361	Open
P2221	J16_38	J17_38	145.00	300.0	125.0	0.0949	Open
P2222	J16_39	J16_40	145.00	300.0	135.0	0.0139	Open
P2223	J16_39	J17_39	145.00	300.0	130.0	0.0286	Open
P2224	J16_40	J16_41	145.00	300.0	140.0	0.0609	Open
P2225	J16_40	J17_40	145.00	200.0	130.0	0.0161	Open
P2226	J16_41	J16_42	145.00	450.0	130.0	0.0022	Open
P2227	J16_41	J17_41	145.00	400.0	120.0	0.0174	Open
P2228	J16_42	J16_43	145.00	100.0	125.0	0.0283	Open
P2229	J16_42	J17_42	145.00	250.0	140.0	0.1328	Open
P2230	J16_43	J16_44	145.00	300.0	140.0	0.0535	Open
P2231	J16_43	J17_43	145.00	100.0	140.0	0.1022	Open
P2232	J16_44	J16_45	145.00	150.0	125.0	0.0615	Open
P2233	J16_44	J17_44	145.00	150.0	130.0	0.1183	Open
P2234	J16_45	J16_46	145.00	300.0	140.0	0.1228	Open
P2235	J16_45	J17_45	145.00	150.0	130.0	0.1171	Open
P2236	J16_46	J16_47	145.00	250.0	130.0	0.1225	Open
P2237	J16_46	J17_46	145.00	100.0	135.0	0.1086	Open
P2238	J16_47	J16_48	145.00	200.0	125.0	0.0463	Open
P2239	J16_47	J17_47	145.00	150.0	130.0	0.1479	Open
P2240	J16_48	J16_49	145.00	150.0	125.0	0.0596	Open
P2241	J16_48	J17_48	145.00	300.0	140.0	0.1476	Open
P2242	J16_49	J16_50	145.00	150.0	135.0	0.0077	Open
P2243	J16_49	J17_49	145.00	200.0	140.0	0.0067	Open
P2244	J16_50	J16_51	145.00	250.0	130.0	0.0830	Open
P2245	J16_50	J17_50	145.00	300.0	125.0	0.0697	Open
P2246	J16_51	J16_52	145.00	600.0	125.0	0.0246	Open
P2247	J16_51	J17_51	145.00	300.0	125.0	0.0043	Open
P2248	J16_52	J16_53	145.00	200.0	135.0	0.0568	Open
P2249	J16_52	J17_52	145.00	100.0	130.0	0.1090	Open
P2250	J16_53	J16_54	145.00	250.0	125.0	0.0677	Open
P2251	J16_53	J17_53	145.00	200.0	130.0	0.0983	Open
P2252	J16_54	J16_55	145.00	150.0	140.0	0.0447	Open
P2253	J16_54	J17_54	145.00	200.0	125.0	0.0363	Open
P2254	J16_55	J16_56	145.00	300.0	135.0	0.0385	Open
P2255	J16_55	J17_55	145.00	150.0	130.0	0.0340	Open
P2256	J16_56	J16_57	145.00	300.0	140.0	0.0359	Open
P2257	J16_56	J17_56	145.00	250.0	130.0	0.0385	Open
P2258	J16_57	J16_58	145.00	200.0	125.0	0.0381	Open
P2259	J16_57	J17_57	145.00	250.0	135.0	0.0035	Open
P2260	J16_58	J16_59	145.00	250.0	140.0	0.1097	Open
P2261	J16_58	J17_58	145.00	100.0	130.0	0.0993	Open
P2262	J16_59	J16_60	145.00	200.0	125.0	0.1477	Open
P2263	J16_59	J17_59	145.00	150.0	135.0	0.1475	Open
P2264	J16_60	J16_61	145.00	250.0	140.0	0.0261	Open
P2265	J16_60	J17_60	145.00	150.0	135.0	0.1396	Open
P2266	J16_61	J16_62	145.00	300.0	125.0	0.0165	Open
P2267	J16_61	J17_61	145.00	350.0	120.0	0.0248	Open
P2268	J16_62	J16_63	145.00	150.0	125.0	0.0778	Open
P2269	J16_62	J17_62	145.00	250.0	135.0	0.0817	Open
P2270	J16_63	J16_64	145.00	100.0	135.0	0.0406	Open
P2271	J16_63	J17_63	145.00	150.0	135.0	0.0358	Open
P2272	J16_64	J16_65	145.00	100.0	140.0	0.0203	Open
P2273	J16_64	J17_64	145.00	250.0	130.0	0.1016	Open
P2274	J16_65	J16_66	145.00	250.0	140.0	0.1429	Open
P2275	J16_65	J17_65	145.00	300.0	125.0	0.0332	Open
P2276	J16_66	J16_67	145.00	100.0	125.0	0.0055	Open
P2277	J16_66	J17_66	145.00	250.0	135.0	0.0509	Open
P2278	J16_67	J16_68	145.00	200.0	125.0	0.1411	Open
P2279	J16_67	J17_67	145.00	200.0	125.0	0.0142	Open
P2280	J16_68	J16_69	145.00	150.0	140.0	0.0351	Open
P2281	J16_68	J17_68	145.00	150.0	135.0	0.1209	Open
P2282	J16_69	J16_70	145.00	250.0	135.0	0.1039	Open
P2283	J16_69	J17_69	145.00	150.0	130.0	0.0283	Open
P2284	J16_70	J16_71	145.00	300.0	140.0	0.0199	Open
P2285	J16_70	J17_70	145.00	100.0	125.0	0.0622	Open
P2286	J16_71	J16_72	145.00	300.0	120.0	0.0012	Open
P2287	J16_71	J17_71	145.00	600.0	120.0	0.0256	Open
P2288	J16_72	J17_72	145.00	200.0	125.0	0.0936	Open
P2289	J17_1	J17_2	145.00	400.0	130.0	0.0254	Open
P2290	J17_1	J18_1	145.00	350.0	130.0	0.0134	Open
P2291	J17_2	J17_3	145.00	150.0	125.0	0.1350	Open
P2292	J17_2	J18_2	145.00	100.0	135.0	0.1103	Open
P2293	J17_3	J17_4	145.00	100.0	135.0	0.0633	Open
P2294	J17_3	J18_3	145.00	100.0	140.0	0.1406	Open
P2295	J17_4	J17_5	145.00	300.0	140.0	0.1448	Open
P2296	J17_4	J18_4	145.00	100.0	130.0	0.1425	Open
P2297	J17_5	J17_6	145.00	150.0	140.0	0.0240	Open
P2298	J17_5	J18_5	145.00	250.0	140.0	0.1248	Open
P2299	J17_6	J17_7	145.00	200.0	130.0	0.1211	Open
P2300	J17_6	J18_6	145.00	150.0	130.0	0.1307	Open
P2301	J17_7	J17_8	145.00	300.0	125.0	0.0031	Open
P2302	J17_7	J18_7	145.00	150.0	130.0	0.0670	Open
P2303	J17_8	J17_9	145.00	250.0	130.0	0.0794	Open
P2304	J17_8	J18_8	145.00	300.0	130.0	0.0315	Open
P2305	J17_9	J17_10	145.00	200.0	140.0	0.1131	Open
P2306	J17_9	J18_9	145.00	150.0	135.0	0.0854	Open
P2307	J17_10	J17_11	145.00	250.0	125.0	0.0172	Open
P2308	J17_10	J18_10	145.00	100.0	130.0	0.0948	Open
P2309	J17_11	J17_12	145.00	400.0	130.0	0.0153	Open
P2310	J17_11	J18_11	145.00	400.0	130.0	0.0090	Open
P2311	J17_12	J17_13	145.00	150.0	140.0	0.1078	Open
P2312	J17_12	J18_12	145.00	200.0	130.0	0.1383	Open
P2313	J17_13	J17_14	145.00	150.0	140.0	0.1298	Open
P2314	J17_13	J18_13	145.00	150.0	140.0	0.0495	Open
P2315	J17_14	J17_15	145.00	100.0	125.0	0.1224	Open
P2316	J17_14	J18_14	145.00	100.0	135.0	0.0509	Open
P2317	J17_15	J17_16	145.00	150.0	140.0	0.1163	Open
P2318	J17_15	J18_15	145.00	100.0	140.0	0.1275	Open
P2319	J17_16	J17_17	145.00	300.0	140.0	0.0371	Open
P2320	J17_16	J18_16	145.00	200.0	130.0	0.1141	Open
P2321	J17_17	J17_18	145.00	300.0	125.0	0.0701	Open
P2322	J17_17	J18_17	145.00	100.0	130.0	0.1363	Open
P2323	J17_18	J17_19	145.00	100.0	140.0	0.0594	Open
P2324	J17_18	J18_18	145.00	300.0	125.0	0.0793	Open
P2325	J17_19	J17_20	145.00	300.0	125.0	0.1308	Open
P2326	J17_19	J18_19	145.00	200.0	135.0	0.0067	Open
P2327	J17_20	J17_21	145.00	100.0	125.0	0.0210	Open
P2328	J17_20	J18_20	145.00	200.0	125.0	0.0006	Open
P2329	J17_21	J17_22	145.00	600.0	120.0	0.0414	Open
P2330	J17_21	J18_21	145.00	600.0	130.0	0.0377	Open
P2331	J17_22	J17_23	145.00	150.0	135.0	0.0658	Open
P2332	J17_22	J18_22	145.00	300.0	125.0	0.1059	Open
P2333	J17_23	J17_24	145.00	300.0	130.0	0.0549	Open
P2334	J17_23	J18_23	145.00	100.0	140.0	0.0846	Open
P2335	J17_24	J17_25	145.00	150.0	140.0	0.1225	Open
P2336	J17_24	J18_24	145.00	200.0	140.0	0.0848	Open
P2337	J17_25	J17_26	145.00	200.0	140.0	0.1233	Open
P2338	J17_25	J18_25	145.00	300.0	135.0	0.0370	Open
P2339	J17_26	J17_27	145.00	200.0	140.0	0.0041	Open
P2340	J17_26	J18_26	145.00	300.0	135.0	0.0150	Open
P2341	J17_27	J17_28	145.00	300.0	130.0	0.1208	Open
P2342	J17_27	J18_27	145.00	200.0	125.0	0.0321	Open
P2343	J17_28	J17_29	145.00	250.0	125.0	0.0747	Open
P2344	J17_28	J18_28	145.00	150.0	140.0	0.0258	Open
P2345	J17_29	J17_30	145.00	100.0	135.0	0.1373	Open
P2346	J17_29	J18_29	145.00	100.0	140.0	0.1114	Open
P2347	J17_30	J17_31	145.00	250.0	135.0	0.0970	Open
P2348	J17_30	J18_30	145.00	200.0	140.0	0.1419	Open
P2349	J17_31	J17_32	145.00	450.0	120.0	0.0254	Open
P2350	J17_31	J18_31	145.00	500.0	120.0	0.0081	Open
P2351	J17_32	J17_33	145.00	150.0	135.0	0.0146	Open
P2352	J17_32	J18_32	145.00	100.0	130.0	0.1341	Open
P2353	J17_33	J17_34	145.00	100.0	130.0	0.0380	Open
P2354	J17_33	J18_33	145.00	300.0	140.0	0.0148	Open
P2355	J17_34	J17_35	145.00	100.0	130.0	0.1378	Open
P2356	J17_34	J18_34	145.00	100.0	135.0	0.0443	Open
P2357	J17_35	J17_36	145.00	150.0	135.0	0.0867	Open
P2358	J17_35	J18_35	145.00	100.0	125.0	0.1026	Open
P2359	J17_36	J17_37	145.00	150.0	130.0	0.0415	Open
P2360	J17_36	J18_36	145.00	100.0	135.0	0.0986	Open
P2361	J17_37	J17_38	145.00	100.0	130.0	0.0958	Open
P2362	J17_37	J18_37	145.00	300.0	125.0	0.1064	Open
P2363	J17_38	J17_39	145.00	200.0	135.0	0.0999	Open
P2364	J17_38	J18_38	145.00	250.0	125.0	0.1400	Open
P2365	J17_39	J17_40	145.00	250.0	135.0	0.0649	Open
P2366	J17_39	J18_39	145.00	200.0	140.0	0.0857	Open
P2367	J17_40	J17_41	145.00	300.0	135.0	0.0749	Open
P2368	J17_40	J18_40	145.00	300.0	140.0	0.0178	Open
P2369	J17_41	J17_42	145.00	450.0	120.0	0.0212	Open
P2370	J17_41	J18_41	145.00	500.0	120.0	0.0461	Open
P2371	J17_42	J17_43	145.00	250.0	135.0	0.1128	Open
P2372	J17_42	J18_42	145.00	200.0	140.0	0.0448	Open
P2373	J17_43	J17_44	145.00	100.0	140.0	0.0590	Open
P2374	J17_43	J18_43	145.00	300.0	135.0	0.0044	Open
P2375	J17_44	J17_45	145.00	200.0	140.0	0.0743	Open
P2376	J17_44	J18_44	145.00	150.0	135.0	0.0792	Open
P2377	J17_45	J17_46	145.00	300.0	135.0	0.0106	Open
P2378	J17_45	J18_45	145.00	100.0	125.0	0.0390	Open
P2379	J17_46	J17_47	145.00	200.0	125.0	0.0405	Open
P2380	J17_46	J18_46	145.00	250.0	135.0	0.1071	Open
P2381	J17_47	J17_48	145.00	200.0	125.0	0.0366	Open
P2382	J17_47	J18_47	145.00	250.0	135.0	0.0128	Open
P2383	J17_48	J17_49	145.00	250.0	140.0	0.0175	Open
P2384	J17_48	J18_48	145.00	300.0	140.0	0.0121	Open
P2385	J17_49	J17_50	145.00	150.0	130.0	0.1135	Open
P2386	J17_49	J18_49	145.00	250.0	140.0	0.0961	Open
P2387	J17_50	J17_51	145.00	250.0	130.0	0.0559	Open
P2388	J17_50	J18_50	145.00	150.0	140.0	0.0468	Open
P2389	J17_51	J17_52	145.00	350.0	130.0	0.0166	Open
P2390	J17_51	J18_51	145.00	350.0	125.0	0.0161	Open
P2391	J17_52	J17_53	145.00	150.0	140.0	0.0782	Open
P2392	J17_52	J18_52	145.00	300.0	125.0	0.0650	Open
P2393	J17_53	J17_54	145.00	200.0	135.0	0.0825	Open
P2394	J17_53	J18_53	145.00	200.0	140.0	0.0773	Open
P2395	J17_54	J17_55	145.00	200.0	140.0	0.0056	Open
P2396	J17_54	J18_54	145.00	150.0	135.0	0.1223	Open
P2397	J17_55	J17_56	145.00	150.0	125.0	0.0024	Open
P2398	J17_55	J18_55	145.00	200.0	140.0	0.1195	Open
P2399	J17_56	J17_57	145.00	300.0	130.0	0.1228	Open
P2400	J17_56	J18_56	145.00	300.0	130.0	0.0053	Open
P2401	J17_57	J17_58	145.00	250.0	140.0	0.0489	Open
P2402	J17_57	J18_57	145.00	100.0	135.0	0.1373	Open
P2403	J17_58	J17_59	145.00	300.0	125.0	0.0731	Open
P2404	J17_58	J18_58	145.00	300.0	135.0	0.0698	Open
P2405	J17_59	J17_60	145.00	200.0	135.0	0.0146	Open
P2406	J17_59	J18_59	145.00	200.0	140.0	0.0692	Open
P2407	J17_60	J17_61	145.00	200.0	130.0	0.0228	Open
P2408	J17_60	J18_60	145.00	150.0	125.0	0.0693	Open
P2409	J17_61	J17_62	145.00	300.0	120.0	0.0369	Open
P2410	J17_61	J18_61	145.00	450.0	130.0	0.0347	Open
P2411	J17_62	J17_63	145.00	300.0	130.0	0.0755	Open
P2412	J17_62	J18_62	145.00	300.0	135.0	0.0437	Open
P2413	J17_63	J17_64	145.00	100.0	140.0	0.0009	Open
P2414	J17_63	J18_63	145.00	300.0	140.0	0.0763	Open
P2415	J17_64	J17_65	145.00	250.0	125.0	0.0823	Open
P2416	J17_64	J18_64	145.00	300.0	140.0	0.0885	Open
P2417	J17_65	J17_66	145.00	300.0	125.0	0.0365	Open
P2418	J17_65	J18_65	145.00	200.0	125.0	0.0170	Open
P2419	J17_66	J17_67	145.00	300.0	140.0	0.1095	Open
P2420	J17_66	J18_66	145.00	100.0	140.0	0.1223	Open
P2421	J17_67	J17_68	145.00	300.0	130.0	0.0716	Open
P2422	J17_67	J18_67	145.00	250.0	125.0	0.0583	Open
P2423	J17_68	J17_69	145.00	100.0	125.0	0.0060	Open
P2424	J17_68	J18_68	145.00	300.0	135.0	0.0227	Open
P2425	J17_69	J17_70	145.00	100.0	140.0	0.0481	Open
P2426	J17_69	J18_69	145.00	200.0	125.0	0.1088	Open
P2427	J17_70	J17_71	145.00	300.0	135.0	0.0954	Open
P2428	J17_70	J18_70	145.00	100.0	135.0	0.0683	Open
P2429	J17_71	J17_72	145.00	400.0	120.0	0.0312	Open
P2430	J17_71	J18_71	145.00	500.0	130.0	0.0073	Open
P2431	J17_72	J18_72	145.00	300.0	130.0	0.0702	Open
P2432	J18_1	J18_2	145.00	400.0	125.0	0.0267	Open
P2433	J18_1	J19_1	145.00	600.0	125.0	0.0480	Open
P2434	J18_2	J18_3	145.00	200.0	130.0	0.1470	Open
P2435	J18_2	J19_2	145.00	300.0	130.0	0.1352	Open
P2436	J18_3	J18_4	145.00	250.0	140.0	0.0513	Open
P2437	J18_3	J19_3	145.00	200.0	130.0	0.0553	Open
P2438	J18_4	J18_5	145.00	200.0	125.0	0.1113	Open
P2439	J18_4	J19_4	145.00	150.0	140.0	0.0425	Open
P2440	J18_5	J18_6	145.00	300.0	125.0	0.0542	Open
P2441	J18_5	J19_5	145.00	150.0	140.0	0.0678	Open
P2442	J18_6	J18_7	145.00	100.0	130.0	0.1025	Open
P2443	J18_6	J19_6	145.00	150.0	135.0	0.1383	Open
P2444	J18_7	J18_8	145.00	100.0	140.0	0.1088	Open
P2445	J18_7	J19_7	145.00	300.0	140.0	0.1069	Open
P2446	J18_8	J18_9	145.00	200.0	135.0	0.1045	Open
P2447	J18_8	J19_8	145.00	250.0	135.0	0.1095	Open
P2448	J18_9	J18_10	145.00	300.0	130.0	0.0464	Open
P2449	J18_9	J19_9	145.00	200.0	130.0	0.0743	Open
P2450	J18_10	J18_11	145.00	150.0	135.0	0.0974	Open
P2451	J18_10	J19_10	145.00	250.0	135.0	0.0186	Open
P2452	J18_11	J18_12	145.00	300.0	125.0	0.0296	Open
P2453	J18_11	J19_11	145.00	450.0	120.0	0.0377	Open
P2454	J18_12	J18_13	145.00	200.0	130.0	0.0180	Open
P2455	J18_12	J19_12	145.00	200.0	135.0	0.1073	Open
P2456	J18_13	J18_14	145.00	250.0	140.0	0.0798	Open
P2457	J18_13	J19_13	145.00	200.0	135.0	0.0893	Open
P2458	J18_14	J18_15	145.00	200.0	135.0	0.0702	Open
P2459	J18_14	J19_14	145.00	200.0	130.0	0.0856	Open
P2460	J18_15	J18_16	145.00	300.0	130.0	0.0831	Open
P2461	J18_15	J19_15	145.00	150.0	140.0	0.0970	Open
P2462	J18_16	J18_17	145.00	100.0	130.0	0.0577	Open
P2463	J18_16	J19_16	145.00	200.0	130.0	0.1011	Open
P2464	J18_17	J18_18	145.00	100.0	125.0	0.0545	Open
P2465	J18_17	J19_17	145.00	300.0	140.0	0.1454	Open
P2466	J18_18	J18_19	145.00	250.0	125.0	0.1370	Open
P2467	J18_18	J19_18	145.00	200.0	130.0	0.0687	Open
P2468	J18_19	J18_20	145.00	200.0	140.0	0.0730	Open
P2469	J18_19	J19_19	145.00	250.0	135.0	0.0617	Open
P2470	J18_20	J18_21	145.00	100.0	125.0	0.1485	Open
P2471	J18_20	J19_20	145.00	300.0	140.0	0.1301	Open
P2472	J18_21	J18_22	145.00	500.0	125.0	0.0158	Open
P2473	J18_21	J19_21	145.00	350.0	125.0	0.0291	Open
P2474	J18_22	J18_23	145.00	300.0	130.0	0.1328	Open
P2475	J18_22	J19_22	145.00	300.0	125.0	0.1406	Open
P2476	J18_23	J18_24	145.00	100.0	140.0	0.0152	Open
P2477	J18_23	J19_23	145.00	300.0	140.0	0.0173	Open
P2478	J18_24	J18_25	145.00	300.0	135.0	0.1107	Open
P2479	J18_24	J19_24	145.00	150.0	140.0	0.1126	Open
P2480	J18_25	J18_26	145.00	150.0	140.0	0.0679	Open
P2481	J18_25	J19_25	145.00	250.0	135.0	0.1245	Open
P2482	J18_26	J18_27	145.00	250.0	130.0	0.0306	Open
P2483	J18_26	J19_26	145.00	150.0	130.0	0.0166	Open
P2484	J18_27	J18_28	145.00	250.0	130.0	0.1177	Open
P2485	J18_27	J19_27	145.00	100.0	140.0	0.0017	Open
P2486	J18_28	J18_29	145.00	150.0	135.0	0.1449	Open
P2487	J18_28	J19_28	145.00	150.0	125.0	0.0436	Open
P2488	J18_29	J18_30	145.00	300.0	130.0	0.0193	Open
P2489	J18_29	J19_29	145.00	250.0	125.0	0.0781	Open
P2490	J18_30	J18_31	145.00	150.0	140.0	0.1284	Open
P2491	J18_30	J19_30	145.00	150.0	125.0	0.0599	Open
P2492	J18_31	J18_32	145.00	350.0	130.0	0.0317	Open
P2493	J18_31	J19_31	145.00	600.0	130.0	0.0298	Open
P2494	J18_32	J18_33	145.00	200.0	130.0	0.0206	Open
P2495	J18_32	J19_32	145.00	200.0	140.0	0.0079	Open
P2496	J18_33	J18_34	145.00	250.0	135.0	0.1436	Open
P2497	J18_33	J19_33	145.00	250.0	140.0	0.0097	Open
P2498	J18_34	J18_35	145.00	150.0	140.0	0.0022	Open
P2499	J18_34	J19_34	145.00	100.0	125.0	0.1250	Open
P2500	J18_35	J18_36	145.00	150.0	130.0	0.0060	Open
P2501	J18_35	J19_35	145.00	300.0	140.0	0.0079	Open
P2502	J18_36	J18_37	145.00	200.0	125.0	0.0375	Open
P2503	J18_36	J19_36	145.00	300.0	130.0	0.0734	Open
P2504	J18_37	J18_38	145.00	250.0	140.0	0.0098	Open
P2505	J18_37	J19_37	145.00	300.0	140.0	0.1255	Open
P2506	J18_38	J18_39	145.00	200.0	125.0	0.0296	Open
P2507	J18_38	J19_38	145.00	300.0	135.0	0.1089	Open
P2508	J18_39	J18_40	145.00	150.0	130.0	0.0701	Open
P2509	J18_39	J19_39	145.00	100.0	130.0	0.1231	Open
P2510	J18_40	J18_41	145.00	150.0	125.0	0.0529	Open
P2511	J18_40	J19_40	145.00	300.0	140.0	0.1453	Open
P2512	J18_41	J18_42	145.00	450.0	130.0	0.0403	Open
P2513	J18_41	J19_41	145.00	600.0	125.0	0.0229	Open
P2514	J18_42	J18_43	145.00	250.0	130.0	0.0161	Open
P2515	J18_42	J19_42	145.00	100.0	140.0	0.0835	Open
P2516	J18_43	J18_44	145.00	100.0	135.0	0.0683	Open
P2517	J18_43	J19_43	145.00	300.0	130.0	0.0314	Open
P2518	J18_44	J18_45	145.00	300.0	135.0	0.0080	Open
P2519	J18_44	J19_44	145.00	300.0	125.0	0.0854	Open
P2520	J18_45	J18_46	145.00	150.0	140.0	0.0405	Open
P2521	J18_45	J19_45	145.00	300.0	130.0	0.1115	Open
P2522	J18_46	J18_47	145.00	150.0	125.0	0.0667	Open
P2523	J18_46	J19_46	145.00	300.0	130.0	0.0422	Open
P2524	J18_47	J18_48	145.00	100.0	125.0	0.0771	Open
P2525	J18_47	J19_47	145.00	200.0	140.0	0.0285	Open
P2526	J18_48	J18_49	145.00	150.0	135.0	0.0111	Open
P2527	J18_48	J19_48	145.00	100.0	130.0	0.0481	Open
P2528	J18_49	J18_50	145.00	150.0	135.0	0.0395	Open
P2529	J18_49	J19_49	145.00	150.0	140.0	0.0034	Open
P2530	J18_50	J18_51	145.00	100.0	125.0	0.1424	Open
P2531	J18_50	J19_50	145.00	200.0	135.0	0.0669	Open
P2532	J18_51	J18_52	145.00	450.0	125.0	0.0372	Open
P2533	J18_51	J19_51	145.00	350.0	120.0	0.0471	Open
P2534	J18_52	J18_53	145.00	100.0	135.0	0.0433	Open
P2535	J18_52	J19_52	145.00	150.0	135.0	0.0992	Open
P2536	J18_53	J18_54	145.00	250.0	130.0	0.1290	Open
P2537	J18_53	J19_53	145.00	100.0	125.0	0.1176	Open
P2538	J18_54	J18_55	145.00	300.0	130.0	0.0039	Open
P2539	J18_54	J19_54	145.00	200.0	125.0	0.0915	Open
P2540	J18_55	J18_56	145.00	200.0	135.0	0.0344	Open
P2541	J18_55	J19_55	145.00	250.0	130.0	0.0980	Open
P2542	J18_56	J18_57	145.00	250.0	130.0	0.0309	Open
P2543	J18_56	J19_56	145.00	300.0	140.0	0.0793	Open
P2544	J18_57	J18_58	145.00	250.0	140.0	0.0658	Open
P2545	J18_57	J19_57	145.00	300.0	125.0	0.0619	Open
P2546	J18_58	J18_59	145.00	250.0	130.0	0.0063	Open
P2547	J18_58	J19_58	145.00	100.0	125.0	0.0489	Open
P2548	J18_59	J18_60	145.00	300.0	125.0	0.1216	Open
P2549	J18_59	J19_59	145.00	150.0	135.0	0.0913	Open
P2550	J18_60	J18_61	145.00	100.0	125.0	0.0813	Open
P2551	J18_60	J19_60	145.00	150.0	140.0	0.1324	Open
P2552	J18_61	J18_62	145.00	300.0	130.0	0.0044	Open
P2553	J18_61	J19_61	145.00	350.0	125.0	0.0132	Open
P2554	J18_62	J18_63	145.00	200.0	130.0	0.0666	Open
P2555	J18_62	J19_62	145.00	300.0	130.0	0.0331	Open
P2556	J18_63	J18_64	145.00	100.0	140.0	0.0250	Open
P2557	J18_63	J19_63	145.00	250.0	125.0	0.0102	Open
P2558	J18_64	J18_65	145.00	150.0	125.0	0.0075	Open
P2559	J18_64	J19_64	145.00	250.0	135.0	0.1111	Open
P2560	J18_65	J18_66	145.00	100.0	140.0	0.0539	Open
P2561	J18_65	J19_65	145.00	100.0	125.0	0.0956	Open
P2562	J18_66	J18_67	145.00	200.0	130.0	0.1001	Open
P2563	J18_66	J19_66	145.00	150.0	135.0	0.1368	Open
P2564	J18_67	J18_68	145.00	300.0	140.0	0.0443	Open
P2565	J18_67	J19_67	145.00	300.0	130.0	0.1070	Open
P2566	J18_68	J18_69	145.00	100.0	140.0	0.0815	Open
P2567	J18_68	J19_68	145.00	100.0	125.0	0.1130	Open
P2568	J18_69	J18_70	145.00	100.0	140.0	0.0223	Open
P2569	J18_69	J19_69	145.00	150.0	135.0	0.1328	Open
P2570	J18_70	J18_71	145.00	300.0	130.0	0.0720	Open
P2571	J18_70	J19_70	145.00	250.0	125.0	0.0094	Open
P2572	J18_71	J18_72	145.00	300.0	120.0	0.0253	Open
P2573	J18_71	J19_71	145.00	600.0	125.0	0.0055	Open
P2574	J18_72	J19_72	145.00	150.0	125.0	0.1423	Open
P2575	J19_1	J19_2	145.00	600.0	125.0	0.0177	Open
P2576	J19_1	J20_1	145.00	400.0	130.0	0.0444	Open
P2577	J19_2	J19_3	145.00	100.0	140.0	0.0970	Open
P2578	J19_2	J20_2	145.00	200.0	125.0	0.0335	Open
P2579	J19_3	J19_4	145.00	150.0	135.0	0.1448	Open
P2580	J19_3	J20_3	145.00	150.0	135.0	0.0862	Open
P2581	J19_4	J19_5	145.00	300.0	130.0	0.0604	Open
P2582	J19_4	J20_4	145.00	300.0	140.0	0.1016	Open
P2583	J19_5	J19_6	145.00	200.0	130.0	0.0867	Open
P2584	J19_5	J20_5	145.00	200.0	130.0	0.1146	Open
P2585	J19_6	J19_7	145.00	200.0	140.0	0.0328	Open
P2586	J19_6	J20_6	145.00	250.0	140.0	0.0239	Open
P2587	J19_7	J19_8	145.00	150.0	130.0	0.0695	Open
P2588	J19_7	J20_7	145.00	100.0	135.0	0.0044	Open
P2589	J19_8	J19_9	145.00	150.0	140.0	0.0032	Open
P2590	J19_8	J20_8	145.00	150.0	130.0	0.0125	Open
P2591	J19_9	J19_10	145.00	100.0	135.0	0.0251	Open
P2592	J19_9	J20_9	145.00	100.0	125.0	0.0159	Open
P2593	J19_10	J19_11	145.00	150.0	140.0	0.1239	Open
P2594	J19_10	J20_10	145.00	200.0	140.0	0.1382	Open
P2595	J19_11	J19_12	145.00	300.0	130.0	0.0462	Open
P2596	J19_11	J20_11	145.00	600.0	120.0	0.0365	Open
P2597	J19_12	J19_13	145.00	300.0	130.0	0.0658	Open
P2598	J19_12	J20_12	145.00	200.0	140.0	0.0487	Open
P2599	J19_13	J19_14	145.00	250.0	125.0	0.1322	Open
P2600	J19_13	J20_13	145.00	250.0	130.0	0.0832	Open
P2601	J19_14	J19_15	145.00	250.0	140.0	0.0498	Open
P2602	J19_14	J20_14	145.00	250.0	125.0	0.0703	Open
P2603	J19_15	J19_16	145.00	200.0	125.0	0.1052	Open
P2604	J19_15	J20_15	145.00	100.0	140.0	0.0522	Open
P2605	J19_16	J19_17	145.00	100.0	140.0	0.0914	Open
P2606	J19_16	J20_16	145.00	150.0	130.0	0.1386	Open
P2607	J19_17	J19_18	145.00	100.0	130.0	0.0316	Open
P2608	J19_17	J20_17	145.00	150.0	125.0	0.0822	Open
P2609	J19_18	J19_19	145.00	100.0	130.0	0.1191	Open
P2610	J19_18	J20_18	145.00	300.0	130.0	0.0638	Open
P2611	J19_19	J19_20	145.00	300.0	125.0	0.1255	Open
P2612	J19_19	J20_19	145.00	100.0	130.0	0.0775	Open
P2613	J19_20	J19_21	145.00	300.0	135.0	0.0495	Open
P2614	J19_20	J20_20	145.00	250.0	135.0	0.0262	Open
P2615	J19_21	J19_22	145.00	500.0	120.0	0.0163	Open
P2616	J19_21	J20_21	145.00	500.0	130.0	0.0168	Open
P2617	J19_22	J19_23	145.00	200.0	125.0	0.1064	Open
P2618	J19_22	J20_22	145.00	300.0	130.0	0.1248	Open
P2619	J19_23	J19_24	145.00	200.0	135.0	0.0082	Open
P2620	J19_23	J20_23	145.00	200.0	135.0	0.1084	Open
P2621	J19_24	J19_25	145.00	250.0	135.0	0.0721	Open
P2622	J19_24	J20_24	145.00	150.0	135.0	0.1032	Open
P2623	J19_25	J19_26	145.00	250.0	125.0	0.0248	Open
P2624	J19_25	J20_25	145.00	100.0	130.0	0.0397	Open
P2625	J19_26	J19_27	145.00	150.0	130.0	0.1265	Open
P2626	J19_26	J20_26	145.00	250.0	140.0	0.0491	Open
P2627	J19_27	J19_28	145.00	100.0	125.0	0.0403	Open
P2628	J19_27	J20_27	145.00	200.0	125.0	0.1239	Open
P2629	J19_28	J19_29	145.00	150.0	135.0	0.0438	Open
P2630	J19_28	J20_28	145.00	200.0	135.0	0.1142	Open
P2631	J19_29	J19_30	145.00	150.0	130.0	0.1400	Open
P2632	J19_29	J20_29	145.00	250.0	130.0	0.1387	Open
P2633	J19_30	J19_31	145.00	100.0	135.0	0.1069	Open
P2634	J19_30	J20_30	145.00	250.0	140.0	0.0856	Open
P2635	J19_31	J19_32	145.00	400.0	125.0	0.0263	Open
P2636	J19_31	J20_31	145.00	350.0	125.0	0.0193	Open
P2637	J19_32	J19_33	145.00	150.0	130.0	0.0528	Open
P2638	J19_32	J20_32	145.00	250.0	130.0	0.0368	Open
P2639	J19_33	J19_34	145.00	150.0	130.0	0.0222	Open
P2640	J19_33	J20_33	145.00	250.0	125.0	0.1456	Open
P2641	J19_34	J19_35	145.00	200.0	125.0	0.1404	Open
P2642	J19_34	J20_34	145.00	100.0	135.0	0.0460	Open
P2643	J19_35	J19_36	145.00	150.0	140.0	0.0691	Open
P2644	J19_35	J20_35	145.00	300.0	135.0	0.1305	Open
P2645	J19_36	J19_37	145.00	300.0	125.0	0.0541	Open
P2646	J19_36	J20_36	145.00	200.0	140.0	0.0665	Open
P2647	J19_37	J19_38	145.00	100.0	125.0	0.0741	Open
P2648	J19_37	J20_37	145.00	100.0	140.0	0.1211	Open
P2649	J19_38	J19_39	145.00	100.0	135.0	0.0135	Open
P2650	J19_38	J20_38	145.00	100.0	125.0	0.0551	Open
P2651	J19_39	J19_40	145.00	300.0	130.0	0.0082	Open
P2652	J19_39	J20_39	145.00	150.0	135.0	0.0164	Open
P2653	J19_40	J19_41	145.00	150.0	135.0	0.0806	Open
P2654	J19_40	J20_40	145.00	250.0	130.0	0.1031	Open
P2655	J19_41	J19_42	145.00	500.0	130.0	0.0480	Open
P2656	J19_41	J20_41	145.00	400.0	130.0	0.0391	Open
P2657	J19_42	J19_43	145.00	300.0	140.0	0.1291	Open
P2658	J19_42	J20_42	145.00	300.0	130.0	0.0959	Open
P2659	J19_43	J19_44	145.00	100.0	140.0	0.0178	Open
P2660	J19_43	J20_43	145.00	100.0	140.0	0.0748	Open
P2661	J19_44	J19_45	145.00	250.0	125.0	0.0091	Open
P2662	J19_44	J20_44	145.00	250.0	130.0	0.0134	Open
P2663	J19_45	J19_46	145.00	300.0	140.0	0.1133	Open
P2664	J19_45	J20_45	145.00	250.0	140.0	0.1014	Open
P2665	J19_46	J19_47	145.00	300.0	135.0	0.0363	Open
P2666	J19_46	J20_46	145.00	150.0	135.0	0.0303	Open
P2667	J19_47	J19_48	145.00	150.0	140.0	0.1480	Open
P2668	J19_47	J20_47	145.00	100.0	130.0	0.0282	Open
P2669	J19_48	J19_49	145.00	200.0	135.0	0.1499	Open
P2670	J19_48	J20_48	145.00	200.0	135.0	0.1048	Open
P2671	J19_49	J19_50	145.00	250.0	140.0	0.0835	Open
P2672	J19_49	J20_49	145.00	200.0	130.0	0.1324	Open
P2673	J19_50	J19_51	145.00	250.0	135.0	0.0509	Open
P2674	J19_50	J20_50	145.00	250.0	130.0	0.1029	Open
P2675	J19_51	J19_52	145.00	600.0	130.0	0.0077	Open
P2676	J19_51	J20_51	145.00	600.0	130.0	0.0303	Open
P2677	J19_52	J19_53	145.00	150.0	135.0	0.1437	Open
P2678	J19_52	J20_52	145.00	300.0	130.0	0.1383	Open
P2679	J19_53	J19_54	145.00	300.0	125.0	0.1252	Open
P2680	J19_53	J20_53	145.00	100.0	130.0	0.0793	Open
P2681	J19_54	J19_55	145.00	100.0	130.0	0.0903	Open
P2682	J19_54	J20_54	145.00	200.0	130.0	0.0470	Open
P2683	J19_55	J19_56	145.00	300.0	140.0	0.0885	Open
P2684	J19_55	J20_55	145.00	100.0	130.0	0.0007	Open
P2685	J19_56	J19_57	145.00	150.0	135.0	0.1131	Open
P2686	J19_56	J20_56	145.00	150.0	140.0	0.1072	Open
P2687	J19_57	J19_58	145.00	300.0	130.0	0.1224	Open
P2688	J19_57	J20_57	145.00	300.0	135.0	0.1315	Open
P2689	J19_58	J19_59	145.00	100.0	135.0	0.1057	Open
P2690	J19_58	J20_58	145.00	150.0	130.0	0.0856	Open
P2691	J19_59	J19_60	145.00	200.0	135.0	0.1374	Open
P2692	J19_59	J20_59	145.00	100.0	125.0	0.0030	Open
P2693	J19_60	J19_61	145.00	300.0	130.0	0.1424	Open
P2694	J19_60	J20_60	145.00	150.0	130.0	0.0523	Open
P2695	J19_61	J19_62	145.00	450.0	125.0	0.0031	Open
P2696	J19_61	J20_61	145.00	450.0	125.0	0.0235	Open
P2697	J19_62	J19_63	145.00	250.0	140.0	0.0021	Open
P2698	J19_62	J20_62	145.00	300.0	140.0	0.0890	Open
P2699	J19_63	J19_64	145.00	200.0	140.0	0.0269	Open
P2700	J19_63	J20_63	145.00	300.0	130.0	0.1487	Open
P2701	J19_64	J19_65	145.00	100.0	125.0	0.1257	Open
P2702	J19_64	J20_64	145.00	200.0	140.0	0.1094	Open
P2703	J19_65	J19_66	145.00	200.0	125.0	0.0875	Open
P2704	J19_65	J20_65	145.00	250.0	125.0	0.0628	Open
P2705	J19_66	J19_67	145.00	150.0	135.0	0.1007	Open
P2706	J19_66	J20_66	145.00	200.0	135.0	0.0216	Open
P2707	J19_67	J19_68	145.00	100.0	135.0	0.0941	Open
P2708	J19_67	J20_67	145.00	300.0	135.0	0.1229	Open
P2709	J19_68	J19_69	145.00	200.0	125.0	0.0881	Open
P2710	J19_68	J20_68	145.00	100.0	135.0	0.0496	Open
P2711	J19_69	J19_70	145.00	200.0	140.0	0.0070	Open
P2712	J19_69	J20_69	145.00	100.0	125.0	0.0602	Open
P2713	J19_70	J19_71	145.00	300.0	140.0	0.1043	Open
P2714	J19_70	J20_70	145.00	200.0	130.0	0.0817	Open
P2715	J19_71	J19_72	145.00	450.0	125.0	0.0422	Open
P2716	J19_71	J20_71	145.00	450.0	130.0	0.0193	Open
P2717	J19_72	J20_72	145.00	250.0	130.0	0.0873	Open
P2718	J20_1	J20_2	145.00	350.0	130.0	0.0397	Open
P2719	J20_1	J21_1	145.00	350.0	120.0	0.0311	Open
P2720	J20_2	J20_3	145.00	200.0	140.0	0.0426	Open
P2721	J20_2	J21_2	145.00	150.0	130.0	0.1098	Open
P2722	J20_3	J20_4	145.00	150.0	130.0	0.0670	Open
P2723	J20_3	J21_3	145.00	250.0	130.0	0.0596	Open
P2724	J20_4	J20_5	145.00	150.0	130.0	0.0826	Open
P2725	J20_4	J21_4	145.00	150.0	140.0	0.1188	Open
P2726	J20_5	J20_6	145.00	300.0	135.0	0.0891	Open
P2727	J20_5	J21_5	145.00	300.0	125.0	0.1477	Open
P2728	J20_6	J20_7	145.00	300.0	140.0	0.0940	Open
P2729	J20_6	J21_6	145.00	150.0	135.0	0.0725	Open
P2730	J20_7	J20_8	145.00	250.0	140.0	0.1322	Open
P2731	J20_7	J21_7	145.00	100.0	140.0	0.0964	Open
P2732	J20_8	J20_9	145.00	100.0	140.0	0.0516	Open
P2733	J20_8	J21_8	145.00	250.0	135.0	0.1459	Open
P2734	J20_9	J20_10	145.00	250.0	125.0	0.0281	Open
P2735	J20_9	J21_9	145.00	200.0	130.0	0.1036	Open
P2736	J20_10	J20_11	145.00	250.0	135.0	0.0726	Open
P2737	J20_10	J21_10	145.00	100.0	130.0	0.0399	Open
P2738	J20_11	J20_12	145.00	350.0	120.0	0.0228	Open
P2739	J20_11	J21_11	145.00	400.0	130.0	0.0222	Open
P2740	J20_12	J20_13	145.00	150.0	135.0	0.0261	Open
P2741	J20_12	J21_12	145.00	250.0	130.0	0.0589	Open
P2742	J20_13	J20_14	145.00	200.0	125.0	0.1255	Open
P2743	J20_13	J21_13	145.00	300.0	130.0	0.0816	Open
P2744	J20_14	J20_15	145.00	250.0	130.0	0.0666	Open
P2745	J20_14	J21_14	145.00	300.0	125.0	0.0243	Open
P2746	J20_15	J20_16	145.00	100.0	140.0	0.0256	Open
P2747	J20_15	J21_15	145.00	300.0	130.0	0.1057	Open
P2748	J20_16	J20_17	145.00	200.0	140.0	0.1081	Open
P2749	J20_16	J21_16	145.00	250.0	125.0	0.0411	Open
P2750	J20_17	J20_18	145.00	150.0	135.0	0.0279	Open
P2751	J20_17	J21_17	145.00	200.0	140.0	0.0180	Open
P2752	J20_18	J20_19	145.00	250.0	130.0	0.0335	Open
P2753	J20_18	J21_18	145.00	150.0	140.0	0.0680	Open
P2754	J20_19	J20_20	145.00	100.0	140.0	0.0820	Open
P2755	J20_19	J21_19	145.00	300.0	135.0	0.0385	Open
P2756	J20_20	J20_21	145.00	250.0	135.0	0.1298	Open
P2757	J20_20	J21_20	145.00	250.0	130.0	0.0132	Open
P2758	J20_21	J20_22	145.00	400.0	130.0	0.0353	Open
P2759	J20_21	J21_21	145.00	600.0	125.0	0.0186	Open
P2760	J20_22	J20_23	145.00	250.0	135.0	0.0116	Open
P2761	J20_22	J21_22	145.00	250.0	135.0	0.1275	Open
P2762	J20_23	J20_24	145.00	300.0	140.0	0.0747	Open
P2763	J20_23	J21_23	145.00	150.0	130.0	0.1109	Open
P2764	J20_24	J20_25	145.00	250.0	130.0	0.0907	Open
P2765	J20_24	J21_24	145.00	150.0	130.0	0.0994	Open
P2766	J20_25	J20_26	145.00	300.0	130.0	0.0323	Open
P2767	J20_25	J21_25	145.00	250.0	135.0	0.1471	Open
P2768	J20_26	J20_27	145.00	200.0	135.0	0.1182	Open
P2769	J20_26	J21_26	145.00	250.0	125.0	0.0421	Open
P2770	J20_27	J20_28	145.00	250.0	130.0	0.0188	Open
P2771	J20_27	J21_27	145.00	150.0	135.0	0.1061	Open
P2772	J20_28	J20_29	145.00	100.0	130.0	0.1162	Open
P2773	J20_28	J21_28	145.00	150.0	140.0	0.0653	Open
P2774	J20_29	J20_30	145.00	100.0	140.0	0.0951	Open
P2775	J20_29	J21_29	145.00	200.0	125.0	0.1052	Open
P2776	J20_30	J20_31	145.00	150.0	140.0	0.0362	Open
P2777	J20_30	J21_30	145.00	100.0	140.0	0.1242	Open
P2778	J20_31	J20_32	145.00	400.0	125.0	0.0002	Open
P2779	J20_31	J21_31	145.00	500.0	125.0	0.0001	Open
P2780	J20_32	J20_33	145.00	150.0	130.0	0.0699	Open
P2781	J20_32	J21_32	145.00	200.0	130.0	0.1295	Open
P2782	J20_33	J20_34	145.00	200.0	130.0	0.0887	Open
P2783	J20_33	J21_33	145.00	300.0	135.0	0.0318	Open
P2784	J20_34	J20_35	145.00	200.0	140.0	0.0576	Open
P2785	J20_34	J21_34	145.00	100.0	135.0	0.0819	Open
P2786	J20_35	J20_36	145.00	200.0	125.0	0.1184	Open
P2787	J20_35	J21_35	145.00	200.0	140.0	0.0255	Open
P2788	J20_36	J20_37	145.00	300.0	130.0	0.1029	Open
P2789	J20_36	J21_36	145.00	100.0	135.0	0.1281	Open
P2790	J20_37	J20_38	145.00	300.0	125.0	0.1166	Open
P2791	J20_37	J21_37	145.00	300.0	130.0	0.0032	Open
P2792	J20_38	J20_39	145.00	200.0	135.0	0.0725	Open
P2793	J20_38	J21_38	145.00	300.0	130.0	0.0527	Open
P2794	J20_39	J20_40	145.00	200.0	135.0	0.0125	Open
P2795	J20_39	J21_39	145.00	300.0	140.0	0.1043	Open
P2796	J20_40	J20_41	145.00	250.0	125.0	0.0292	Open
P2797	J20_40	J21_40	145.00	150.0	135.0	0.0706	Open
P2798	J20_41	J20_42	145.00	600.0	125.0	0.0165	Open
P2799	J20_41	J21_41	145.00	450.0	120.0	0.0446	Open
P2800	J20_42	J20_43	145.00	100.0	130.0	0.0138	Open
P2801	J20_42	J21_42	145.00	150.0	140.0	0.1267	Open
P2802	J20_43	J20_44	145.00	300.0	125.0	0.0417	Open
P2803	J20_43	J21_43	145.00	250.0	130.0	0.1263	Open
P2804	J20_44	J20_45	145.00	250.0	125.0	0.0050	Open
P2805	J20_44	J21_44	145.00	250.0	130.0	0.1044	Open
P2806	J20_45	J20_46	145.00	200.0	140.0	0.1196	Open
P2807	J20_45	J21_45	145.00	100.0	135.0	0.1194	Open
P2808	J20_46	J20_47	145.00	300.0	130.0	0.0331	Open
P2809	J20_46	J21_46	145.00	150.0	140.0	0.0772	Open
P2810	J20_47	J20_48	145.00	250.0	125.0	0.0578	Open
P2811	J20_47	J21_47	145.00	150.0	135.0	0.0481	Open
P2812	J20_48	J20_49	145.00	200.0	135.0	0.0133	Open
P2813	J20_48	J21_48	145.00	150.0	135.0	0.1301	Open
P2814	J20_49	J20_50	145.00	100.0	140.0	0.1243	Open
P2815	J20_49	J21_49	145.00	200.0	135.0	0.1395	Open
P2816	J20_50	J20_51	145.00	100.0	140.0	0.0443	Open
P2817	J20_50	J21_50	145.00	100.0	125.0	0.1089	Open
P2818	J20_51	J20_52	145.00	400.0	125.0	0.0011	Open
P2819	J20_51	J21_51	145.00	500.0	125.0	0.0423	Open
P2820	J20_52	J20_53	145.00	100.0	135.0	0.0319	Open
P2821	J20_52	J21_52	145.00	150.0	140.0	0.0380	Open
P2822	J20_53	J20_54	145.00	200.0	130.0	0.0980	Open
P2823	J20_53	J21_53	145.00	300.0	125.0	0.0898	Open
P2824	J20_54	J20_55	145.00	300.0	135.0	0.0230	Open
P2825	J20_54	J21_54	145.00	300.0	140.0	0.0179	Open
P2826	J20_55	J20_56	145.00	200.0	135.0	0.0248	Open
P2827	J20_55	J21_55	145.00	200.0	130.0	0.1197	Open
P2828	J20_56	J20_57	145.00	200.0	130.0	0.0035	Open
P2829	J20_56	J21_56	145.00	200.0	135.0	0.1419	Open
P2830	J20_57	J20_58	145.00	100.0	140.0	0.1280	Open
P2831	J20_57	J21_57	145.00	100.0	125.0	0.1203	Open
P2832	J20_58	J20_59	145.00	150.0	130.0	0.1128	Open
P2833	J20_58	J21_58	145.00	250.0	140.0	0.1144	Open
P2834	J20_59	J20_60	145.00	300.0	125.0	0.1080	Open
P2835	J20_59	J21_59	145.00	250.0	140.0	0.0195	Open
P2836	J20_60	J20_61	145.00	100.0	130.0	0.0532	Open
P2837	J20_60	J21_60	145.00	200.0	135.0	0.0027	Open
P2838	J20_61	J20_62	145.00	350.0	120.0	0.0209	Open
P2839	J20_61	J21_61	145.00	450.0	130.0	0.0024	Open
P2840	J20_62	J20_63	145.00	150.0	125.0	0.0138	Open
P2841	J20_62	J21_62	145.00	300.0	135.0	0.1162	Open
P2842	J20_63	J20_64	145.00	250.0	135.0	0.1020	Open
P2843	J20_63	J21_63	145.00	200.0	130.0	0.0948	Open
P2844	J20_64	J20_65	145.00	300.0	135.0	0.0588	Open
P2845	J20_64	J21_64	145.00	100.0	140.0	0.0809	Open
P2846	J20_65	J20_66	145.00	300.0	125.0	0.0512	Open
P2847	J20_65	J21_65	145.00	150.0	140.0	0.0741	Open
P2848	J20_66	J20_67	145.00	200.0	130.0	0.0166	Open
P2849	J20_66	J21_66	145.00	300.0	130.0	0.0125	Open
P2850	J20_67	J20_68	145.00	200.0	135.0	0.0704	Open
P2851	J20_67	J21_67	145.00	150.0	125.0	0.0643	Open
P2852	J20_68	J20_69	145.00	100.0	125.0	0.0296	Open
P2853	J20_68	J21_68	145.00	200.0	135.0	0.1015	Open
P2854	J20_69	J20_70	145.00	300.0	125.0	0.0057	Open
P2855	J20_69	J21_69	145.00	200.0	140.0	0.1017	Open
P2856	J20_70	J20_71	145.00	300.0	130.0	0.1397	Open
P2857	J20_70	J21_70	145.00	150.0	140.0	0.0188	Open
P2858	J20_71	J20_72	145.00	300.0	130.0	0.0478	Open
P2859	J20_71	J21_71	145.00	450.0	125.0	0.0314	Open
P2860	J20_72	J21_72	145.00	200.0	135.0	0.0213	Open
P2861	J21_1	J21_2	145.00	450.0	120.0	0.0392	Open
P2862	J21_1	J22_1	145.00	450.0	120.0	0.0318	Open
P2863	J21_2	J21_3	145.00	400.0	130.0	0.0343	Open
P2864	J21_2	J22_2	145.00	350.0	125.0	0.0313	Open
P2865	J21_3	J21_4	145.00	400.0	125.0	0.0331	Open
P2866	J21_3	J22_3	145.00	500.0	125.0	0.0150	Open
P2867	J21_4	J21_5	145.00	400.0	130.0	0.0415	Open
P2868	J21_4	J22_4	145.00	350.0	120.0	0.0198	Open
P2869	J21_5	J21_6	145.00	300.0	120.0	0.0409	Open
P2870	J21_5	J22_5	145.00	300.0	120.0	0.0233	Open
P2871	J21_6	J21_7	145.00	300.0	130.0	0.0160	Open
P2872	J21_6	J22_6	145.00	450.0	130.0	0.0275	Open
P2873	J21_7	J21_8	145.00	500.0	130.0	0.0100	Open
P2874	J21_7	J22_7	145.00	600.0	125.0	0.0488	Open
P2875	J21_8	J21_9	145.00	350.0	130.0	0.0046	Open
P2876	J21_8	J22_8	145.00	600.0	125.0	0.0458	Open
P2877	J21_9	J21_10	145.00	500.0	130.0	0.0180	Open
P2878	J21_9	J22_9	145.00	600.0	125.0	0.0046	Open
P2879	J21_10	J21_11	145.00	400.0	120.0	0.0162	Open
P2880	J21_10	J22_10	145.00	500.0	120.0	0.0071	Open
P2881	J21_11	J21_12	145.00	400.0	125.0	0.0216	Open
P2882	J21_11	J22_11	145.00	600.0	130.0	0.0231	Open
P2883	J21_12	J21_13	145.00	350.0	120.0	0.0387	Open
P2884	J21_12	J22_12	145.00	600.0	120.0	0.0031	Open
P2885	J21_13	J21_14	145.00	450.0	130.0	0.0146	Open
P2886	J21_13	J22_13	145.00	300.0	120.0	0.0482	Open
P2887	J21_14	J21_15	145.00	400.0	120.0	0.0349	Open
P2888	J21_14	J22_14	145.00	500.0	130.0	0.0195	Open
P2889	J21_15	J21_16	145.00	400.0	125.0	0.0363	Open
P2890	J21_15	J22_15	145.00	350.0	125.0	0.0105	Open
P2891	J21_16	J21_17	145.00	400.0	125.0	0.0212	Open
P2892	J21_16	J22_16	145.00	400.0	130.0	0.0219	Open
P2893	J21_17	J21_18	145.00	350.0	120.0	0.0156	Open
P2894	J21_17	J22_17	145.00	500.0	120.0	0.0233	Open
P2895	J21_18	J21_19	145.00	450.0	130.0	0.0025	Open
P2896	J21_18	J22_18	145.00	450.0	125.0	0.0370	Open
P2897	J21_19	J21_20	145.00	500.0	125.0	0.0235	Open
P2898	J21_19	J22_19	145.00	600.0	130.0	0.0491	Open
P2899	J21_20	J21_21	145.00	300.0	125.0	0.0229	Open
P2900	J21_20	J22_20	145.00	300.0	120.0	0.0360	Open
P2901	J21_21	J21_22	145.00	600.0	125.0	0.0308	Open
P2902	J21_21	J22_21	145.00	500.0	120.0	0.0471	Open
P2903	J21_22	J21_23	145.00	400.0	130.0	0.0188	Open
P2904	J21_22	J22_22	145.00	600.0	125.0	0.0293	Open
P2905	J21_23	J21_24	145.00	350.0	120.0	0.0130	Open
P2906	J21_23	J22_23	145.00	500.0	130.0	0.0328	Open
P2907	J21_24	J21_25	145.00	350.0	120.0	0.0041	Open
P2908	J21_24	J22_24	145.00	600.0	130.0	0.0339	Open
P2909	J21_25	J21_26	145.00	500.0	125.0	0.0432	Open
P2910	J21_25	J22_25	145.00	300.0	120.0	0.0013	Open
P2911	J21_26	J21_27	145.00	450.0	130.0	0.0324	Open
P2912	J21_26	J22_26	145.00	300.0	125.0	0.0339	Open
P2913	J21_27	J21_28	145.00	300.0	130.0	0.0370	Open
P2914	J21_27	J22_27	145.00	400.0	125.0	0.0354	Open
P2915	J21_28	J21_29	145.00	350.0	120.0	0.0373	Open
P2916	J21_28	J22_28	145.00	600.0	125.0	0.0279	Open
P2917	J21_29	J21_30	145.00	300.0	120.0	0.0034	Open
P2918	J21_29	J22_29	145.00	300.0	125.0	0.0016	Open
P2919	J21_30	J21_31	145.00	450.0	130.0	0.0139	Open
P2920	J21_30	J22_30	145.00	600.0	125.0	0.0401	Open
P2921	J21_31	J21_32	145.00	350.0	130.0	0.0052	Open
P2922	J21_31	J22_31	145.00	600.0	130.0	0.0391	Open
P2923	J21_32	J21_33	145.00	600.0	125.0	0.0340	Open
P2924	J21_32	J22_32	145.00	300.0	120.0	0.0397	Open
P2925	J21_33	J21_34	145.00	300.0	130.0	0.0242	Open
P2926	J21_33	J22_33	145.00	400.0	125.0	0.0404	Open
P2927	J21_34	J21_35	145.00	400.0	130.0	0.0431	Open
P2928	J21_34	J22_34	145.00	350.0	120.0	0.0443	Open
P2929	J21_35	J21_36	145.00	350.0	125.0	0.0496	Open
P2930	J21_35	J22_35	145.00	400.0	125.0	0.0255	Open
P2931	J21_36	J21_37	145.00	450.0	125.0	0.0374	Open
P2932	J21_36	J22_36	145.00	500.0	120.0	0.0158	Open
P2933	J21_37	J21_38	145.00	600.0	120.0	0.0116	Open
P2934	J21_37	J22_37	145.00	400.0	120.0	0.0418	Open
P2935	J21_38	J21_39	145.00	350.0	130.0	0.0359	Open
P2936	J21_38	J22_38	145.00	500.0	120.0	0.0212	Open
P2937	J21_39	J21_40	145.00	400.0	125.0	0.0404	Open
P2938	J21_39	J22_39	145.00	500.0	120.0	0.0413	Open
P2939	J21_40	J21_41	145.00	600.0	125.0	0.0165	Open
P2940	J21_40	J22_40	145.00	350.0	130.0	0.0034	Open
P2941	J21_41	J21_42	145.00	350.0	125.0	0.0145	Open
P2942	J21_41	J22_41	145.00	300.0	120.0	0.0030	Open
P2943	J21_42	J21_43	145.00	500.0	130.0	0.0444	Open
P2944	J21_42	J22_42	145.00	350.0	120.0	0.0399	Open
P2945	J21_43	J21_44	145.00	400.0	130.0	0.0376	Open
P2946	J21_43	J22_43	145.00	300.0	120.0	0.0081	Open
P2947	J21_44	J21_45	145.00	400.0	125.0	0.0436	Open
P2948	J21_44	J22_44	145.00	350.0	120.0	0.0428	Open
P2949	J21_45	J21_46	145.00	500.0	130.0	0.0036	Open
P2950	J21_45	J22_45	145.00	400.0	130.0	0.0282	Open
P2951	J21_46	J21_47	145.00	500.0	120.0	0.0131	Open
P2952	J21_46	J22_46	145.00	450.0	125.0	0.0100	Open
P2953	J21_47	J21_48	145.00	450.0	125.0	0.0434	Open
P2954	J21_47	J22_47	145.00	500.0	120.0	0.0066	Open
P2955	J21_48	J21_49	145.00	400.0	125.0	0.0055	Open
P2956	J21_48	J22_48	145.00	450.0	120.0	0.0051	Open
P2957	J21_49	J21_50	145.00	350.0	120.0	0.0157	Open
P2958	J21_49	J22_49	145.00	450.0	125.0	0.0098	Open
P2959	J21_50	J21_51	145.00	500.0	120.0	0.0343	Open
P2960	J21_50	J22_50	145.00	300.0	120.0	0.0036	Open
P2961	J21_51	J21_52	145.00	450.0	125.0	0.0163	Open
P2962	J21_51	J22_51	145.00	500.0	125.0	0.0315	Open
P2963	J21_52	J21_53	145.00	400.0	120.0	0.0477	Open
P2964	J21_52	J22_52	145.00	350.0	125.0	0.0429	Open
P2965	J21_53	J21_54	145.00	500.0	125.0	0.0277	Open
P2966	J21_53	J22_53	145.00	450.0	120.0	0.0249	Open
P2967	J21_54	J21_55	145.00	400.0	120.0	0.0494	Open
P2968	J21_54	J22_54	145.00	450.0	125.0	0.0403	Open
P2969	J21_55	J21_56	145.00	600.0	125.0	0.0048	Open
P2970	J21_55	J22_55	145.00	500.0	125.0	0.0218	Open
P2971	J21_56	J21_57	145.00	350.0	130.0	0.0401	Open
P2972	J21_56	J22_56	145.00	300.0	125.0	0.0249	Open
P2973	J21_57	J21_58	145.00	600.0	130.0	0.0182	Open
P2974	J21_57	J22_57	145.00	350.0	130.0	0.0297	Open
P2975	J21_58	J21_59	145.00	350.0	130.0	0.0258	Open
P2976	J21_58	J22_58	145.00	600.0	120.0	0.0132	Open
P2977	J21_59	J21_60	145.00	500.0	120.0	0.0333	Open
P2978	J21_59	J22_59	145.00	400.0	120.0	0.0196	Open
P2979	J21_60	J21_61	145.00	450.0	120.0	0.0146	Open
P2980	J21_60	J22_60	145.00	600.0	130.0	0.0022	Open
P2981	J21_61	J21_62	145.00	400.0	120.0	0.0130	Open
P2982	J21_61	J22_61	145.00	400.0	125.0	0.0169	Open
P2983	J21_62	J21_63	145.00	400.0	130.0	0.0194	Open
P2984	J21_62	J22_62	145.00	350.0	120.0	0.0342	Open
P2985	J21_63	J21_64	145.00	500.0	130.0	0.0118	Open
P2986	J21_63	J22_63	145.00	350.0	125.0	0.0068	Open
P2987	J21_64	J21_65	145.00	400.0	125.0	0.0495	Open
P2988	J21_64	J22_64	145.00	600.0	125.0	0.0077	Open
P2989	J21_65	J21_66	145.00	450.0	120.0	0.0115	Open
P2990	J21_65	J22_65	145.00	450.0	120.0	0.0357	Open
P2991	J21_66	J21_67	145.00	500.0	130.0	0.0279	Open
P2992	J21_66	J22_66	145.00	300.0	125.0	0.0156	Open
P2993	J21_67	J21_68	145.00	600.0	130.0	0.0335	Open
P2994	J21_67	J22_67	145.00	300.0	120.0	0.0400	Open
P2995	J21_68	J21_69	145.00	350.0	120.0	0.0045	Open
P2996	J21_68	J22_68	145.00	600.0	120.0	0.0163	Open
P2997	J21_69	J21_70	145.00	350.0	130.0	0.0081	Open
P2998	J21_69	J22_69	145.00	500.0	120.0	0.0263	Open
P2999	J21_70	J21_71	145.00	450.0	130.0	0.0239	Open
P3000	J21_70	J22_70	145.00	350.0	120.0	0.0307	Open
P3001	J21_71	J21_72	145.00	500.0	120.0	0.0046	Open
P3002	J21_71	J22_71	145.00	350.0	120.0	0.0345	Open
P3003	J21_72	J22_72	145.00	600.0	130.0	0.0315	Open
P3004	J22_1	J22_2	145.00	300.0	120.0	0.0036	Open
P3005	J22_1	J23_1	145.00	300.0	130.0	0.0195	Open
P3006	J22_2	J22_3	145.00	250.0	140.0	0.0641	Open
P3007	J22_2	J23_2	145.00	100.0	125.0	0.1388	Open
P3008	J22_3	J22_4	145.00	150.0	140.0	0.0046	Open
P3009	J22_3	J23_3	145.00	300.0	140.0	0.0128	Open
P3010	J22_4	J22_5	145.00	100.0	135.0	0.1413	Open
P3011	J22_4	J23_4	145.00	200.0	125.0	0.0767	Open
P3012	J22_5	J22_6	145.00	100.0	135.0	0.1080	Open
P3013	J22_5	J23_5	145.00	100.0	130.0	0.0319	Open
P3014	J22_6	J22_7	145.00	200.0	140.0	0.0405	Open
P3015	J22_6	J23_6	145.00	300.0	140.0	0.0415	Open
P3016	J22_7	J22_8	145.00	300.0	125.0	0.1269	Open
P3017	J22_7	J23_7	145.00	250.0	130.0	0.0341	Open
P3018	J22_8	J22_9	145.00	300.0	135.0	0.0767	Open
P3019	J22_8	J23_8	145.00	200.0	125.0	0.0635	Open
P3020	J22_9	J22_10	145.00	300.0	135.0	0.0799	Open
P3021	J22_9	J23_9	145.00	200.0	130.0	0.0551	Open
P3022	J22_10	J22_11	145.00	100.0	130.0	0.0331	Open
P3023	J22_10	J23_10	145.00	100.0	135.0	0.1216	Open
P3024	J22_11	J22_12	145.00	500.0	125.0	0.0277	Open
P3025	J22_11	J23_11	145.00	300.0	130.0	0.0470	Open
P3026	J22_12	J22_13	145.00	100.0	140.0	0.1238	Open
P3027	J22_12	J23_12	145.00	100.0	140.0	0.1239	Open
P3028	J22_13	J22_14	145.00	250.0	125.0	0.1421	Open
P3029	J22_13	J23_13	145.00	300.0	130.0	0.1020	Open
P3030	J22_14	J22_15	145.00	100.0	125.0	0.0070	Open
P3031	J22_14	J23_14	145.00	200.0	135.0	0.1096	Open
P3032	J22_15	J22_16	145.00	300.0	140.0	0.0988	Open
P3033	J22_15	J23_15	145.00	300.0	125.0	0.0393	Open
P3034	J22_16	J22_17	145.00	100.0	130.0	0.0911	Open
P3035	J22_16	J23_16	145.00	300.0	140.0	0.0752	Open
P3036	J22_17	J22_18	145.00	150.0	135.0	0.0440	Open
P3037	J22_17	J23_17	145.00	200.0	130.0	0.0073	Open
P3038	J22_18	J22_19	145.00	200.0	125.0	0.1303	Open
P3039	J22_18	J23_18	145.00	300.0	130.0	0.1231	Open
P3040	J22_19	J22_20	145.00	200.0	130.0	0.0653	Open
P3041	J22_19	J23_19	145.00	300.0	140.0	0.0950	Open
P3042	J22_20	J22_21	145.00	150.0	135.0	0.0033	Open
P3043	J22_20	J23_20	145.00	100.0	130.0	0.1410	Open
P3044	J22_21	J22_22	145.00	500.0	120.0	0.0236	Open
P3045	J22_21	J23_21	145.00	500.0	125.0	0.0108	Open
P3046	J22_22	J22_23	145.00	300.0	130.0	0.1190	Open
P3047	J22_22	J23_22	145.00	300.0	125.0	0.0957	Open
P3048	J22_23	J22_24	145.00	300.0	140.0	0.1477	Open
P3049	J22_23	J23_23	145.00	150.0	135.0	0.0274	Open
P3050	J22_24	J22_25	145.00	300.0	130.0	0.0504	Open
P3051	J22_24	J23_24	145.00	200.0	135.0	0.0031	Open
P3052	J22_25	J22_26	145.00	250.0	140.0	0.0212	Open
P3053	J22_25	J23_25	145.00	300.0	125.0	0.0773	Open
P3054	J22_26	J22_27	145.00	250.0	135.0	0.0367	Open
P3055	J22_26	J23_26	145.00	150.0	125.0	0.1203	Open
P3056	J22_27	J22_28	145.00	300.0	140.0	0.0706	Open
P3057	J22_27	J23_27	145.00	300.0	130.0	0.0143	Open
P3058	J22_28	J22_29	145.00	150.0	135.0	0.0125	Open
P3059	J22_28	J23_28	145.00	300.0	135.0	0.0104	Open
P3060	J22_29	J22_30	145.00	250.0	140.0	0.1121	Open
P3061	J22_29	J23_29	145.00	300.0	125.0	0.0111	Open
P3062	J22_30	J22_31	145.00	200.0	130.0	0.1206	Open
P3063	J22_30	J23_30	145.00	250.0	135.0	0.1351	Open
P3064	J22_31	J22_32	145.00	600.0	130.0	0.0442	Open
P3065	J22_31	J23_31	145.00	600.0	120.0	0.0034	Open
P3066	J22_32	J22_33	145.00	200.0	135.0	0.1341	Open
P3067	J22_32	J23_32	145.00	200.0	130.0	0.1134	Open
P3068	J22_33	J22_34	145.00	150.0	125.0	0.1380	Open
P3069	J22_33	J23_33	145.00	250.0	130.0	0.0390	Open
P3070	J22_34	J22_35	145.00	300.0	130.0	0.0865	Open
P3071	J22_34	J23_34	145.00	100.0	140.0	0.1218	Open
P3072	J22_35	J22_36	145.00	300.0	140.0	0.0073	Open
P3073	J22_35	J23_35	145.00	250.0	135.0	0.0989	Open
P3074	J22_36	J22_37	145.00	200.0	125.0	0.1215	Open
P3075	J22_36	J23_36	145.00	150.0	135.0	0.0103	Open
P3076	J22_37	J22_38	145.00	150.0	130.0	0.1404	Open
P3077	J22_37	J23_37	145.00	300.0	125.0	0.0805	Open
P3078	J22_38	J22_39	145.00	150.0	125.0	0.1233	Open
P3079	J22_38	J23_38	145.00	250.0	135.0	0.1261	Open
P3080	J22_39	J22_40	145.00	300.0	140.0	0.0827	Open
P3081	J22_39	J23_39	145.00	100.0	135.0	0.0305	Open
P3082	J22_40	J22_41	145.00	150.0	125.0	0.0295	Open
P3083	J22_40	J23_40	145.00	200.0	130.0	0.1038	Open
P3084	J22_41	J22_42	145.00	450.0	125.0	0.0121	Open
P3085	J22_41	J23_41	145.00	500.0	125.0	0.0037	Open
P3086	J22_42	J22_43	145.00	250.0	135.0	0.0723	Open
P3087	J22_42	J23_42	145.00	250.0	135.0	0.1277	Open
P3088	J22_43	J22_44	145.00	150.0	125.0	0.0214	Open
P3089	J22_43	J23_43	145.00	150.0	130.0	0.1374	Open
P3090	J22_44	J22_45	145.00	200.0	140.0	0.1256	Open
P3091	J22_44	J23_44	145.00	100.0	140.0	0.1244	Open
P3092	J22_45	J22_46	145.00	250.0	140.0	0.1188	Open
P3093	J22_45	J23_45	145.00	200.0	135.0	0.1061	Open
P3094	J22_46	J22_47	145.00	300.0	140.0	0.0295	Open
P3095	J22_46	J23_46	145.00	200.0	135.0	0.1371	Open
P3096	J22_47	J22_48	145.00	200.0	125.0	0.0889	Open
P3097	J22_47	J23_47	145.00	300.0	135.0	0.0378	Open
P3098	J22_48	J22_49	145.00	200.0	130.0	0.1279	Open
P3099	J22_48	J23_48	145.00	200.0	125.0	0.0813	Open
P3100	J22_49	J22_50	145.00	200.0	130.0	0.0903	Open
P3101	J22_49	J23_49	145.00	200.0	140.0	0.0135	Open
P3102	J22_50	J22_51	145.00	200.0	125.0	0.0079	Open
P3103	J22_50	J23_50	145.00	150.0	125.0	0.1416	Open
P3104	J22_51	J22_52	145.00	600.0	120.0	0.0021	Open
P3105	J22_51	J23_51	145.00	300.0	130.0	0.0310	Open
P3106	J22_52	J22_53	145.00	100.0	135.0	0.1117	Open
P3107	J22_52	J23_52	145.00	150.0	140.0	0.0015	Open
P3108	J22_53	J22_54	145.00	300.0	125.0	0.0342	Open
P3109	J22_53	J23_53	145.00	100.0	125.0	0.0784	Open
P3110	J22_54	J22_55	145.00	150.0	140.0	0.1301	Open
P3111	J22_54	J23_54	145.00	250.0	125.0	0.0972	Open
P3112	J22_55	J22_56	145.00	300.0	125.0	0.0815	Open
P3113	J22_55	J23_55	145.00	150.0	140.0	0.0587	Open
P3114	J22_56	J22_57	145.00	200.0	135.0	0.1155	Open
P3115	J22_56	J23_56	145.00	200.0	125.0	0.1411	Open
P3116	J22_57	J22_58	145.00	150.0	125.0	0.0211	Open
P3117	J22_57	J23_57	145.00	200.0	140.0	0.1309	Open
P3118	J22_58	J22_59	145.00	150.0	140.0	0.1330	Open
P3119	J22_58	J23_58	145.00	150.0	130.0	0.1419	Open
P3120	J22_59	J22_60	145.00	250.0	125.0	0.0596	Open
P3121	J22_59	J23_59	145.00	100.0	125.0	0.0903	Open
P3122	J22_60	J22_61	145.00	250.0	130.0	0.0907	Open
P3123	J22_60	J23_60	145.00	250.0	130.0	0.0622	Open
P3124	J22_61	J22_62	145.00	500.0	120.0	0.0396	Open
P3125	J22_61	J23_61	145.00	450.0	120.0	0.0019	Open
P3126	J22_62	J22_63	145.00	250.0	135.0	0.0559	Open
P3127	J22_62	J23_62	145.00	250.0	135.0	0.1140	Open
P3128	J22_63	J22_64	145.00	100.0	135.0	0.1019	Open
P3129	J22_63	J23_63	145.00	250.0	135.0	0.0694	Open
P3130	J22_64	J22_65	145.00	150.0	130.0	0.1201	Open
P3131	J22_64	J23_64	145.00	300.0	130.0	0.0349	Open
P3132	J22_65	J22_66	145.00	150.0	135.0	0.0572	Open
P3133	J22_65	J23_65	145.00	250.0	135.0	0.1067	Open
P3134	J22_66	J22_67	145.00	100.0	140.0	0.1162	Open
P3135	J22_66	J23_66	145.00	150.0	140.0	0.0470	Open
P3136	J22_67	J22_68	145.00	250.0	135.0	0.0487	Open
P3137	J22_67	J23_67	145.00	150.0	125.0	0.0372	Open
P3138	J22_68	J22_69	145.00	250.0	135.0	0.0369	Open
P3139	J22_68	J23_68	145.00	300.0	125.0	0.0533	Open
P3140	J22_69	J22_70	145.00	250.0	135.0	0.0428	Open
P3141	J22_69	J23_69	145.00	100.0	130.0	0.1340	Open
P3142	J22_70	J22_71	145.00	100.0	135.0	0.0977	Open
P3143	J22_70	J23_70	145.00	300.0	135.0	0.0182	Open
P3144	J22_71	J22_72	145.00	500.0	130.0	0.0066	Open
P3145	J22_71	J23_71	145.00	300.0	120.0	0.0072	Open
P3146	J22_72	J23_72	145.00	100.0	125.0	0.0391	Open
P3147	J23_1	J23_2	145.00	450.0	120.0	0.0189	Open
P3148	J23_1	J24_1	145.00	350.0	120.0	0.0147	Open
P3149	J23_2	J23_3	145.00	200.0	135.0	0.0099	Open
P3150	J23_2	J24_2	145.00	300.0	130.0	0.0780	Open
P3151	J23_3	J23_4	145.00	100.0	140.0	0.0648	Open
P3152	J23_3	J24_3	145.00	250.0	140.0	0.0301	Open
P3153	J23_4	J23_5	145.00	250.0	125.0	0.0386	Open
P3154	J23_4	J24_4	145.00	150.0	130.0	0.1279	Open
P3155	J23_5	J23_6	145.00	250.0	140.0	0.0723	Open
P3156	J23_5	J24_5	145.00	100.0	140.0	0.1020	Open
P3157	J23_6	J23_7	145.00	150.0	135.0	0.1112	Open
P3158	J23_6	J24_6	145.00	200.0	140.0	0.0761	Open
P3159	J23_7	J23_8	145.00	300.0	125.0	0.0162	Open
P3160	J23_7	J24_7	145.00	200.0	140.0	0.1258	Open
P3161	J23_8	J23_9	145.00	100.0	140.0	0.1314	Open
P3162	J23_8	J24_8	145.00	250.0	140.0	0.0767	Open
P3163	J23_9	J23_10	145.00	300.0	135.0	0.1034	Open
P3164	J23_9	J24_9	145.00	200.0	130.0	0.0302	Open
P3165	J23_10	J23_11	145.00	300.0	130.0	0.0460	Open
P3166	J23_10	J24_10	145.00	200.0	135.0	0.0763	Open
P3167	J23_11	J23_12	145.00	350.0	130.0	0.0128	Open
P3168	J23_11	J24_11	145.00	600.0	125.0	0.0142	Open
P3169	J23_12	J23_13	145.00	200.0	125.0	0.1469	Open
P3170	J23_12	J24_12	145.00	150.0	125.0	0.0418	Open
P3171	J23_13	J23_14	145.00	150.0	125.0	0.0000	Open
P3172	J23_13	J24_13	145.00	250.0	135.0	0.0301	Open
P3173	J23_14	J23_15	145.00	100.0	140.0	0.0287	Open
P3174	J23_14	J24_14	145.00	250.0	130.0	0.0719	Open
P3175	J23_15	J23_16	145.00	100.0	140.0	0.0531	Open
P3176	J23_15	J24_15	145.00	250.0	125.0	0.0995	Open
P3177	J23_16	J23_17	145.00	300.0	140.0	0.0319	Open
P3178	J23_16	J24_16	145.00	300.0	135.0	0.0964	Open
P3179	J23_17	J23_18	145.00	150.0	135.0	0.1039	Open
P3180	J23_17	J24_17	145.00	250.0	125.0	0.1122	Open
P3181	J23_18	J23_19	145.00	150.0	125.0	0.1022	Open
P3182	J23_18	J24_18	145.00	300.0	130.0	0.0627	Open
P3183	J23_19	J23_20	145.00	250.0	125.0	0.0532	Open
P3184	J23_19	J24_19	145.00	200.0	135.0	0.0612	Open
P3185	J23_20	J23_21	145.00	100.0	130.0	0.0847	Open
P3186	J23_20	J24_20	145.00	250.0	125.0	0.0507	Open
P3187	J23_21	J23_22	145.00	400.0	125.0	0.0246	Open
P3188	J23_21	J24_21	145.00	400.0	125.0	0.0157	Open
P3189	J23_22	J23_23	145.00	150.0	140.0	0.0077	Open
P3190	J23_22	J24_22	145.00	200.0	130.0	0.0651	Open
P3191	J23_23	J23_24	145.00	200.0	140.0	0.1445	Open
P3192	J23_23	J24_23	145.00	100.0	125.0	0.0633	Open
P3193	J23_24	J23_25	145.00	300.0	140.0	0.1285	Open
P3194	J23_24	J24_24	145.00	300.0	130.0	0.0590	Open
P3195	J23_25	J23_26	145.00	250.0	135.0	0.1370	Open
P3196	J23_25	J24_25	145.00	100.0	140.0	0.1038	Open
P3197	J23_26	J23_27	145.00	150.0	125.0	0.1061	Open
P3198	J23_26	J24_26	145.00	250.0	125.0	0.0194	Open
P3199	J23_27	J23_28	145.00	250.0	140.0	0.0461	Open
P3200	J23_27	J24_27	145.00	150.0	130.0	0.1275	Open
P3201	J23_28	J23_29	145.00	150.0	125.0	0.0975	Open
P3202	J23_28	J24_28	145.00	150.0	125.0	0.0394	Open
P3203	J23_29	J23_30	145.00	250.0	135.0	0.1189	Open
P3204	J23_29	J24_29	145.00	300.0	125.0	0.1412	Open
P3205	J23_30	J23_31	145.00	300.0	130.0	0.0763	Open
P3206	J23_30	J24_30	145.00	150.0	140.0	0.1318	Open
P3207	J23_31	J23_32	145.00	300.0	120.0	0.0036	Open
P3208	J23_31	J24_31	145.00	500.0	130.0	0.0008	Open
P3209	J23_32	J23_33	145.00	200.0	130.0	0.0762	Open
P3210	J23_32	J24_32	145.00	150.0	130.0	0.0605	Open
P3211	J23_33	J23_34	145.00	250.0	140.0	0.0495	Open
P3212	J23_33	J24_33	145.00	150.0	135.0	0.0210	Open
P3213	J23_34	J23_35	145.00	100.0	140.0	0.0619	Open
P3214	J23_34	J24_34	145.00	100.0	125.0	0.1493	Open
P3215	J23_35	J23_36	145.00	200.0	135.0	0.0492	Open
P3216	J23_35	J24_35	145.00	300.0	125.0	0.0417	Open
P3217	J23_36	J23_37	145.00	300.0	130.0	0.0846	Open
P3218	J23_36	J24_36	145.00	300.0	140.0	0.0207	Open
P3219	J23_37	J23_38	145.00	200.0	135.0	0.1094	Open
P3220	J23_37	J24_37	145.00	300.0	135.0	0.0531	Open
P3221	J23_38	J23_39	145.00	300.0	130.0	0.1461	Open
P3222	J23_38	J24_38	145.00	150.0	140.0	0.0209	Open
P3223	J23_39	J23_40	145.00	250.0	130.0	0.0891	Open
P3224	J23_39	J24_39	145.00	300.0	130.0	0.1358	Open
P3225	J23_40	J23_41	145.00	200.0	125.0	0.0735	Open
P3226	J23_40	J24_40	145.00	250.0	125.0	0.1333	Open
P3227	J23_41	J23_42	145.00	450.0	130.0	0.0165	Open
P3228	J23_41	J24_41	145.00	350.0	120.0	0.0012	Open
P3229	J23_42	J23_43	145.00	250.0	135.0	0.0521	Open
P3230	J23_42	J24_42	145.00	100.0	140.0	0.1040	Open
P3231	J23_43	J23_44	145.00	250.0	125.0	0.0425	Open
P3232	J23_43	J24_43	145.00	100.0	130.0	0.0860	Open
P3233	J23_44	J23_45	145.00	300.0	125.0	0.0721	Open
P3234	J23_44	J24_44	145.00	300.0	135.0	0.0306	Open
P3235	J23_45	J23_46	145.00	150.0	130.0	0.1245	Open
P3236	J23_45	J24_45	145.00	300.0	140.0	0.0264	Open
P3237	J23_46	J23_47	145.00	250.0	125.0	0.0288	Open
P3238	J23_46	J24_46	145.00	250.0	135.0	0.0837	Open
P3239	J23_47	J23_48	145.00	200.0	135.0	0.1305	Open
P3240	J23_47	J24_47	145.00	300.0	135.0	0.0211	Open
P3241	J23_48	J23_49	145.00	300.0	130.0	0.0178	Open
P3242	J23_48	J24_48	145.00	250.0	125.0	0.0115	Open
P3243	J23_49	J23_50	145.00	200.0	135.0	0.1103	Open
P3244	J23_49	J24_49	145.00	200.0	125.0	0.0032	Open
P3245	J23_50	J23_51	145.00	250.0	135.0	0.1286	Open
P3246	J23_50	J24_50	145.00	200.0	135.0	0.0762	Open
P3247	J23_51	J23_52	145.00	400.0	130.0	0.0300	Open
P3248	J23_51	J24_51	145.00	450.0	120.0	0.0444	Open
P3249	J23_52	J23_53	145.00	300.0	140.0	0.0666	Open
P3250	J23_52	J24_52	145.00	100.0	135.0	0.0201	Open
P3251	J23_53	J23_54	145.00	150.0	130.0	0.1131	Open
P3252	J23_53	J24_53	145.00	150.0	140.0	0.0233	Open
P3253	J23_54	J23_55	145.00	250.0	140.0	0.0245	Open
P3254	J23_54	J24_54	145.00	300.0	130.0	0.0958	Open
P3255	J23_55	J23_56	145.00	300.0	140.0	0.1494	Open
P3256	J23_55	J24_55	145.00	300.0	140.0	0.0216	Open
P3257	J23_56	J23_57	145.00	200.0	125.0	0.1272	Open
P3258	J23_56	J24_56	145.00	250.0	135.0	0.0006	Open
P3259	J23_57	J23_58	145.00	150.0	130.0	0.0555	Open
P3260	J23_57	J24_57	145.00	150.0	140.0	0.0858	Open
P3261	J23_58	J23_59	145.00	300.0	135.0	0.0583	Open
P3262	J23_58	J24_58	145.00	250.0	130.0	0.1465	Open
P3263	J23_59	J23_60	145.00	150.0	130.0	0.0630	Open
P3264	J23_59	J24_59	145.00	250.0	135.0	0.1230	Open
P3265	J23_60	J23_61	145.00	250.0	135.0	0.1072	Open
P3266	J23_60	J24_60	145.00	150.0	130.0	0.1380	Open
P3267	J23_61	J23_62	145.00	400.0	130.0	0.0172	Open
P3268	J23_61	J24_61	145.00	350.0	120.0	0.0154	Open
P3269	J23_62	J23_63	145.00	150.0	125.0	0.0587	Open
P3270	J23_62	J24_62	145.00	250.0	125.0	0.0626	Open
P3271	J23_63	J23_64	145.00	150.0	125.0	0.0067	Open
P3272	J23_63	J24_63	145.00	250.0	125.0	0.1281	Open
P3273	J23_64	J23_65	145.00	300.0	130.0	0.1198	Open
P3274	J23_64	J24_64	145.00	150.0	130.0	0.0478	Open
P3275	J23_65	J23_66	145.00	300.0	140.0	0.1021	Open
P3276	J23_65	J24_65	145.00	150.0	125.0	0.1497	Open
P3277	J23_66	J23_67	145.00	200.0	140.0	0.1392	Open
P3278	J23_66	J24_66	145.00	250.0	140.0	0.1494	Open
P3279	J23_67	J23_68	145.00	200.0	140.0	0.0242	Open
P3280	J23_67	J24_67	145.00	200.0	140.0	0.0912	Open
P3281	J23_68	J23_69	145.00	150.0	130.0	0.1147	Open
P3282	J23_68	J24_68	145.00	300.0	140.0	0.1179	Open
P3283	J23_69	J23_70	145.00	150.0	125.0	0.1151	Open
P3284	J23_69	J24_69	145.00	250.0	135.0	0.0089	Open
P3285	J23_70	J23_71	145.00	100.0	130.0	0.0546	Open
P3286	J23_70	J24_70	145.00	300.0	125.0	0.0733	Open
P3287	J23_71	J23_72	145.00	300.0	125.0	0.0497	Open
P3288	J23_71	J24_71	145.00	400.0	125.0	0.0135	Open
P3289	J23_72	J24_72	145.00	300.0	125.0	0.0909	Open
P3290	J24_1	J24_2	145.00	600.0	125.0	0.0392	Open
P3291	J24_1	J25_1	145.00	350.0	130.0	0.0365	Open
P3292	J24_2	J24_3	145.00	300.0	130.0	0.0058	Open
P3293	J24_2	J25_2	145.00	250.0	140.0	0.0609	Open
P3294	J24_3	J24_4	145.00	200.0	140.0	0.1371	Open
P3295	J24_3	J25_3	145.00	300.0	140.0	0.0641	Open
P3296	J24_4	J24_5	145.00	250.0	135.0	0.1129	Open
P3297	J24_4	J25_4	145.00	200.0	125.0	0.1099	Open
P3298	J24_5	J24_6	145.00	150.0	125.0	0.0397	Open
P3299	J24_5	J25_5	145.00	100.0	140.0	0.1255	Open
P3300	J24_6	J24_7	145.00	150.0	140.0	0.0054	Open
P3301	J24_6	J25_6	145.00	150.0	130.0	0.0081	Open
P3302	J24_7	J24_8	145.00	250.0	135.0	0.0237	Open
P3303	J24_7	J25_7	145.00	250.0	125.0	0.0459	Open
P3304	J24_8	J24_9	145.00	100.0	140.0	0.0062	Open
P3305	J24_8	J25_8	145.00	200.0	140.0	0.0127	Open
P3306	J24_9	J24_10	145.00	200.0	135.0	0.1434	Open
P3307	J24_9	J25_9	145.00	100.0	135.0	0.0405	Open
P3308	J24_10	J24_11	145.00	200.0	130.0	0.0066	Open
P3309	J24_10	J25_10	145.00	250.0	125.0	0.1455	Open
P3310	J24_11	J24_12	145.00	600.0	120.0	0.0396	Open
P3311	J24_11	J25_11	145.00	500.0	125.0	0.0493	Open
P3312	J24_12	J24_13	145.00	300.0	130.0	0.0605	Open
P3313	J24_12	J25_12	145.00	250.0	130.0	0.1335	Open
P3314	J24_13	J24_14	145.00	200.0	135.0	0.1284	Open
P3315	J24_13	J25_13	145.00	100.0	130.0	0.1496	Open
P3316	J24_14	J24_15	145.00	250.0	140.0	0.0095	Open
P3317	J24_14	J25_14	145.00	100.0	135.0	0.0869	Open
P3318	J24_15	J24_16	145.00	100.0	135.0	0.1290	Open
P3319	J24_15	J25_15	145.00	100.0	130.0	0.1241	Open
P3320	J24_16	J24_17	145.00	250.0	130.0	0.1072	Open
P3321	J24_16	J25_16	145.00	200.0	135.0	0.0135	Open
P3322	J24_17	J24_18	145.00	250.0	135.0	0.1344	Open
P3323	J24_17	J25_17	145.00	300.0	130.0	0.0646	Open
P3324	J24_18	J24_19	145.00	300.0	140.0	0.0906	Open
P3325	J24_18	J25_18	145.00	200.0	140.0	0.0128	Open
P3326	J24_19	J24_20	145.00	150.0	130.0	0.0274	Open
P3327	J24_19	J25_19	145.00	200.0	130.0	0.0795	Open
P3328	J24_20	J24_21	145.00	250.0	125.0	0.0240	Open
P3329	J24_20	J25_20	145.00	150.0	135.0	0.0785	Open
P3330	J24_21	J24_22	145.00	350.0	130.0	0.0367	Open
P3331	J24_21	J25_21	145.00	600.0	125.0	0.0102	Open
P3332	J24_22	J24_23	145.00	300.0	135.0	0.0484	Open
P3333	J24_22	J25_22	145.00	150.0	125.0	0.1221	Open
P3334	J24_23	J24_24	145.00	100.0	135.0	0.0689	Open
P3335	J24_23	J25_23	145.00	250.0	125.0	0.1430	Open
P3336	J24_24	J24_25	145.00	150.0	130.0	0.0309	Open
P3337	J24_24	J25_24	145.00	250.0	125.0	0.0838	Open
P3338	J24_25	J24_26	145.00	300.0	140.0	0.0218	Open
P3339	J24_25	J25_25	145.00	100.0	130.0	0.0799	Open
P3340	J24_26	J24_27	145.00	100.0	130.0	0.0329	Open
P3341	J24_26	J25_26	145.00	200.0	140.0	0.0905	Open
P3342	J24_27	J24_28	145.00	250.0	135.0	0.0833	Open
P3343	J24_27	J25_27	145.00	100.0	135.0	0.1185	Open
P3344	J24_28	J24_29	145.00	300.0	140.0	0.0993	Open
P3345	J24_28	J25_28	145.00	300.0	130.0	0.0984	Open
P3346	J24_29	J24_30	145.00	200.0	135.0	0.0602	Open
P3347	J24_29	J25_29	145.00	250.0	130.0	0.0378	Open
P3348	J24_30	J24_31	145.00	100.0	135.0	0.0967	Open
P3349	J24_30	J25_30	145.00	300.0	140.0	0.0563	Open
P3350	J24_31	J24_32	145.00	350.0	130.0	0.0211	Open
P3351	J24_31	J25_31	145.00	450.0	130.0	0.0498	Open
P3352	J24_32	J24_33	145.00	100.0	125.0	0.0290	Open
P3353	J24_32	J25_32	145.00	300.0	135.0	0.1406	Open
P3354	J24_33	J24_34	145.00	200.0	125.0	0.0402	Open
P3355	J24_33	J25_33	145.00	100.0	135.0	0.0960	Open
P3356	J24_34	J24_35	145.00	150.0	140.0	0.1409	Open
P3357	J24_34	J25_34	145.00	100.0	135.0	0.0426	Open
P3358	J24_35	J24_36	145.00	200.0	125.0	0.0084	Open
P3359	J24_35	J25_35	145.00	250.0	140.0	0.1081	Open
P3360	J24_36	J24_37	145.00	100.0	140.0	0.1317	Open
P3361	J24_36	J25_36	145.00	250.0	135.0	0.0091	Open
P3362	J24_37	J24_38	145.00	100.0	130.0	0.0736	Open
P3363	J24_37	J25_37	145.00	150.0	140.0	0.0338	Open
P3364	J24_38	J24_39	145.00	250.0	140.0	0.1128	Open
P3365	J24_38	J25_38	145.00	300.0	140.0	0.1235	Open
P3366	J24_39	J24_40	145.00	250.0	125.0	0.0655	Open
P3367	J24_39	J25_39	145.00	150.0	135.0	0.0258	Open
P3368	J24_40	J24_41	145.00	100.0	125.0	0.0867	Open
P3369	J24_40	J25_40	145.00	200.0	130.0	0.1405	Open
P3370	J24_41	J24_42	145.00	400.0	130.0	0.0473	Open
P3371	J24_41	J25_41	145.00	500.0	130.0	0.0019	Open
P3372	J24_42	J24_43	145.00	150.0	130.0	0.0542	Open
P3373	J24_42	J25_42	145.00	300.0	140.0	0.0825	Open
P3374	J24_43	J24_44	145.00	150.0	130.0	0.0942	Open
P3375	J24_43	J25_43	145.00	200.0	135.0	0.0287	Open
P3376	J24_44	J24_45	145.00	150.0	140.0	0.0894	Open
P3377	J24_44	J25_44	145.00	250.0	135.0	0.0605	Open
P3378	J24_45	J24_46	145.00	100.0	125.0	0.0705	Open
P3379	J24_45	J25_45	145.00	250.0	135.0	0.1396	Open
P3380	J24_46	J24_47	145.00	100.0	135.0	0.0840	Open
P3381	J24_46	J25_46	145.00	300.0	140.0	0.1209	Open
P3382	J24_47	J24_48	145.00	250.0	125.0	0.0081	Open
P3383	J24_47	J25_47	145.00	100.0	140.0	0.0928	Open
P3384	J24_48	J24_49	145.00	200.0	125.0	0.0857	Open
P3385	J24_48	J25_48	145.00	100.0	130.0	0.0551	Open
P3386	J24_49	J24_50	145.00	200.0	130.0	0.1297	Open
P3387	J24_49	J25_49	145.00	100.0	140.0	0.0621	Open
P3388	J24_50	J24_51	145.00	300.0	135.0	0.0908	Open
P3389	J24_50	J25_50	145.00	100.0	140.0	0.0408	Open
P3390	J24_51	J24_52	145.00	350.0	130.0	0.0266	Open
P3391	J24_51	J25_51	145.00	350.0	120.0	0.0338	Open
P3392	J24_52	J24_53	145.00	200.0	130.0	0.0649	Open
P3393	J24_52	J25_52	145.00	200.0	130.0	0.0375	Open
P3394	J24_53	J24_54	145.00	200.0	140.0	0.1365	Open
P3395	J24_53	J25_53	145.00	250.0	140.0	0.0273	Open
P3396	J24_54	J24_55	145.00	250.0	130.0	0.1085	Open
P3397	J24_54	J25_54	145.00	200.0	125.0	0.0422	Open
P3398	J24_55	J24_56	145.00	100.0	135.0	0.1483	Open
P3399	J24_55	J25_55	145.00	300.0	125.0	0.1313	Open
P3400	J24_56	J24_57	145.00	300.0	130.0	0.0806	Open
P3401	J24_56	J25_56	145.00	200.0	130.0	0.0475	Open
P3402	J24_57	J24_58	145.00	250.0	135.0	0.0123	Open
P3403	J24_57	J25_57	145.00	200.0	140.0	0.0753	Open
P3404	J24_58	J24_59	145.00	250.0	130.0	0.1261	Open
P3405	J24_58	J25_58	145.00	300.0	125.0	0.0780	Open
P3406	J24_59	J24_60	145.00	100.0	130.0	0.1256	Open
P3407	J24_59	J25_59	145.00	300.0	135.0	0.0127	Open
P3408	J24_60	J24_61	145.00	200.0	125.0	0.0919	Open
P3409	J24_60	J25_60	145.00	200.0	125.0	0.0511	Open
P3410	J24_61	J24_62	145.00	500.0	130.0	0.0182	Open
P3411	J24_61	J25_61	145.00	500.0	125.0	0.0295	Open
P3412	J24_62	J24_63	145.00	100.0	125.0	0.0055	Open
P3413	J24_62	J25_62	145.00	300.0	135.0	0.0244	Open
P3414	J24_63	J24_64	145.00	250.0	135.0	0.0109	Open
P3415	J24_63	J25_63	145.00	100.0	135.0	0.0483	Open
P3416	J24_64	J24_65	145.00	200.0	135.0	0.1281	Open
P3417	J24_64	J25_64	145.00	150.0	140.0	0.0586	Open
P3418	J24_65	J24_66	145.00	150.0	140.0	0.1236	Open
P3419	J24_65	J25_65	145.00	200.0	125.0	0.1499	Open
P3420	J24_66	J24_67	145.00	300.0	140.0	0.1472	Open
P3421	J24_66	J25_66	145.00	100.0	125.0	0.0932	Open
P3422	J24_67	J24_68	145.00	100.0	130.0	0.1044	Open
P3423	J24_67	J25_67	145.00	150.0	130.0	0.0068	Open
P3424	J24_68	J24_69	145.00	200.0	135.0	0.0463	Open
P3425	J24_68	J25_68	145.00	150.0	125.0	0.0370	Open
P3426	J24_69	J24_70	145.00	100.0	135.0	0.0812	Open
P3427	J24_69	J25_69	145.00	100.0	140.0	0.1305	Open
P3428	J24_70	J24_71	145.00	100.0	125.0	0.0853	Open
P3429	J24_70	J25_70	145.00	150.0	140.0	0.1287	Open
P3430	J24_71	J24_72	145.00	400.0	120.0	0.0422	Open
P3431	J24_71	J25_71	145.00	450.0	125.0	0.0278	Open
P3432	J24_72	J25_72	145.00	200.0	130.0	0.0593	Open
P3433	J25_1	J25_2	145.00	400.0	120.0	0.0036	Open
P3434	J25_1	J26_1	145.00	400.0	130.0	0.0058	Open
P3435	J25_2	J25_3	145.00	200.0	140.0	0.0085	Open
P3436	J25_2	J26_2	145.00	250.0	125.0	0.0382	Open
P3437	J25_3	J25_4	145.00	300.0	125.0	0.0397	Open
P3438	J25_3	J26_3	145.00	100.0	130.0	0.0045	Open
P3439	J25_4	J25_5	145.00	150.0	130.0	0.0501	Open
P3440	J25_4	J26_4	145.00	150.0	135.0	0.1002	Open
P3441	J25_5	J25_6	145.00	150.0	130.0	0.0507	Open
P3442	J25_5	J26_5	145.00	150.0	130.0	0.1153	Open
P3443	J25_6	J25_7	145.00	250.0	125.0	0.0102	Open
P3444	J25_6	J26_6	145.00	250.0	135.0	0.0634	Open
P3445	J25_7	J25_8	145.00	300.0	140.0	0.0126	Open
P3446	J25_7	J26_7	145.00	250.0	140.0	0.0605	Open
P3447	J25_8	J25_9	145.00	250.0	130.0	0.1119	Open
P3448	J25_8	J26_8	145.00	300.0	130.0	0.0939	Open
P3449	J25_9	J25_10	145.00	250.0	130.0	0.0309	Open
P3450	J25_9	J26_9	145.00	200.0	135.0	0.0191	Open
P3451	J25_10	J25_11	145.00	200.0	125.0	0.1279	Open
P3452	J25_10	J26_10	145.00	150.0	125.0	0.1347	Open
P3453	J25_11	J25_12	145.00	350.0	125.0	0.0387	Open
P3454	J25_11	J26_11	145.00	450.0	125.0	0.0480	Open
P3455	J25_12	J25_13	145.00	250.0	130.0	0.0059	Open
P3456	J25_12	J26_12	145.00	200.0	140.0	0.1484	Open
P3457	J25_13	J25_14	145.00	100.0	130.0	0.1240	Open
P3458	J25_13	J26_13	145.00	200.0	135.0	0.1358	Open
P3459	J25_14	J25_15	145.00	150.0	135.0	0.1428	Open
P3460	J25_14	J26_14	145.00	200.0	125.0	0.1476	Open
P3461	J25_15	J25_16	145.00	100.0	140.0	0.1358	Open
P3462	J25_15	J26_15	145.00	200.0	125.0	0.1419	Open
P3463	J25_16	J25_17	145.00	250.0	125.0	0.1032	Open
P3464	J25_16	J26_16	145.00	150.0	135.0	0.0733	Open
P3465	J25_17	J25_18	145.00	200.0	135.0	0.0116	Open
P3466	J25_17	J26_17	145.00	150.0	135.0	0.0254	Open
P3467	J25_18	J25_19	145.00	150.0	140.0	0.0624	Open
P3468	J25_18	J26_18	145.00	250.0	130.0	0.0346	Open
P3469	J25_19	J25_20	145.00	150.0	135.0	0.0795	Open
P3470	J25_19	J26_19	145.00	300.0	130.0	0.1196	Open
P3471	J25_20	J25_21	145.00	300.0	135.0	0.0117	Open
P3472	J25_20	J26_20	145.00	200.0	125.0	0.0650	Open
P3473	J25_21	J25_22	145.00	350.0	130.0	0.0272	Open
P3474	J25_21	J26_21	145.00	300.0	125.0	0.0340	Open
P3475	J25_22	J25_23	145.00	150.0	135.0	0.1355	Open
P3476	J25_22	J26_22	145.00	250.0	130.0	0.0960	Open
P3477	J25_23	J25_24	145.00	200.0	125.0	0.0338	Open
P3478	J25_23	J26_23	145.00	100.0	140.0	0.0028	Open
P3479	J25_24	J25_25	145.00	200.0	135.0	0.0834	Open
P3480	J25_24	J26_24	145.00	100.0	125.0	0.0650	Open
P3481	J25_25	J25_26	145.00	250.0	130.0	0.1426	Open
P3482	J25_25	J26_25	145.00	300.0	130.0	0.0432	Open
P3483	J25_26	J25_27	145.00	150.0	140.0	0.1309	Open
P3484	J25_26	J26_26	145.00	200.0	135.0	0.1208	Open
P3485	J25_27	J25_28	145.00	100.0	135.0	0.1028	Open
P3486	J25_27	J26_27	145.00	150.0	125.0	0.0296	Open
P3487	J25_28	J25_29	145.00	300.0	135.0	0.0352	Open
P3488	J25_28	J26_28	145.00	150.0	135.0	0.0689	Open
P3489	J25_29	J25_30	145.00	150.0	125.0	0.0228	Open
P3490	J25_29	J26_29	145.00	250.0	140.0	0.0615	Open
P3491	J25_30	J25_31	145.00	300.0	130.0	0.1380	Open
P3492	J25_30	J26_30	145.00	100.0	130.0	0.1255	Open
P3493	J25_31	J25_32	145.00	500.0	130.0	0.0461	Open
P3494	J25_31	J26_31	145.00	300.0	120.0	0.0063	Open
P3495	J25_32	J25_33	145.00	300.0	130.0	0.1028	Open
P3496	J25_32	J26_32	145.00	100.0	130.0	0.0652	Open
P3497	J25_33	J25_34	145.00	300.0	125.0	0.0488	Open
P3498	J25_33	J26_33	145.00	150.0	130.0	0.0542	Open
P3499	J25_34	J25_35	145.00	200.0	125.0	0.0616	Open
P3500	J25_34	J26_34	145.00	100.0	130.0	0.0815	Open
P3501	J25_35	J25_36	145.00	100.0	135.0	0.0662	Open
P3502	J25_35	J26_35	145.00	100.0	135.0	0.1274	Open
P3503	J25_36	J25_37	145.00	200.0	140.0	0.0721	Open
P3504	J25_36	J26_36	145.00	200.0	135.0	0.0851	Open
P3505	J25_37	J25_38	145.00	200.0	140.0	0.0977	Open
P3506	J25_37	J26_37	145.00	100.0	140.0	0.0698	Open
P3507	J25_38	J25_39	145.00	200.0	140.0	0.0572	Open
P3508	J25_38	J26_38	145.00	300.0	130.0	0.1291	Open
P3509	J25_39	J25_40	145.00	250.0	140.0	0.0303	Open
P3510	J25_39	J26_39	145.00	300.0	125.0	0.0247	Open
P3511	J25_40	J25_41	145.00	100.0	135.0	0.1339	Open
P3512	J25_40	J26_40	145.00	150.0	140.0	0.0077	Open
P3513	J25_41	J25_42	145.00	450.0	120.0	0.0192	Open
P3514	J25_41	J26_41	145.00	300.0	130.0	0.0446	Open
P3515	J25_42	J25_43	145.00	200.0	140.0	0.0093	Open
P3516	J25_42	J26_42	145.00	200.0	140.0	0.1259	Open
P3517	J25_43	J25_44	145.00	250.0	140.0	0.0175	Open
P3518	J25_43	J26_43	145.00	250.0	130.0	0.0460	Open
P3519	J25_44	J25_45	145.00	300.0	125.0	0.0667	Open
P3520	J25_44	J26_44	145.00	100.0	135.0	0.0772	Open
P3521	J25_45	J25_46	145.00	150.0	130.0	0.0779	Open
P3522	J25_45	J26_45	145.00	150.0	130.0	0.0787	Open
P3523	J25_46	J25_47	145.00	150.0	135.0	0.0451	Open
P3524	J25_46	J26_46	145.00	250.0	125.0	0.0812	Open
P3525	J25_47	J25_48	145.00	250.0	130.0	0.0885	Open
P3526	J25_47	J26_47	145.00	150.0	125.0	0.0710	Open
P3527	J25_48	J25_49	145.00	250.0	135.0	0.0310	Open
P3528	J25_48	J26_48	145.00	150.0	125.0	0.0174	Open
P3529	J25_49	J25_50	145.00	200.0	135.0	0.0991	Open
P3530	J25_49	J26_49	145.00	200.0	125.0	0.0397	Open
P3531	J25_50	J25_51	145.00	250.0	125.0	0.1098	Open
P3532	J25_50	J26_50	145.00	100.0	125.0	0.1121	Open
P3533	J25_51	J25_52	145.00	400.0	125.0	0.0082	Open
P3534	J25_51	J26_51	145.00	500.0	125.0	0.0040	Open
P3535	J25_52	J25_53	145.00	100.0	135.0	0.0998	Open
P3536	J25_52	J26_52	145.00	150.0	125.0	0.1206	Open
P3537	J25_53	J25_54	145.00	250.0	140.0	0.1053	Open
P3538	J25_53	J26_53	145.00	300.0	125.0	0.0923	Open
P3539	J25_54	J25_55	145.00	300.0	135.0	0.1407	Open
P3540	J25_54	J26_54	145.00	100.0	140.0	0.0124	Open
P3541	J25_55	J25_56	145.00	100.0	135.0	0.1124	Open
P3542	J25_55	J26_55	145.00	100.0	125.0	0.1124	Open
P3543	J25_56	J25_57	145.00	250.0	130.0	0.0994	Open
P3544	J25_56	J26_56	145.00	300.0	140.0	0.0106	Open
P3545	J25_57	J25_58	145.00	200.0	125.0	0.1412	Open
P3546	J25_57	J26_57	145.00	300.0	130.0	0.0925	Open
P3547	J25_58	J25_59	145.00	300.0	140.0	0.0198	Open
P3548	J25_58	J26_58	145.00	200.0	130.0	0.0864	Open
P3549	J25_59	J25_60	145.00	150.0	130.0	0.0635	Open
P3550	J25_59	J26_59	145.00	250.0	135.0	0.0574	Open
P3551	J25_60	J25_61	145.00	300.0	135.0	0.0050	Open
P3552	J25_60	J26_60	145.00	250.0	125.0	0.1163	Open
P3553	J25_61	J25_62	145.00	450.0	125.0	0.0275	Open
P3554	J25_61	J26_61	145.00	400.0	130.0	0.0093	Open
P3555	J25_62	J25_63	145.00	300.0	130.0	0.0914	Open
P3556	J25_62	J26_62	145.00	200.0	125.0	0.1249	Open
P3557	J25_63	J25_64	145.00	300.0	130.0	0.1188	Open
P3558	J25_63	J26_63	145.00	100.0	130.0	0.1363	Open
P3559	J25_64	J25_65	145.00	250.0	130.0	0.0178	Open
P3560	J25_64	J26_64	145.00	150.0	140.0	0.0987	Open
P3561	J25_65	J25_66	145.00	100.0	125.0	0.0227	Open
P3562	J25_65	J26_65	145.00	150.0	140.0	0.0832	Open
P3563	J25_66	J25_67	145.00	200.0	130.0	0.0406	Open
P3564	J25_66	J26_66	145.00	300.0	140.0	0.1375	Open
P3565	J25_67	J25_68	145.00	250.0	125.0	0.0908	Open
P3566	J25_67	J26_67	145.00	100.0	130.0	0.1214	Open
P3567	J25_68	J25_69	145.00	150.0	135.0	0.0806	Open
P3568	J25_68	J26_68	145.00	200.0	125.0	0.1365	Open
P3569	J25_69	J25_70	145.00	300.0	125.0	0.0487	Open
P3570	J25_69	J26_69	145.00	200.0	135.0	0.0868	Open
P3571	J25_70	J25_71	145.00	100.0	140.0	0.1095	Open
P3572	J25_70	J26_70	145.00	200.0	135.0	0.0252	Open
P3573	J25_71	J25_72	145.00	600.0	125.0	0.0161	Open
P3574	J25_71	J26_71	145.00	450.0	130.0	0.0112	Open
P3575	J25_72	J26_72	145.00	250.0	135.0	0.1355	Open
P3576	J26_1	J26_2	145.00	600.0	130.0	0.0385	Open
P3577	J26_1	J27_1	145.00	600.0	130.0	0.0246	Open
P3578	J26_2	J26_3	145.00	200.0	125.0	0.0567	Open
P3579	J26_2	J27_2	145.00	300.0	125.0	0.0704	Open
P3580	J26_3	J26_4	145.00	300.0	130.0	0.1047	Open
P3581	J26_3	J27_3	145.00	250.0	135.0	0.1261	Open
P3582	J26_4	J26_5	145.00	250.0	135.0	0.1255	Open
P3583	J26_4	J27_4	145.00	100.0	125.0	0.0988	Open
P3584	J26_5	J26_6	145.00	150.0	140.0	0.1370	Open
P3585	J26_5	J27_5	145.00	200.0	135.0	0.1211	Open
P3586	J26_6	J26_7	145.00	100.0	140.0	0.1316	Open
P3587	J26_6	J27_6	145.00	100.0	130.0	0.1355	Open
P3588	J26_7	J26_8	145.00	200.0	130.0	0.0681	Open
P3589	J26_7	J27_7	145.00	100.0	125.0	0.1386	Open
P3590	J26_8	J26_9	145.00	300.0	140.0	0.0209	Open
P3591	J26_8	J27_8	145.00	150.0	135.0	0.0636	Open
P3592	J26_9	J26_10	145.00	100.0	135.0	0.1493	Open
P3593	J26_9	J27_9	145.00	200.0	125.0	0.0710	Open
P3594	J26_10	J26_11	145.00	150.0	125.0	0.0967	Open
P3595	J26_10	J27_10	145.00	100.0	125.0	0.0376	Open
P3596	J26_11	J26_12	145.00	600.0	125.0	0.0320	Open
P3597	J26_11	J27_11	145.00	500.0	120.0	0.0454	Open
P3598	J26_12	J26_13	145.00	200.0	130.0	0.0143	Open
P3599	J26_12	J27_12	145.00	250.0	140.0	0.1323	Open
P3600	J26_13	J26_14	145.00	100.0	130.0	0.1108	Open
P3601	J26_13	J27_13	145.00	100.0	135.0	0.0057	Open
P3602	J26_14	J26_15	145.00	200.0	135.0	0.0067	Open
P3603	J26_14	J27_14	145.00	300.0	125.0	0.1310	Open
P3604	J26_15	J26_16	145.00	250.0	135.0	0.0304	Open
P3605	J26_15	J27_15	145.00	300.0	135.0	0.0004	Open
P3606	J26_16	J26_17	145.00	150.0	135.0	0.0724	Open
P3607	J26_16	J27_16	145.00	300.0	135.0	0.0661	Open
P3608	J26_17	J26_18	145.00	200.0	140.0	0.1403	Open
P3609	J26_17	J27_17	145.00	300.0	140.0	0.0443	Open
P3610	J26_18	J26_19	145.00	250.0	125.0	0.0198	Open
P3611	J26_18	J27_18	145.00	250.0	135.0	0.0999	Open
P3612	J26_19	J26_20	145.00	200.0	140.0	0.0954	Open
P3613	J26_19	J27_19	145.00	150.0	125.0	0.0247	Open
P3614	J26_20	J26_21	145.00	150.0	140.0	0.0654	Open
P3615	J26_20	J27_20	145.00	150.0	135.0	0.1250	Open
P3616	J26_21	J26_22	145.00	500.0	130.0	0.0110	Open
P3617	J26_21	J27_21	145.00	350.0	130.0	0.0162	Open
P3618	J26_22	J26_23	145.00	200.0	130.0	0.0803	Open
P3619	J26_22	J27_22	145.00	250.0	140.0	0.0240	Open
P3620	J26_23	J26_24	145.00	200.0	130.0	0.0957	Open
P3621	J26_23	J27_23	145.00	300.0	125.0	0.1480	Open
P3622	J26_24	J26_25	145.00	150.0	140.0	0.0550	Open
P3623	J26_24	J27_24	145.00	300.0	130.0	0.0955	Open
P3624	J26_25	J26_26	145.00	250.0	135.0	0.0534	Open
P3625	J26_25	J27_25	145.00	300.0	130.0	0.1206	Open
P3626	J26_26	J26_27	145.00	200.0	140.0	0.1227	Open
P3627	J26_26	J27_26	145.00	100.0	130.0	0.1318	Open
P3628	J26_27	J26_28	145.00	300.0	140.0	0.0219	Open
P3629	J26_27	J27_27	145.00	250.0	140.0	0.0044	Open
P3630	J26_28	J26_29	145.00	250.0	135.0	0.0569	Open
P3631	J26_28	J27_28	145.00	100.0	130.0	0.0150	Open
P3632	J26_29	J26_30	145.00	250.0	130.0	0.1242	Open
P3633	J26_29	J27_29	145.00	250.0	135.0	0.1146	Open
P3634	J26_30	J26_31	145.00	250.0	130.0	0.0246	Open
P3635	J26_30	J27_30	145.00	200.0	140.0	0.1245	Open
P3636	J26_31	J26_32	145.00	350.0	125.0	0.0351	Open
P3637	J26_31	J27_31	145.00	500.0	120.0	0.0114	Open
P3638	J26_32	J26_33	145.00	100.0	125.0	0.0616	Open
P3639	J26_32	J27_32	145.00	250.0	130.0	0.1087	Open
P3640	J26_33	J26_34	145.00	300.0	140.0	0.1003	Open
P3641	J26_33	J27_33	145.00	100.0	135.0	0.0605	Open
P3642	J26_34	J26_35	145.00	300.0	135.0	0.0260	Open
P3643	J26_34	J27_34	145.00	250.0	125.0	0.1114	Open
P3644	J26_35	J26_36	145.00	200.0	135.0	0.0095	Open
P3645	J26_35	J27_35	145.00	150.0	135.0	0.0128	Open
P3646	J26_36	J26_37	145.00	150.0	130.0	0.0546	Open
P3647	J26_36	J27_36	145.00	200.0	140.0	0.0906	Open
P3648	J26_37	J26_38	145.00	150.0	140.0	0.1013	Open
P3649	J26_37	J27_37	145.00	250.0	135.0	0.0057	Open
P3650	J26_38	J26_39	145.00	300.0	130.0	0.0400	Open
P3651	J26_38	J27_38	145.00	300.0	125.0	0.0929	Open
P3652	J26_39	J26_40	145.00	300.0	125.0	0.1110	Open
P3653	J26_39	J27_39	145.00	250.0	125.0	0.0756	Open
P3654	J26_40	J26_41	145.00	300.0	140.0	0.1060	Open
P3655	J26_40	J27_40	145.00	300.0	130.0	0.0805	Open
P3656	J26_41	J26_42	145.00	600.0	125.0	0.0407	Open
P3657	J26_41	J27_41	145.00	300.0	125.0	0.0375	Open
P3658	J26_42	J26_43	145.00	150.0	130.0	0.1374	Open
P3659	J26_42	J27_42	145.00	250.0	125.0	0.0009	Open
P3660	J26_43	J26_44	145.00	150.0	135.0	0.0320	Open
P3661	J26_43	J27_43	145.00	250.0	130.0	0.1055	Open
P3662	J26_44	J26_45	145.00	200.0	125.0	0.0679	Open
P3663	J26_44	J27_44	145.00	300.0	125.0	0.0345	Open
P3664	J26_45	J26_46	145.00	200.0	135.0	0.0428	Open
P3665	J26_45	J27_45	145.00	150.0	135.0	0.0905	Open
P3666	J26_46	J26_47	145.00	300.0	140.0	0.0784	Open
P3667	J26_46	J27_46	145.00	100.0	125.0	0.1169	Open
P3668	J26_47	J26_48	145.00	300.0	130.0	0.1182	Open
P3669	J26_47	J27_47	145.00	300.0	140.0	0.0767	Open
P3670	J26_48	J26_49	145.00	250.0	135.0	0.1019	Open
P3671	J26_48	J27_48	145.00	150.0	125.0	0.0621	Open
P3672	J26_49	J26_50	145.00	200.0	125.0	0.0411	Open
P3673	J26_49	J27_49	145.00	300.0	135.0	0.0902	Open
P3674	J26_50	J26_51	145.00	150.0	130.0	0.1489	Open
P3675	J26_50	J27_50	145.00	150.0	130.0	0.1147	Open
P3676	J26_51	J26_52	145.00	400.0	125.0	0.0077	Open
P3677	J26_51	J27_51	145.00	350.0	120.0	0.0187	Open
P3678	J26_52	J26_53	145.00	200.0	140.0	0.1226	Open
P3679	J26_52	J27_52	145.00	200.0	130.0	0.0329	Open
P3680	J26_53	J26_54	145.00	150.0	140.0	0.0858	Open
P3681	J26_53	J27_53	145.00	300.0	140.0	0.1493	Open
P3682	J26_54	J26_55	145.00	200.0	135.0	0.0738	Open
P3683	J26_54	J27_54	145.00	200.0	130.0	0.0784	Open
P3684	J26_55	J26_56	145.00	250.0	125.0	0.0828	Open
P3685	J26_55	J27_55	145.00	100.0	125.0	0.0620	Open
P3686	J26_56	J26_57	145.00	150.0	130.0	0.0526	Open
P3687	J26_56	J27_56	145.00	100.0	135.0	0.0654	Open
P3688	J26_57	J26_58	145.00	100.0	140.0	0.0168	Open
P3689	J26_57	J27_57	145.00	100.0	135.0	0.0278	Open
P3690	J26_58	J26_59	145.00	150.0	125.0	0.0916	Open
P3691	J26_58	J27_58	145.00	250.0	130.0	0.1197	Open
P3692	J26_59	J26_60	145.00	150.0	135.0	0.1482	Open
P3693	J26_59	J27_59	145.00	250.0	140.0	0.1131	Open
P3694	J26_60	J26_61	145.00	150.0	135.0	0.0833	Open
P3695	J26_60	J27_60	145.00	300.0	125.0	0.1165	Open
P3696	J26_61	J26_62	145.00	350.0	125.0	0.0480	Open
P3697	J26_61	J27_61	145.00	350.0	130.0	0.0305	Open
P3698	J26_62	J26_63	145.00	200.0	140.0	0.0329	Open
P3699	J26_62	J27_62	145.00	100.0	130.0	0.0187	Open
P3700	J26_63	J26_64	145.00	250.0	130.0	0.0468	Open
P3701	J26_63	J27_63	145.00	250.0	135.0	0.0959	Open
P3702	J26_64	J26_65	145.00	200.0	135.0	0.0258	Open
P3703	J26_64	J27_64	145.00	300.0	125.0	0.0065	Open
P3704	J26_65	J26_66	145.00	200.0	125.0	0.1260	Open
P3705	J26_65	J27_65	145.00	100.0	130.0	0.1488	Open
P3706	J26_66	J26_67	145.00	250.0	135.0	0.0618	Open
P3707	J26_66	J27_66	145.00	200.0	140.0	0.0224	Open
P3708	J26_67	J26_68	145.00	250.0	125.0	0.0901	Open
P3709	J26_67	J27_67	145.00	300.0	140.0	0.0927	Open
P3710	J26_68	J26_69	145.00	200.0	140.0	0.1202	Open
P3711	J26_68	J27_68	145.00	150.0	135.0	0.0264	Open
P3712	J26_69	J26_70	145.00	150.0	140.0	0.0933	Open
P3713	J26_69	J27_69	145.00	200.0	135.0	0.1319	Open
P3714	J26_70	J26_71	145.00	250.0	130.0	0.0976	Open
P3715	J26_70	J27_70	145.00	250.0	140.0	0.0215	Open
P3716	J26_71	J26_72	145.00	300.0	120.0	0.0254	Open
P3717	J26_71	J27_71	145.00	300.0	125.0	0.0160	Open
P3718	J26_72	J27_72	145.00	100.0	130.0	0.0971	Open
P3719	J27_1	J27_2	145.00	350.0	125.0	0.0264	Open
P3720	J27_1	J28_1	145.00	350.0	125.0	0.0118	Open
P3721	J27_2	J27_3	145.00	200.0	140.0	0.0188	Open
P3722	J27_2	J28_2	145.00	300.0	125.0	0.0556	Open
P3723	J27_3	J27_4	145.00	250.0	130.0	0.0135	Open
P3724	J27_3	J28_3	145.00	150.0	130.0	0.0104	Open
P3725	J27_4	J27_5	145.00	150.0	125.0	0.0517	Open
P3726	J27_4	J28_4	145.00	150.0	125.0	0.0410	Open
P3727	J27_5	J27_6	145.00	250.0	125.0	0.0070	Open
P3728	J27_5	J28_5	145.00	150.0	125.0	0.0165	Open
P3729	J27_6	J27_7	145.00	100.0	130.0	0.0667	Open
P3730	J27_6	J28_6	145.00	150.0	130.0	0.0282	Open
P3731	J27_7	J27_8	145.00	250.0	130.0	0.1141	Open
P3732	J27_7	J28_7	145.00	250.0	125.0	0.1427	Open
P3733	J27_8	J27_9	145.00	250.0	135.0	0.0680	Open
P3734	J27_8	J28_8	145.00	100.0	135.0	0.0084	Open
P3735	J27_9	J27_10	145.00	300.0	140.0	0.0959	Open
P3736	J27_9	J28_9	145.00	100.0	125.0	0.0333	Open
P3737	J27_10	J27_11	145.00	300.0	135.0	0.1235	Open
P3738	J27_10	J28_10	145.00	150.0	125.0	0.1376	Open
P3739	J27_11	J27_12	145.00	500.0	125.0	0.0286	Open
P3740	J27_11	J28_11	145.00	350.0	125.0	0.0448	Open
P3741	J27_12	J27_13	145.00	100.0	125.0	0.0761	Open
P3742	J27_12	J28_12	145.00	300.0	135.0	0.1059	Open
P3743	J27_13	J27_14	145.00	250.0	140.0	0.1300	Open
P3744	J27_13	J28_13	145.00	300.0	140.0	0.0191	Open
P3745	J27_14	J27_15	145.00	150.0	135.0	0.1406	Open
P3746	J27_14	J28_14	145.00	250.0	130.0	0.0915	Open
P3747	J27_15	J27_16	145.00	150.0	125.0	0.1108	Open
P3748	J27_15	J28_15	145.00	200.0	125.0	0.1281	Open
P3749	J27_16	J27_17	145.00	150.0	125.0	0.0736	Open
P3750	J27_16	J28_16	145.00	100.0	125.0	0.1113	Open
P3751	J27_17	J27_18	145.00	300.0	135.0	0.1471	Open
P3752	J27_17	J28_17	145.00	200.0	135.0	0.1213	Open
P3753	J27_18	J27_19	145.00	200.0	140.0	0.1360	Open
P3754	J27_18	J28_18	145.00	250.0	125.0	0.1393	Open
P3755	J27_19	J27_20	145.00	200.0	125.0	0.1232	Open
P3756	J27_19	J28_19	145.00	200.0	135.0	0.0439	Open
P3757	J27_20	J27_21	145.00	150.0	140.0	0.0548	Open
P3758	J27_20	J28_20	145.00	200.0	125.0	0.0490	Open
P3759	J27_21	J27_22	145.00	300.0	125.0	0.0184	Open
P3760	J27_21	J28_21	145.00	450.0	130.0	0.0456	Open
P3761	J27_22	J27_23	145.00	200.0	140.0	0.0376	Open
P3762	J27_22	J28_22	145.00	250.0	135.0	0.1118	Open
P3763	J27_23	J27_24	145.00	100.0	140.0	0.1005	Open
P3764	J27_23	J28_23	145.00	250.0	135.0	0.0924	Open
P3765	J27_24	J27_25	145.00	200.0	135.0	0.0361	Open
P3766	J27_24	J28_24	145.00	150.0	125.0	0.0506	Open
P3767	J27_25	J27_26	145.00	150.0	135.0	0.0762	Open
P3768	J27_25	J28_25	145.00	200.0	140.0	0.0528	Open
P3769	J27_26	J27_27	145.00	300.0	130.0	0.1397	Open
P3770	J27_26	J28_26	145.00	150.0	135.0	0.0840	Open
P3771	J27_27	J27_28	145.00	250.0	125.0	0.0047	Open
P3772	J27_27	J28_27	145.00	250.0	140.0	0.1278	Open
P3773	J27_28	J27_29	145.00	250.0	130.0	0.1081	Open
P3774	J27_28	J28_28	145.00	300.0	135.0	0.1452	Open
P3775	J27_29	J27_30	145.00	250.0	130.0	0.0686	Open
P3776	J27_29	J28_29	145.00	150.0	125.0	0.1348	Open
P3777	J27_30	J27_31	145.00	100.0	130.0	0.0766	Open
P3778	J27_30	J28_30	145.00	300.0	125.0	0.0865	Open
P3779	J27_31	J27_32	145.00	500.0	120.0	0.0248	Open
P3780	J27_31	J28_31	145.00	350.0	125.0	0.0498	Open
P3781	J27_32	J27_33	145.00	200.0	140.0	0.0027	Open
P3782	J27_32	J28_32	145.00	150.0	130.0	0.1396	Open
P3783	J27_33	J27_34	145.00	300.0	135.0	0.0845	Open
P3784	J27_33	J28_33	145.00	100.0	130.0	0.1391	Open
P3785	J27_34	J27_35	145.00	150.0	135.0	0.0704	Open
P3786	J27_34	J28_34	145.00	100.0	130.0	0.1089	Open
P3787	J27_35	J27_36	145.00	150.0	140.0	0.0318	Open
P3788	J27_35	J28_35	145.00	250.0	130.0	0.0866	Open
P3789	J27_36	J27_37	145.00	150.0	140.0	0.0518	Open
P3790	J27_36	J28_36	145.00	200.0	140.0	0.0584	Open
P3791	J27_37	J27_38	145.00	150.0	130.0	0.1476	Open
P3792	J27_37	J28_37	145.00	200.0	135.0	0.0426	Open
P3793	J27_38	J27_39	145.00	200.0	140.0	0.0719	Open
P3794	J27_38	J28_38	145.00	150.0	130.0	0.1207	Open
P3795	J27_39	J27_40	145.00	150.0	135.0	0.0053	Open
P3796	J27_39	J28_39	145.00	150.0	130.0	0.0992	Open
P3797	J27_40	J27_41	145.00	200.0	125.0	0.1423	Open
P3798	J27_40	J28_40	145.00	250.0	140.0	0.1109	Open
P3799	J27_41	J27_42	145.00	350.0	125.0	0.0417	Open
P3800	J27_41	J28_41	145.00	500.0	125.0	0.0102	Open
P3801	J27_42	J27_43	145.00	100.0	130.0	0.0673	Open
P3802	J27_42	J28_42	145.00	150.0	140.0	0.1174	Open
P3803	J27_43	J27_44	145.00	250.0	130.0	0.0162	Open
P3804	J27_43	J28_43	145.00	250.0	130.0	0.0976	Open
P3805	J27_44	J27_45	145.00	300.0	140.0	0.0083	Open
P3806	J27_44	J28_44	145.00	100.0	125.0	0.0898	Open
P3807	J27_45	J27_46	145.00	300.0	125.0	0.1475	Open
P3808	J27_45	J28_45	145.00	300.0	140.0	0.1270	Open
P3809	J27_46	J27_47	145.00	300.0	140.0	0.0944	Open
P3810	J27_46	J28_46	145.00	250.0	140.0	0.1216	Open
P3811	J27_47	J27_48	145.00	100.0	130.0	0.1262	Open
P3812	J27_47	J28_47	145.00	300.0	130.0	0.0768	Open
P3813	J27_48	J27_49	145.00	250.0	130.0	0.0360	Open
P3814	J27_48	J28_48	145.00	150.0	140.0	0.1127	Open
P3815	J27_49	J27_50	145.00	300.0	135.0	0.0189	Open
P3816	J27_49	J28_49	145.00	200.0	140.0	0.0702	Open
P3817	J27_50	J27_51	145.00	250.0	125.0	0.1441	Open
P3818	J27_50	J28_50	145.00	200.0	140.0	0.0073	Open
P3819	J27_51	J27_52	145.00	500.0	125.0	0.0469	Open
P3820	J27_51	J28_51	145.00	500.0	125.0	0.0086	Open
P3821	J27_52	J27_53	145.00	250.0	135.0	0.0774	Open
P3822	J27_52	J28_52	145.00	300.0	140.0	0.1335	Open
P3823	J27_53	J27_54	145.00	100.0	130.0	0.0417	Open
P3824	J27_53	J28_53	145.00	200.0	130.0	0.0102	Open
P3825	J27_54	J27_55	145.00	250.0	130.0	0.1276	Open
P3826	J27_54	J28_54	145.00	250.0	140.0	0.0152	Open
P3827	J27_55	J27_56	145.00	150.0	125.0	0.0893	Open
P3828	J27_55	J28_55	145.00	300.0	125.0	0.0580	Open
P3829	J27_56	J27_57	145.00	300.0	140.0	0.0432	Open
P3830	J27_56	J28_56	145.00	300.0	140.0	0.0644	Open
P3831	J27_57	J27_58	145.00	250.0	125.0	0.0986	Open
P3832	J27_57	J28_57	145.00	200.0	140.0	0.1367	Open
P3833	J27_58	J27_59	145.00	150.0	140.0	0.0283	Open
P3834	J27_58	J28_58	145.00	200.0	140.0	0.0760	Open
P3835	J27_59	J27_60	145.00	150.0	125.0	0.0789	Open
P3836	J27_59	J28_59	145.00	300.0	140.0	0.0724	Open
P3837	J27_60	J27_61	145.00	200.0	140.0	0.1318	Open
P3838	J27_60	J28_60	145.00	150.0	130.0	0.1277	Open
P3839	J27_61	J27_62	145.00	350.0	130.0	0.0223	Open
P3840	J27_61	J28_61	145.00	600.0	130.0	0.0074	Open
P3841	J27_62	J27_63	145.00	150.0	125.0	0.0815	Open
P3842	J27_62	J28_62	145.00	300.0	135.0	0.1301	Open
P3843	J27_63	J27_64	145.00	250.0	125.0	0.0152	Open
P3844	J27_63	J28_63	145.00	150.0	135.0	0.1000	Open
P3845	J27_64	J27_65	145.00	300.0	130.0	0.0392	Open
P3846	J27_64	J28_64	145.00	150.0	130.0	0.1010	Open
P3847	J27_65	J27_66	145.00	300.0	125.0	0.0049	Open
P3848	J27_65	J28_65	145.00	100.0	140.0	0.1217	Open
P3849	J27_66	J27_67	145.00	150.0	140.0	0.0754	Open
P3850	J27_66	J28_66	145.00	200.0	135.0	0.0894	Open
P3851	J27_67	J27_68	145.00	200.0	125.0	0.0954	Open
P3852	J27_67	J28_67	145.00	300.0	125.0	0.1218	Open
P3853	J27_68	J27_69	145.00	300.0	135.0	0.1201	Open
P3854	J27_68	J28_68	145.00	200.0	125.0	0.1272	Open
P3855	J27_69	J27_70	145.00	200.0	135.0	0.0089	Open
P3856	J27_69	J28_69	145.00	250.0	125.0	0.0884	Open
P3857	J27_70	J27_71	145.00	200.0	135.0	0.0596	Open
P3858	J27_70	J28_70	145.00	300.0	140.0	0.0318	Open
P3859	J27_71	J27_72	145.00	400.0	130.0	0.0189	Open
P3860	J27_71	J28_71	145.00	600.0	130.0	0.0417	Open
P3861	J27_72	J28_72	145.00	250.0	125.0	0.1233	Open
P3862	J28_1	J28_2	145.00	400.0	120.0	0.0084	Open
P3863	J28_1	J29_1	145.00	600.0	125.0	0.0385	Open
P3864	J28_2	J28_3	145.00	300.0	140.0	0.1212	Open
P3865	J28_2	J29_2	145.00	150.0	125.0	0.0867	Open
P3866	J28_3	J28_4	145.00	250.0	125.0	0.0324	Open
P3867	J28_3	J29_3	145.00	200.0	135.0	0.1400	Open
P3868	J28_4	J28_5	145.00	300.0	135.0	0.0038	Open
P3869	J28_4	J29_4	145.00	200.0	135.0	0.1008	Open
P3870	J28_5	J28_6	145.00	250.0	130.0	0.0951	Open
P3871	J28_5	J29_5	145.00	200.0	140.0	0.0377	Open
P3872	J28_6	J28_7	145.00	100.0	140.0	0.0124	Open
P3873	J28_6	J29_6	145.00	300.0	140.0	0.0365	Open
P3874	J28_7	J28_8	145.00	250.0	130.0	0.0733	Open
P3875	J28_7	J29_7	145.00	300.0	125.0	0.1038	Open
P3876	J28_8	J28_9	145.00	150.0	125.0	0.1055	Open
P3877	J28_8	J29_8	145.00	100.0	140.0	0.0255	Open
P3878	J28_9	J28_10	145.00	300.0	135.0	0.1412	Open
P3879	J28_9	J29_9	145.00	100.0	140.0	0.0864	Open
P3880	J28_10	J28_11	145.00	200.0	125.0	0.0239	Open
P3881	J28_10	J29_10	145.00	100.0	140.0	0.0414	Open
P3882	J28_11	J28_12	145.00	500.0	120.0	0.0239	Open
P3883	J28_11	J29_11	145.00	500.0	120.0	0.0195	Open
P3884	J28_12	J28_13	145.00	300.0	140.0	0.0920	Open
P3885	J28_12	J29_12	145.00	300.0	130.0	0.1341	Open
P3886	J28_13	J28_14	145.00	300.0	140.0	0.1420	Open
P3887	J28_13	J29_13	145.00	100.0	130.0	0.0728	Open
P3888	J28_14	J28_15	145.00	100.0	125.0	0.0791	Open
P3889	J28_14	J29_14	145.00	250.0	125.0	0.1132	Open
P3890	J28_15	J28_16	145.00	250.0	125.0	0.1139	Open
P3891	J28_15	J29_15	145.00	200.0	125.0	0.0863	Open
P3892	J28_16	J28_17	145.00	150.0	135.0	0.0056	Open
P3893	J28_16	J29_16	145.00	100.0	135.0	0.1202	Open
P3894	J28_17	J28_18	145.00	150.0	130.0	0.0774	Open
P3895	J28_17	J29_17	145.00	200.0	130.0	0.1038	Open
P3896	J28_18	J28_19	145.00	100.0	135.0	0.0749	Open
P3897	J28_18	J29_18	145.00	150.0	135.0	0.1213	Open
P3898	J28_19	J28_20	145.00	300.0	125.0	0.0521	Open
P3899	J28_19	J29_19	145.00	250.0	130.0	0.0055	Open
P3900	J28_20	J28_21	145.00	200.0	125.0	0.1027	Open
P3901	J28_20	J29_20	145.00	200.0	125.0	0.0484	Open
P3902	J28_21	J28_22	145.00	300.0	125.0	0.0023	Open
P3903	J28_21	J29_21	145.00	400.0	120.0	0.0216	Open
P3904	J28_22	J28_23	145.00	150.0	125.0	0.0392	Open
P3905	J28_22	J29_22	145.00	300.0	140.0	0.0958	Open
P3906	J28_23	J28_24	145.00	100.0	140.0	0.1400	Open
P3907	J28_23	J29_23	145.00	200.0	135.0	0.0613	Open
P3908	J28_24	J28_25	145.00	200.0	130.0	0.1278	Open
P3909	J28_24	J29_24	145.00	100.0	135.0	0.0206	Open
P3910	J28_25	J28_26	145.00	100.0	135.0	0.0805	Open
P3911	J28_25	J29_25	145.00	200.0	140.0	0.1082	Open
P3912	J28_26	J28_27	145.00	150.0	130.0	0.0210	Open
P3913	J28_26	J29_26	145.00	300.0	135.0	0.1307	Open
P3914	J28_27	J28_28	145.00	300.0	125.0	0.0299	Open
P3915	J28_27	J29_27	145.00	250.0	140.0	0.0804	Open
P3916	J28_28	J28_29	145.00	200.0	135.0	0.1035	Open
P3917	J28_28	J29_28	145.00	250.0	135.0	0.0345	Open
P3918	J28_29	J28_30	145.00	300.0	140.0	0.1460	Open
P3919	J28_29	J29_29	145.00	150.0	140.0	0.0129	Open
P3920	J28_30	J28_31	145.00	100.0	125.0	0.0026	Open
P3921	J28_30	J29_30	145.00	250.0	130.0	0.0040	Open
P3922	J28_31	J28_32	145.00	300.0	125.0	0.0201	Open
P3923	J28_31	J29_31	145.00	300.0	125.0	0.0357	Open
P3924	J28_32	J28_33	145.00	300.0	125.0	0.0374	Open
P3925	J28_32	J29_32	145.00	250.0	135.0	0.0506	Open
P3926	J28_33	J28_34	145.00	200.0	140.0	0.0966	Open
P3927	J28_33	J29_33	145.00	150.0	130.0	0.0679	Open
P3928	J28_34	J28_35	145.00	300.0	140.0	0.0260	Open
P3929	J28_34	J29_34	145.00	300.0	135.0	0.0639	Open
P3930	J28_35	J28_36	145.00	300.0	135.0	0.0089	Open
P3931	J28_35	J29_35	145.00	250.0	125.0	0.0316	Open
P3932	J28_36	J28_37	145.00	300.0	130.0	0.0066	Open
P3933	J28_36	J29_36	145.00	250.0	135.0	0.1499	Open
P3934	J28_37	J28_38	145.00	200.0	130.0	0.1022	Open
P3935	J28_37	J29_37	145.00	100.0	125.0	0.0598	Open
P3936	J28_38	J28_39	145.00	250.0	130.0	0.0276	Open
P3937	J28_38	J29_38	145.00	150.0	125.0	0.0461	Open
P3938	J28_39	J28_40	145.00	250.0	130.0	0.1112	Open
P3939	J28_39	J29_39	145.00	100.0	130.0	0.1041	Open
P3940	J28_40	J28_41	145.00	250.0	135.0	0.0122	Open
P3941	J28_40	J29_40	145.00	300.0	125.0	0.0191	Open
P3942	J28_41	J28_42	145.00	600.0	125.0	0.0310	Open
P3943	J28_41	J29_41	145.00	450.0	125.0	0.0063	Open
P3944	J28_42	J28_43	145.00	250.0	130.0	0.0053	Open
P3945	J28_42	J29_42	145.00	150.0	125.0	0.0476	Open
P3946	J28_43	J28_44	145.00	100.0	130.0	0.0804	Open
P3947	J28_43	J29_43	145.00	200.0	140.0	0.0465	Open
P3948	J28_44	J28_45	145.00	150.0	125.0	0.1346	Open
P3949	J28_44	J29_44	145.00	100.0	125.0	0.0856	Open
P3950	J28_45	J28_46	145.00	250.0	140.0	0.1430	Open
P3951	J28_45	J29_45	145.00	200.0	140.0	0.0494	Open
P3952	J28_46	J28_47	145.00	250.0	130.0	0.0938	Open
P3953	J28_46	J29_46	145.00	250.0	125.0	0.1068	Open
P3954	J28_47	J28_48	145.00	100.0	125.0	0.0792	Open
P3955	J28_47	J29_47	145.00	150.0	125.0	0.0736	Open
P3956	J28_48	J28_49	145.00	300.0	125.0	0.1119	Open
P3957	J28_48	J29_48	145.00	100.0	125.0	0.1418	Open
P3958	J28_49	J28_50	145.00	100.0	140.0	0.1190	Open
P3959	J28_49	J29_49	145.00	150.0	135.0	0.0774	Open
P3960	J28_50	J28_51	145.00	100.0	135.0	0.0899	Open
P3961	J28_50	J29_50	145.00	150.0	130.0	0.0689	Open
P3962	J28_51	J28_52	145.00	400.0	120.0	0.0203	Open
P3963	J28_51	J29_51	145.00	300.0	120.0	0.0297	Open
P3964	J28_52	J28_53	145.00	200.0	125.0	0.0423	Open
P3965	J28_52	J29_52	145.00	250.0	125.0	0.0557	Open
P3966	J28_53	J28_54	145.00	150.0	130.0	0.0037	Open
P3967	J28_53	J29_53	145.00	100.0	135.0	0.1452	Open
P3968	J28_54	J28_55	145.00	200.0	125.0	0.0494	Open
P3969	J28_54	J29_54	145.00	100.0	140.0	0.0251	Open
P3970	J28_55	J28_56	145.00	200.0	125.0	0.0471	Open
P3971	J28_55	J29_55	145.00	250.0	135.0	0.0289	Open
P3972	J28_56	J28_57	145.00	250.0	140.0	0.0222	Open
P3973	J28_56	J29_56	145.00	250.0	140.0	0.0345	Open
P3974	J28_57	J28_58	145.00	300.0	125.0	0.0348	Open
P3975	J28_57	J29_57	145.00	100.0	135.0	0.1268	Open
P3976	J28_58	J28_59	145.00	300.0	130.0	0.0026	Open
P3977	J28_58	J29_58	145.00	200.0	125.0	0.1456	Open
P3978	J28_59	J28_60	145.00	200.0	125.0	0.0924	Open
P3979	J28_59	J29_59	145.00	150.0	135.0	0.0141	Open
P3980	J28_60	J28_61	145.00	250.0	125.0	0.0928	Open
P3981	J28_60	J29_60	145.00	150.0	140.0	0.0252	Open
P3982	J28_61	J28_62	145.00	300.0	130.0	0.0156	Open
P3983	J28_61	J29_61	145.00	400.0	125.0	0.0413	Open
P3984	J28_62	J28_63	145.00	150.0	140.0	0.0090	Open
P3985	J28_62	J29_62	145.00	300.0	130.0	0.0055	Open
P3986	J28_63	J28_64	145.00	300.0	130.0	0.0135	Open
P3987	J28_63	J29_63	145.00	300.0	135.0	0.1191	Open
P3988	J28_64	J28_65	145.00	200.0	135.0	0.0830	Open
P3989	J28_64	J29_64	145.00	100.0	135.0	0.0206	Open
P3990	J28_65	J28_66	145.00	250.0	125.0	0.1485	Open
P3991	J28_65	J29_65	145.00	100.0	130.0	0.0120	Open
P3992	J28_66	J28_67	145.00	100.0	130.0	0.0554	Open
P3993	J28_66	J29_66	145.00	250.0	125.0	0.0426	Open
P3994	J28_67	J28_68	145.00	250.0	140.0	0.0633	Open
P3995	J28_67	J29_67	145.00	250.0	135.0	0.0272	Open
P3996	J28_68	J28_69	145.00	100.0	135.0	0.0725	Open
P3997	J28_68	J29_68	145.00	100.0	135.0	0.0417	Open
P3998	J28_69	J28_70	145.00	200.0	140.0	0.1197	Open
P3999	J28_69	J29_69	145.00	300.0	135.0	0.0113	Open
P4000	J28_70	J28_71	145.00	200.0	125.0	0.0824	Open
P4001	J28_70	J29_70	145.00	200.0	135.0	0.0573	Open
P4002	J28_71	J28_72	145.00	350.0	120.0	0.0185	Open
P4003	J28_71	J29_71	145.00	400.0	125.0	0.0481	Open
P4004	J28_72	J29_72	145.00	250.0	130.0	0.0086	Open
P4005	J29_1	J29_2	145.00	400.0	125.0	0.0378	Open
P4006	J29_1	J30_1	145.00	350.0	125.0	0.0438	Open
P4007	J29_2	J29_3	145.00	150.0	135.0	0.1467	Open
P4008	J29_2	J30_2	145.00	100.0	130.0	0.0256	Open
P4009	J29_3	J29_4	145.00	300.0	140.0	0.0260	Open
P4010	J29_3	J30_3	145.00	250.0	140.0	0.0388	Open
P4011	J29_4	J29_5	145.00	150.0	135.0	0.1373	Open
P4012	J29_4	J30_4	145.00	100.0	130.0	0.0169	Open
P4013	J29_5	J29_6	145.00	150.0	140.0	0.1037	Open
P4014	J29_5	J30_5	145.00	200.0	135.0	0.0330	Open
P4015	J29_6	J29_7	145.00	150.0	140.0	0.0815	Open
P4016	J29_6	J30_6	145.00	100.0	135.0	0.0079	Open
P4017	J29_7	J29_8	145.00	300.0	130.0	0.1225	Open
P4018	J29_7	J30_7	145.00	250.0	125.0	0.0565	Open
P4019	J29_8	J29_9	145.00	100.0	135.0	0.0998	Open
P4020	J29_8	J30_8	145.00	150.0	125.0	0.0107	Open
P4021	J29_9	J29_10	145.00	300.0	125.0	0.0166	Open
P4022	J29_9	J30_9	145.00	200.0	125.0	0.1095	Open
P4023	J29_10	J29_11	145.00	300.0	130.0	0.1010	Open
P4024	J29_10	J30_10	145.00	250.0	125.0	0.0846	Open
P4025	J29_11	J29_12	145.00	400.0	120.0	0.0394	Open
P4026	J29_11	J30_11	145.00	600.0	120.0	0.0408	Open
P4027	J29_12	J29_13	145.00	150.0	125.0	0.1264	Open
P4028	J29_12	J30_12	145.00	200.0	130.0	0.0567	Open
P4029	J29_13	J29_14	145.00	150.0	135.0	0.0622	Open
P4030	J29_13	J30_13	145.00	300.0	130.0	0.1368	Open
P4031	J29_14	J29_15	145.00	250.0	130.0	0.0592	Open
P4032	J29_14	J30_14	145.00	200.0	130.0	0.0735	Open
P4033	J29_15	J29_16	145.00	200.0	125.0	0.1374	Open
P4034	J29_15	J30_15	145.00	250.0	130.0	0.0559	Open
P4035	J29_16	J29_17	145.00	200.0	125.0	0.0439	Open
P4036	J29_16	J30_16	145.00	100.0	125.0	0.0410	Open
P4037	J29_17	J29_18	145.00	100.0	140.0	0.0944	Open
P4038	J29_17	J30_17	145.00	250.0	135.0	0.1377	Open
P4039	J29_18	J29_19	145.00	100.0	135.0	0.0041	Open
P4040	J29_18	J30_18	145.00	250.0	130.0	0.1099	Open
P4041	J29_19	J29_20	145.00	200.0	130.0	0.1013	Open
P4042	J29_19	J30_19	145.00	100.0	140.0	0.0747	Open
P4043	J29_20	J29_21	145.00	100.0	135.0	0.0163	Open
P4044	J29_20	J30_20	145.00	200.0	135.0	0.0042	Open
P4045	J29_21	J29_22	145.00	400.0	120.0	0.0486	Open
P4046	J29_21	J30_21	145.00	300.0	130.0	0.0343	Open
P4047	J29_22	J29_23	145.00	200.0	130.0	0.0157	Open
P4048	J29_22	J30_22	145.00	250.0	140.0	0.0725	Open
P4049	J29_23	J29_24	145.00	300.0	125.0	0.0831	Open
P4050	J29_23	J30_23	145.00	100.0	130.0	0.0077	Open
P4051	J29_24	J29_25	145.00	200.0	140.0	0.0444	Open
P4052	J29_24	J30_24	145.00	250.0	125.0	0.1398	Open
P4053	J29_25	J29_26	145.00	150.0	135.0	0.1028	Open
P4054	J29_25	J30_25	145.00	200.0	125.0	0.0129	Open
P4055	J29_26	J29_27	145.00	200.0	125.0	0.1110	Open
P4056	J29_26	J30_26	145.00	200.0	140.0	0.1033	Open
P4057	J29_27	J29_28	145.00	150.0	125.0	0.0187	Open
P4058	J29_27	J30_27	145.00	150.0	135.0	0.0183	Open
P4059	J29_28	J29_29	145.00	300.0	125.0	0.1247	Open
P4060	J29_28	J30_28	145.00	200.0	135.0	0.0278	Open
P4061	J29_29	J29_30	145.00	150.0	140.0	0.0432	Open
P4062	J29_29	J30_29	145.00	300.0	125.0	0.0083	Open
P4063	J29_30	J29_31	145.00	100.0	125.0	0.0145	Open
P4064	J29_30	J30_30	145.00	200.0	130.0	0.1210	Open
P4065	J29_31	J29_32	145.00	500.0	120.0	0.0196	Open
P4066	J29_31	J30_31	145.00	450.0	125.0	0.0089	Open
P4067	J29_32	J29_33	145.00	150.0	130.0	0.0272	Open
P4068	J29_32	J30_32	145.00	100.0	125.0	0.0772	Open
P4069	J29_33	J29_34	145.00	250.0	140.0	0.1063	Open
P4070	J29_33	J30_33	145.00	200.0	140.0	0.0024	Open
P4071	J29_34	J29_35	145.00	150.0	135.0	0.0519	Open
P4072	J29_34	J30_34	145.00	100.0	130.0	0.0037	Open
P4073	J29_35	J29_36	145.00	250.0	125.0	0.0614	Open
P4074	J29_35	J30_35	145.00	200.0	125.0	0.0700	Open
P4075	J29_36	J29_37	145.00	250.0	130.0	0.0715	Open
P4076	J29_36	J30_36	145.00	250.0	125.0	0.0620	Open
P4077	J29_37	J29_38	145.00	250.0	125.0	0.1299	Open
P4078	J29_37	J30_37	145.00	300.0	130.0	0.1095	Open
P4079	J29_38	J29_39	145.00	300.0	125.0	0.0379	Open
P4080	J29_38	J30_38	145.00	300.0	125.0	0.0419	Open
P4081	J29_39	J29_40	145.00	200.0	125.0	0.0495	Open
P4082	J29_39	J30_39	145.00	300.0	140.0	0.1175	Open
P4083	J29_40	J29_41	145.00	150.0	140.0	0.0509	Open
P4084	J29_40	J30_40	145.00	150.0	140.0	0.1442	Open
P4085	J29_41	J29_42	145.00	500.0	125.0	0.0311	Open
P4086	J29_41	J30_41	145.00	400.0	130.0	0.0301	Open
P4087	J29_42	J29_43	145.00	100.0	125.0	0.0481	Open
P4088	J29_42	J30_42	145.00	100.0	125.0	0.0192	Open
P4089	J29_43	J29_44	145.00	250.0	125.0	0.0522	Open
P4090	J29_43	J30_43	145.00	300.0	135.0	0.0131	Open
P4091	J29_44	J29_45	145.00	150.0	135.0	0.1234	Open
P4092	J29_44	J30_44	145.00	250.0	130.0	0.1424	Open
P4093	J29_45	J29_46	145.00	150.0	130.0	0.1329	Open
P4094	J29_45	J30_45	145.00	250.0	135.0	0.1115	Open
P4095	J29_46	J29_47	145.00	250.0	130.0	0.0832	Open
P4096	J29_46	J30_46	145.00	250.0	130.0	0.0883	Open
P4097	J29_47	J29_48	145.00	100.0	130.0	0.1103	Open
P4098	J29_47	J30_47	145.00	250.0	140.0	0.0918	Open
P4099	J29_48	J29_49	145.00	100.0	125.0	0.0229	Open
P4100	J29_48	J30_48	145.00	200.0	135.0	0.0791	Open
P4101	J29_49	J29_50	145.00	300.0	130.0	0.0477	Open
P4102	J29_49	J30_49	145.00	200.0	140.0	0.0918	Open
P4103	J29_50	J29_51	145.00	250.0	140.0	0.1119	Open
P4104	J29_50	J30_50	145.00	100.0	140.0	0.1249	Open
P4105	J29_51	J29_52	145.00	450.0	120.0	0.0029	Open
P4106	J29_51	J30_51	145.00	500.0	120.0	0.0444	Open
P4107	J29_52	J29_53	145.00	300.0	125.0	0.0803	Open
P4108	J29_52	J30_52	145.00	300.0	135.0	0.0781	Open
P4109	J29_53	J29_54	145.00	150.0	125.0	0.0250	Open
P4110	J29_53	J30_53	145.00	150.0	125.0	0.1093	Open
P4111	J29_54	J29_55	145.00	100.0	135.0	0.0418	Open
P4112	J29_54	J30_54	145.00	250.0	125.0	0.1416	Open
P4113	J29_55	J29_56	145.00	300.0	140.0	0.0880	Open
P4114	J29_55	J30_55	145.00	300.0	140.0	0.0712	Open
P4115	J29_56	J29_57	145.00	300.0	125.0	0.0162	Open
P4116	J29_56	J30_56	145.00	150.0	125.0	0.0059	Open
P4117	J29_57	J29_58	145.00	100.0	135.0	0.0726	Open
P4118	J29_57	J30_57	145.00	250.0	125.0	0.0173	Open
P4119	J29_58	J29_59	145.00	300.0	140.0	0.1217	Open
P4120	J29_58	J30_58	145.00	100.0	130.0	0.1398	Open
P4121	J29_59	J29_60	145.00	300.0	140.0	0.0439	Open
P4122	J29_59	J30_59	145.00	200.0	135.0	0.0680	Open
P4123	J29_60	J29_61	145.00	200.0	135.0	0.0738	Open
P4124	J29_60	J30_60	145.00	150.0	135.0	0.0769	Open
P4125	J29_61	J29_62	145.00	450.0	120.0	0.0289	Open
P4126	J29_61	J30_61	145.00	400.0	125.0	0.0115	Open
P4127	J29_62	J29_63	145.00	150.0	135.0	0.0165	Open
P4128	J29_62	J30_62	145.00	250.0	125.0	0.1132	Open
P4129	J29_63	J29_64	145.00	150.0	130.0	0.1172	Open
P4130	J29_63	J30_63	145.00	150.0	140.0	0.1013	Open
P4131	J29_64	J29_65	145.00	250.0	125.0	0.0702	Open
P4132	J29_64	J30_64	145.00	300.0	125.0	0.1379	Open
P4133	J29_65	J29_66	145.00	100.0	135.0	0.0746	Open
P4134	J29_65	J30_65	145.00	100.0	140.0	0.1347	Open
P4135	J29_66	J29_67	145.00	100.0	140.0	0.1149	Open
P4136	J29_66	J30_66	145.00	150.0	140.0	0.0908	Open
P4137	J29_67	J29_68	145.00	200.0	125.0	0.1487	Open
P4138	J29_67	J30_67	145.00	150.0	125.0	0.0129	Open
P4139	J29_68	J29_69	145.00	150.0	140.0	0.0834	Open
P4140	J29_68	J30_68	145.00	250.0	130.0	0.1332	Open
P4141	J29_69	J29_70	145.00	300.0	125.0	0.0768	Open
P4142	J29_69	J30_69	145.00	150.0	140.0	0.0799	Open
P4143	J29_70	J29_71	145.00	200.0	130.0	0.1187	Open
P4144	J29_70	J30_70	145.00	150.0	125.0	0.1308	Open
P4145	J29_71	J29_72	145.00	300.0	130.0	0.0136	Open
P4146	J29_71	J30_71	145.00	600.0	125.0	0.0194	Open
P4147	J29_72	J30_72	145.00	150.0	130.0	0.0891	Open
P4148	J30_1	J30_2	145.00	600.0	120.0	0.0068	Open
P4149	J30_1	J31_1	145.00	300.0	125.0	0.0346	Open
P4150	J30_2	J30_3	145.00	100.0	125.0	0.0218	Open
P4151	J30_2	J31_2	145.00	100.0	140.0	0.1152	Open
P4152	J30_3	J30_4	145.00	150.0	135.0	0.1114	Open
P4153	J30_3	J31_3	145.00	100.0	140.0	0.0374	Open
P4154	J30_4	J30_5	145.00	200.0	125.0	0.0709	Open
P4155	J30_4	J31_4	145.00	150.0	135.0	0.0991	Open
P4156	J30_5	J30_6	145.00	300.0	125.0	0.1121	Open
P4157	J30_5	J31_5	145.00	100.0	125.0	0.0265	Open
P4158	J30_6	J30_7	145.00	200.0	140.0	0.0890	Open
P4159	J30_6	J31_6	145.00	300.0	135.0	0.1042	Open
P4160	J30_7	J30_8	145.00	150.0	130.0	0.0618	Open
P4161	J30_7	J31_7	145.00	250.0	125.0	0.0494	Open
P4162	J30_8	J30_9	145.00	100.0	125.0	0.1164	Open
P4163	J30_8	J31_8	145.00	200.0	130.0	0.0250	Open
P4164	J30_9	J30_10	145.00	150.0	125.0	0.0422	Open
P4165	J30_9	J31_9	145.00	250.0	130.0	0.0357	Open
P4166	J30_10	J30_11	145.00	250.0	140.0	0.0787	Open
P4167	J30_10	J31_10	145.00	100.0	130.0	0.0397	Open
P4168	J30_11	J30_12	145.00	450.0	130.0	0.0354	Open
P4169	J30_11	J31_11	145.00	350.0	125.0	0.0033	Open
P4170	J30_12	J30_13	145.00	300.0	135.0	0.0734	Open
P4171	J30_12	J31_12	145.00	250.0	130.0	0.1327	Open
P4172	J30_13	J30_14	145.00	250.0	125.0	0.1002	Open
P4173	J30_13	J31_13	145.00	200.0	140.0	0.1153	Open
P4174	J30_14	J30_15	145.00	100.0	140.0	0.0819	Open
P4175	J30_14	J31_14	145.00	150.0	130.0	0.0848	Open
P4176	J30_15	J30_16	145.00	250.0	140.0	0.1315	Open
P4177	J30_15	J31_15	145.00	150.0	140.0	0.0365	Open
P4178	J30_16	J30_17	145.00	150.0	125.0	0.0304	Open
P4179	J30_16	J31_16	145.00	150.0	140.0	0.1290	Open
P4180	J30_17	J30_18	145.00	200.0	125.0	0.0619	Open
P4181	J30_17	J31_17	145.00	200.0	130.0	0.0923	Open
P4182	J30_18	J30_19	145.00	200.0	135.0	0.1355	Open
P4183	J30_18	J31_18	145.00	300.0	140.0	0.1417	Open
P4184	J30_19	J30_20	145.00	300.0	135.0	0.0163	Open
P4185	J30_19	J31_19	145.00	100.0	130.0	0.1337	Open
P4186	J30_20	J30_21	145.00	150.0	135.0	0.1182	Open
P4187	J30_20	J31_20	145.00	250.0	135.0	0.0149	Open
P4188	J30_21	J30_22	145.00	600.0	130.0	0.0408	Open
P4189	J30_21	J31_21	145.00	450.0	130.0	0.0314	Open
P4190	J30_22	J30_23	145.00	200.0	135.0	0.1054	Open
P4191	J30_22	J31_22	145.00	250.0	125.0	0.0959	Open
P4192	J30_23	J30_24	145.00	300.0	140.0	0.0223	Open
P4193	J30_23	J31_23	145.00	150.0	130.0	0.0152	Open
P4194	J30_24	J30_25	145.00	150.0	125.0	0.0860	Open
P4195	J30_24	J31_24	145.00	150.0	135.0	0.0427	Open
P4196	J30_25	J30_26	145.00	150.0	125.0	0.0380	Open
P4197	J30_25	J31_25	145.00	250.0	140.0	0.1331	Open
P4198	J30_26	J30_27	145.00	300.0	135.0	0.1439	Open
P4199	J30_26	J31_26	145.00	150.0	130.0	0.1019	Open
P4200	J30_27	J30_28	145.00	100.0	130.0	0.0316	Open
P4201	J30_27	J31_27	145.00	200.0	140.0	0.0758	Open
P4202	J30_28	J30_29	145.00	300.0	135.0	0.0201	Open
P4203	J30_28	J31_28	145.00	200.0	140.0	0.0747	Open
P4204	J30_29	J30_30	145.00	100.0	125.0	0.0623	Open
P4205	J30_29	J31_29	145.00	250.0	130.0	0.0760	Open
P4206	J30_30	J30_31	145.00	100.0	140.0	0.1330	Open
P4207	J30_30	J31_30	145.00	150.0	130.0	0.0223	Open
P4208	J30_31	J30_32	145.00	300.0	120.0	0.0479	Open
P4209	J30_31	J31_31	145.00	400.0	130.0	0.0027	Open
P4210	J30_32	J30_33	145.00	150.0	125.0	0.1271	Open
P4211	J30_32	J31_32	145.00	250.0	135.0	0.1420	Open
P4212	J30_33	J30_34	145.00	100.0	130.0	0.1499	Open
P4213	J30_33	J31_33	145.00	200.0	125.0	0.0760	Open
P4214	J30_34	J30_35	145.00	150.0	135.0	0.0360	Open
P4215	J30_34	J31_34	145.00	150.0	140.0	0.0249	Open
P4216	J30_35	J30_36	145.00	150.0	135.0	0.0456	Open
P4217	J30_35	J31_35	145.00	300.0	125.0	0.0812	Open
P4218	J30_36	J30_37	145.00	200.0	125.0	0.0725	Open
P4219	J30_36	J31_36	145.00	300.0	135.0	0.0633	Open
P4220	J30_37	J30_38	145.00	250.0	140.0	0.0810	Open
P4221	J30_37	J31_37	145.00	200.0	130.0	0.0439	Open
P4222	J30_38	J30_39	145.00	250.0	135.0	0.1366	Open
P4223	J30_38	J31_38	145.00	150.0	135.0	0.1469	Open
P4224	J30_39	J30_40	145.00	300.0	125.0	0.0345	Open
P4225	J30_39	J31_39	145.00	100.0	140.0	0.0836	Open
P4226	J30_40	J30_41	145.00	150.0	140.0	0.0092	Open
P4227	J30_40	J31_40	145.00	150.0	140.0	0.0067	Open
P4228	J30_41	J30_42	145.00	300.0	130.0	0.0175	Open
P4229	J30_41	J31_41	145.00	350.0	125.0	0.0117	Open
P4230	J30_42	J30_43	145.00	250.0	135.0	0.0190	Open
P4231	J30_42	J31_42	145.00	300.0	125.0	0.0721	Open
P4232	J30_43	J30_44	145.00	150.0	125.0	0.0904	Open
P4233	J30_43	J31_43	145.00	250.0	130.0	0.1125	Open
P4234	J30_44	J30_45	145.00	100.0	135.0	0.0857	Open
P4235	J30_44	J31_44	145.00	100.0	130.0	0.0642	Open
P4236	J30_45	J30_46	145.00	250.0	130.0	0.0851	Open
P4237	J30_45	J31_45	145.00	250.0	140.0	0.0328	Open
P4238	J30_46	J30_47	145.00	200.0	130.0	0.1145	Open
P4239	J30_46	J31_46	145.00	100.0	130.0	0.0808	Open
P4240	J30_47	J30_48	145.00	200.0	125.0	0.0453	Open
P4241	J30_47	J31_47	145.00	200.0	130.0	0.0813	Open
P4242	J30_48	J30_49	145.00	100.0	125.0	0.0901	Open
P4243	J30_48	J31_48	145.00	250.0	130.0	0.0286	Open
P4244	J30_49	J30_50	145.00	200.0	130.0	0.0630	Open
P4245	J30_49	J31_49	145.00	250.0	125.0	0.1143	Open
P4246	J30_50	J30_51	145.00	250.0	125.0	0.0756	Open
P4247	J30_50	J31_50	145.00	250.0	140.0	0.1432	Open
P4248	J30_51	J30_52	145.00	450.0	130.0	0.0457	Open
P4249	J30_51	J31_51	145.00	350.0	125.0	0.0171	Open
P4250	J30_52	J30_53	145.00	200.0	125.0	0.0850	Open
P4251	J30_52	J31_52	145.00	250.0	130.0	0.0811	Open
P4252	J30_53	J30_54	145.00	150.0	130.0	0.0707	Open
P4253	J30_53	J31_53	145.00	100.0	135.0	0.1480	Open
P4254	J30_54	J30_55	145.00	100.0	130.0	0.1223	Open
P4255	J30_54	J31_54	145.00	200.0	130.0	0.0025	Open
P4256	J30_55	J30_56	145.00	300.0	125.0	0.0228	Open
P4257	J30_55	J31_55	145.00	250.0	125.0	0.0320	Open
P4258	J30_56	J30_57	145.00	250.0	140.0	0.0715	Open
P4259	J30_56	J31_56	145.00	150.0	140.0	0.1424	Open
P4260	J30_57	J30_58	145.00	250.0	135.0	0.0892	Open
P4261	J30_57	J31_57	145.00	200.0	140.0	0.0370	Open
P4262	J30_58	J30_59	145.00	150.0	135.0	0.1328	Open
P4263	J30_58	J31_58	145.00	300.0	140.0	0.0787	Open
P4264	J30_59	J30_60	145.00	100.0	140.0	0.0984	Open
P4265	J30_59	J31_59	145.00	250.0	135.0	0.1271	Open
P4266	J30_60	J30_61	145.00	100.0	125.0	0.0058	Open
P4267	J30_60	J31_60	145.00	300.0	135.0	0.0906	Open
P4268	J30_61	J30_62	145.00	450.0	125.0	0.0149	Open
P4269	J30_61	J31_61	145.00	500.0	130.0	0.0301	Open
P4270	J30_62	J30_63	145.00	150.0	135.0	0.1127	Open
P4271	J30_62	J31_62	145.00	250.0	140.0	0.0199	Open
P4272	J30_63	J30_64	145.00	250.0	130.0	0.0279	Open
P4273	J30_63	J31_63	145.00	250.0	135.0	0.0210	Open
P4274	J30_64	J30_65	145.00	200.0	135.0	0.0093	Open
P4275	J30_64	J31_64	145.00	150.0	130.0	0.1308	Open
P4276	J30_65	J30_66	145.00	100.0	130.0	0.1417	Open
P4277	J30_65	J31_65	145.00	250.0	130.0	0.1290	Open
P4278	J30_66	J30_67	145.00	200.0	125.0	0.0425	Open
P4279	J30_66	J31_66	145.00	150.0	125.0	0.0474	Open
P4280	J30_67	J30_68	145.00	150.0	140.0	0.0482	Open
P4281	J30_67	J31_67	145.00	100.0	125.0	0.0823	Open
P4282	J30_68	J30_69	145.00	150.0	125.0	0.0497	Open
P4283	J30_68	J31_68	145.00	200.0	135.0	0.0270	Open
P4284	J30_69	J30_70	145.00	250.0	125.0	0.0407	Open
P4285	J30_69	J31_69	145.00	150.0	125.0	0.1191	Open
P4286	J30_70	J30_71	145.00	150.0	140.0	0.1133	Open
P4287	J30_70	J31_70	145.00	100.0	135.0	0.0268	Open
P4288	J30_71	J30_72	145.00	600.0	125.0	0.0396	Open
P4289	J30_71	J31_71	145.00	350.0	130.0	0.0266	Open
P4290	J30_72	J31_72	145.00	250.0	125.0	0.1492	Open
P4291	J31_1	J31_2	145.00	500.0	130.0	0.0183	Open
P4292	J31_1	J32_1	145.00	400.0	125.0	0.0108	Open
P4293	J31_2	J31_3	145.00	350.0	120.0	0.0331	Open
P4294	J31_2	J32_2	145.00	450.0	125.0	0.0290	Open
P4295	J31_3	J31_4	145.00	600.0	130.0	0.0483	Open
P4296	J31_3	J32_3	145.00	500.0	120.0	0.0450	Open
P4297	J31_4	J31_5	145.00	400.0	130.0	0.0137	Open
P4298	J31_4	J32_4	145.00	600.0	130.0	0.0441	Open
P4299	J31_5	J31_6	145.00	400.0	120.0	0.0163	Open
P4300	J31_5	J32_5	145.00	350.0	125.0	0.0365	Open
P4301	J31_6	J31_7	145.00	300.0	130.0	0.0110	Open
P4302	J31_6	J32_6	145.00	350.0	120.0	0.0348	Open
P4303	J31_7	J31_8	145.00	600.0	125.0	0.0110	Open
P4304	J31_7	J32_7	145.00	600.0	130.0	0.0116	Open
P4305	J31_8	J31_9	145.00	400.0	125.0	0.0238	Open
P4306	J31_8	J32_8	145.00	350.0	130.0	0.0324	Open
P4307	J31_9	J31_10	145.00	400.0	120.0	0.0411	Open
P4308	J31_9	J32_9	145.00	300.0	125.0	0.0410	Open
P4309	J31_10	J31_11	145.00	600.0	130.0	0.0239	Open
P4310	J31_10	J32_10	145.00	300.0	125.0	0.0440	Open
P4311	J31_11	J31_12	145.00	300.0	130.0	0.0496	Open
P4312	J31_11	J32_11	145.00	350.0	130.0	0.0436	Open
P4313	J31_12	J31_13	145.00	450.0	125.0	0.0413	Open
P4314	J31_12	J32_12	145.00	600.0	130.0	0.0378	Open
P4315	J31_13	J31_14	145.00	500.0	130.0	0.0140	Open
P4316	J31_13	J32_13	145.00	600.0	130.0	0.0491	Open
P4317	J31_14	J31_15	145.00	400.0	120.0	0.0175	Open
P4318	J31_14	J32_14	145.00	450.0	125.0	0.0165	Open
P4319	J31_15	J31_16	145.00	300.0	130.0	0.0447	Open
P4320	J31_15	J32_15	145.00	600.0	130.0	0.0348	Open
P4321	J31_16	J31_17	145.00	300.0	130.0	0.0490	Open
P4322	J31_16	J32_16	145.00	500.0	120.0	0.0488	Open
P4323	J31_17	J31_18	145.00	450.0	120.0	0.0201	Open
P4324	J31_17	J32_17	145.00	500.0	125.0	0.0229	Open
P4325	J31_18	J31_19	145.00	300.0	130.0	0.0025	Open
P4326	J31_18	J32_18	145.00	400.0	120.0	0.0318	Open
P4327	J31_19	J31_20	145.00	500.0	120.0	0.0079	Open
P4328	J31_19	J32_19	145.00	600.0	130.0	0.0152	Open
P4329	J31_20	J31_21	145.00	350.0	120.0	0.0121	Open
P4330	J31_20	J32_20	145.00	450.0	125.0	0.0006	Open
P4331	J31_21	J31_22	145.00	350.0	120.0	0.0117	Open
P4332	J31_21	J32_21	145.00	300.0	120.0	0.0118	Open
P4333	J31_22	J31_23	145.00	600.0	125.0	0.0089	Open
P4334	J31_22	J32_22	145.00	300.0	125.0	0.0163	Open
P4335	J31_23	J31_24	145.00	600.0	120.0	0.0047	Open
P4336	J31_23	J32_23	145.00	400.0	125.0	0.0371	Open
P4337	J31_24	J31_25	145.00	400.0	130.0	0.0185	Open
P4338	J31_24	J32_24	145.00	400.0	130.0	0.0073	Open
P4339	J31_25	J31_26	145.00	400.0	125.0	0.0089	Open
P4340	J31_25	J32_25	145.00	500.0	125.0	0.0393	Open
P4341	J31_26	J31_27	145.00	500.0	120.0	0.0309	Open
P4342	J31_26	J32_26	145.00	350.0	120.0	0.0454	Open
P4343	J31_27	J31_28	145.00	600.0	130.0	0.0013	Open
P4344	J31_27	J32_27	145.00	300.0	120.0	0.0469	Open
P4345	J31_28	J31_29	145.00	500.0	120.0	0.0404	Open
P4346	J31_28	J32_28	145.00	450.0	130.0	0.0106	Open
P4347	J31_29	J31_30	145.00	350.0	120.0	0.0383	Open
P4348	J31_29	J32_29	145.00	400.0	120.0	0.0173	Open
P4349	J31_30	J31_31	145.00	600.0	125.0	0.0049	Open
P4350	J31_30	J32_30	145.00	350.0	120.0	0.0456	Open
P4351	J31_31	J31_32	145.00	400.0	120.0	0.0448	Open
P4352	J31_31	J32_31	145.00	350.0	120.0	0.0215	Open
P4353	J31_32	J31_33	145.00	600.0	120.0	0.0252	Open
P4354	J31_32	J32_32	145.00	450.0	125.0	0.0472	Open
P4355	J31_33	J31_34	145.00	300.0	120.0	0.0305	Open
P4356	J31_33	J32_33	145.00	350.0	120.0	0.0028	Open
P4357	J31_34	J31_35	145.00	400.0	130.0	0.0032	Open
P4358	J31_34	J32_34	145.00	500.0	120.0	0.0222	Open
P4359	J31_35	J31_36	145.00	400.0	125.0	0.0005	Open
P4360	J31_35	J32_35	145.00	350.0	130.0	0.0093	Open
P4361	J31_36	J31_37	145.00	450.0	130.0	0.0153	Open
P4362	J31_36	J32_36	145.00	600.0	125.0	0.0173	Open
P4363	J31_37	J31_38	145.00	300.0	125.0	0.0415	Open
P4364	J31_37	J32_37	145.00	500.0	120.0	0.0108	Open
P4365	J31_38	J31_39	145.00	400.0	120.0	0.0139	Open
P4366	J31_38	J32_38	145.00	450.0	125.0	0.0437	Open
P4367	J31_39	J31_40	145.00	450.0	120.0	0.0350	Open
P4368	J31_39	J32_39	145.00	450.0	120.0	0.0357	Open
P4369	J31_40	J31_41	145.00	400.0	120.0	0.0078	Open
P4370	J31_40	J32_40	145.00	450.0	130.0	0.0034	Open
P4371	J31_41	J31_42	145.00	400.0	130.0	0.0178	Open
P4372	J31_41	J32_41	145.00	300.0	125.0	0.0140	Open
P4373	J31_42	J31_43	145.00	600.0	125.0	0.0347	Open
P4374	J31_42	J32_42	145.00	450.0	130.0	0.0483	Open
P4375	J31_43	J31_44	145.00	350.0	125.0	0.0401	Open
P4376	J31_43	J32_43	145.00	600.0	125.0	0.0022	Open
P4377	J31_44	J31_45	145.00	350.0	125.0	0.0050	Open
P4378	J31_44	J32_44	145.00	600.0	120.0	0.0306	Open
P4379	J31_45	J31_46	145.00	350.0	125.0	0.0151	Open
P4380	J31_45	J32_45	145.00	600.0	120.0	0.0186	Open
P4381	J31_46	J31_47	145.00	400.0	120.0	0.0343	Open
P4382	J31_46	J32_46	145.00	500.0	130.0	0.0226	Open
P4383	J31_47	J31_48	145.00	500.0	130.0	0.0260	Open
P4384	J31_47	J32_47	145.00	400.0	130.0	0.0430	Open
P4385	J31_48	J31_49	145.00	400.0	130.0	0.0334	Open
P4386	J31_48	J32_48	145.00	500.0	130.0	0.0365	Open
P4387	J31_49	J31_50	145.00	600.0	120.0	0.0341	Open
P4388	J31_49	J32_49	145.00	350.0	125.0	0.0067	Open
P4389	J31_50	J31_51	145.00	500.0	125.0	0.0191	Open
P4390	J31_50	J32_50	145.00	300.0	120.0	0.0126	Open
P4391	J31_51	J31_52	145.00	400.0	130.0	0.0428	Open
P4392	J31_51	J32_51	145.00	300.0	125.0	0.0057	Open
P4393	J31_52	J31_53	145.00	600.0	130.0	0.0442	Open
P4394	J31_52	J32_52	145.00	600.0	120.0	0.0355	Open
P4395	J31_53	J31_54	145.00	450.0	130.0	0.0367	Open
P4396	J31_53	J32_53	145.00	400.0	130.0	0.0394	Open
P4397	J31_54	J31_55	145.00	350.0	120.0	0.0398	Open
P4398	J31_54	J32_54	145.00	350.0	120.0	0.0087	Open
P4399	J31_55	J31_56	145.00	500.0	125.0	0.0106	Open
P4400	J31_55	J32_55	145.00	500.0	120.0	0.0031	Open
P4401	J31_56	J31_57	145.00	350.0	125.0	0.0052	Open
P4402	J31_56	J32_56	145.00	600.0	125.0	0.0028	Open
P4403	J31_57	J31_58	145.00	350.0	120.0	0.0465	Open
P4404	J31_57	J32_57	145.00	400.0	125.0	0.0414	Open
P4405	J31_58	J31_59	145.00	350.0	125.0	0.0409	Open
P4406	J31_58	J32_58	145.00	500.0	120.0	0.0321	Open
P4407	J31_59	J31_60	145.00	350.0	120.0	0.0083	Open
P4408	J31_59	J32_59	145.00	450.0	125.0	0.0436	Open
P4409	J31_60	J31_61	145.00	450.0	130.0	0.0082	Open
P4410	J31_60	J32_60	145.00	450.0	120.0	0.0321	Open
P4411	J31_61	J31_62	145.00	350.0	130.0	0.0202	Open
P4412	J31_61	J32_61	145.00	300.0	120.0	0.0141	Open
P4413	J31_62	J31_63	145.00	450.0	130.0	0.0101	Open
P4414	J31_62	J32_62	145.00	450.0	125.0	0.0011	Open
P4415	J31_63	J31_64	145.00	400.0	130.0	0.0168	Open
P4416	J31_63	J32_63	145.00	600.0	125.0	0.0487	Open
P4417	J31_64	J31_65	145.00	450.0	130.0	0.0083	Open
P4418	J31_64	J32_64	145.00	600.0	130.0	0.0370	Open
P4419	J31_65	J31_66	145.00	600.0	130.0	0.0011	Open
P4420	J31_65	J32_65	145.00	450.0	120.0	0.0033	Open
P4421	J31_66	J31_67	145.00	400.0	130.0	0.0165	Open
P4422	J31_66	J32_66	145.00	400.0	130.0	0.0409	Open
P4423	J31_67	J31_68	145.00	500.0	120.0	0.0271	Open
P4424	J31_67	J32_67	145.00	450.0	120.0	0.0154	Open
P4425	J31_68	J31_69	145.00	450.0	125.0	0.0076	Open
P4426	J31_68	J32_68	145.00	300.0	120.0	0.0083	Open
P4427	J31_69	J31_70	145.00	350.0	125.0	0.0163	Open
P4428	J31_69	J32_69	145.00	400.0	125.0	0.0244	Open
P4429	J31_70	J31_71	145.00	300.0	120.0	0.0164	Open
P4430	J31_70	J32_70	145.00	450.0	120.0	0.0491	Open
P4431	J31_71	J31_72	145.00	450.0	130.0	0.0118	Open
P4432	J31_71	J32_71	145.00	300.0	130.0	0.0191	Open
P4433	J31_72	J32_72	145.00	500.0	130.0	0.0385	Open
P4434	J32_1	J32_2	145.00	450.0	130.0	0.0139	Open
P4435	J32_1	J33_1	145.00	450.0	120.0	0.0441	Open
P4436	J32_2	J32_3	145.00	250.0	135.0	0.0667	Open
P4437	J32_2	J33_2	145.00	200.0	140.0	0.0271	Open
P4438	J32_3	J32_4	145.00	150.0	140.0	0.0424	Open
P4439	J32_3	J33_3	145.00	200.0	140.0	0.1384	Open
P4440	J32_4	J32_5	145.00	150.0	125.0	0.1337	Open
P4441	J32_4	J33_4	145.00	100.0	135.0	0.1285	Open
P4442	J32_5	J32_6	145.00	150.0	125.0	0.1489	Open
P4443	J32_5	J33_5	145.00	100.0	135.0	0.0998	Open
P4444	J32_6	J32_7	145.00	100.0	135.0	0.0475	Open
P4445	J32_6	J33_6	145.00	150.0	130.0	0.0760	Open
P4446	J32_7	J32_8	145.00	100.0	125.0	0.0138	Open
P4447	J32_7	J33_7	145.00	200.0	125.0	0.1345	Open
P4448	J32_8	J32_9	145.00	150.0	140.0	0.0850	Open
P4449	J32_8	J33_8	145.00	250.0	135.0	0.0628	Open
P4450	J32_9	J32_10	145.00	100.0	130.0	0.0306	Open
P4451	J32_9	J33_9	145.00	150.0	135.0	0.1111	Open
P4452	J32_10	J32_11	145.00	300.0	125.0	0.0864	Open
P4453	J32_10	J33_10	145.00	250.0	140.0	0.1418	Open
P4454	J32_11	J32_12	145.00	300.0	120.0	0.0456	Open
P4455	J32_11	J33_11	145.00	450.0	130.0	0.0108	Open
P4456	J32_12	J32_13	145.00	100.0	140.0	0.1184	Open
P4457	J32_12	J33_12	145.00	150.0	125.0	0.0448	Open
P4458	J32_13	J32_14	145.00	200.0	130.0	0.0066	Open
P4459	J32_13	J33_13	145.00	300.0	140.0	0.0857	Open
P4460	J32_14	J32_15	145.00	200.0	135.0	0.0362	Open
P4461	J32_14	J33_14	145.00	200.0	135.0	0.0321	Open
P4462	J32_15	J32_16	145.00	300.0	135.0	0.0824	Open
P4463	J32_15	J33_15	145.00	250.0	125.0	0.0326	Open
P4464	J32_16	J32_17	145.00	150.0	135.0	0.1157	Open
P4465	J32_16	J33_16	145.00	250.0	135.0	0.0566	Open
P4466	J32_17	J32_18	145.00	150.0	135.0	0.1323	Open
P4467	J32_17	J33_17	145.00	200.0	125.0	0.0710	Open
P4468	J32_18	J32_19	145.00	300.0	125.0	0.1181	Open
P4469	J32_18	J33_18	145.00	150.0	130.0	0.0022	Open
P4470	J32_19	J32_20	145.00	150.0	125.0	0.0566	Open
P4471	J32_19	J33_19	145.00	200.0	125.0	0.0463	Open
P4472	J32_20	J32_21	145.00	250.0	125.0	0.0111	Open
P4473	J32_20	J33_20	145.00	150.0	140.0	0.1050	Open
P4474	J32_21	J32_22	145.00	350.0	120.0	0.0393	Open
P4475	J32_21	J33_21	145.00	450.0	125.0	0.0069	Open
P4476	J32_22	J32_23	145.00	300.0	140.0	0.1283	Open
P4477	J32_22	J33_22	145.00	100.0	135.0	0.0754	Open
P4478	J32_23	J32_24	145.00	150.0	130.0	0.0907	Open
P4479	J32_23	J33_23	145.00	300.0	135.0	0.0848	Open
P4480	J32_24	J32_25	145.00	150.0	140.0	0.0574	Open
P4481	J32_24	J33_24	145.00	100.0	135.0	0.0820	Open
P4482	J32_25	J32_26	145.00	250.0	130.0	0.0101	Open
P4483	J32_25	J33_25	145.00	300.0	140.0	0.1102	Open
P4484	J32_26	J32_27	145.00	200.0	125.0	0.0344	Open
P4485	J32_26	J33_26	145.00	200.0	130.0	0.0312	Open
P4486	J32_27	J32_28	145.00	200.0	140.0	0.1222	Open
P4487	J32_27	J33_27	145.00	200.0	135.0	0.1396	Open
P4488	J32_28	J32_29	145.00	150.0	130.0	0.0396	Open
P4489	J32_28	J33_28	145.00	100.0	130.0	0.1414	Open
P4490	J32_29	J32_30	145.00	200.0	125.0	0.0228	Open
P4491	J32_29	J33_29	145.00	300.0	130.0	0.1319	Open
P4492	J32_30	J32_31	145.00	200.0	130.0	0.0468	Open
P4493	J32_30	J33_30	145.00	100.0	125.0	0.1284	Open
P4494	J32_31	J32_32	145.00	600.0	120.0	0.0244	Open
P4495	J32_31	J33_31	145.00	450.0	125.0	0.0465	Open
P4496	J32_32	J32_33	145.00	200.0	130.0	0.0169	Open
P4497	J32_32	J33_32	145.00	200.0	135.0	0.0368	Open
P4498	J32_33	J32_34	145.00	300.0	135.0	0.1256	Open
P4499	J32_33	J33_33	145.00	150.0	135.0	0.1363	Open
P4500	J32_34	J32_35	145.00	150.0	140.0	0.0923	Open
P4501	J32_34	J33_34	145.00	250.0	135.0	0.1319	Open
P4502	J32_35	J32_36	145.00	100.0	140.0	0.0080	Open
P4503	J32_35	J33_35	145.00	300.0	125.0	0.0491	Open
P4504	J32_36	J32_37	145.00	150.0	135.0	0.0810	Open
P4505	J32_36	J33_36	145.00	300.0	125.0	0.0440	Open
P4506	J32_37	J32_38	145.00	150.0	140.0	0.1199	Open
P4507	J32_37	J33_37	145.00	250.0	130.0	0.0508	Open
P4508	J32_38	J32_39	145.00	150.0	140.0	0.0238	Open
P4509	J32_38	J33_38	145.00	150.0	135.0	0.0534	Open
P4510	J32_39	J32_40	145.00	300.0	135.0	0.0169	Open
P4511	J32_39	J33_39	145.00	250.0	135.0	0.1146	Open
P4512	J32_40	J32_41	145.00	300.0	125.0	0.0281	Open
P4513	J32_40	J33_40	145.00	300.0	135.0	0.0790	Open
P4514	J32_41	J32_42	145.00	600.0	125.0	0.0421	Open
P4515	J32_41	J33_41	145.00	350.0	130.0	0.0297	Open
P4516	J32_42	J32_43	145.00	100.0	130.0	0.1042	Open
P4517	J32_42	J33_42	145.00	150.0	125.0	0.0281	Open
P4518	J32_43	J32_44	145.00	100.0	140.0	0.1481	Open
P4519	J32_43	J33_43	145.00	250.0	125.0	0.0712	Open
P4520	J32_44	J32_45	145.00	200.0	140.0	0.0832	Open
P4521	J32_44	J33_44	145.00	300.0	130.0	0.1301	Open
P4522	J32_45	J32_46	145.00	150.0	135.0	0.0433	Open
P4523	J32_45	J33_45	145.00	150.0	135.0	0.1481	Open
P4524	J32_46	J32_47	145.00	150.0	125.0	0.0722	Open
P4525	J32_46	J33_46	145.00	150.0	140.0	0.1230	Open
P4526	J32_47	J32_48	145.00	200.0	125.0	0.0505	Open
P4527	J32_47	J33_47	145.00	150.0	125.0	0.1499	Open
P4528	J32_48	J32_49	145.00	200.0	125.0	0.0314	Open
P4529	J32_48	J33_48	145.00	300.0	140.0	0.1201	Open
P4530	J32_49	J32_50	145.00	200.0	135.0	0.1434	Open
P4531	J32_49	J33_49	145.00	250.0	125.0	0.0893	Open
P4532	J32_50	J32_51	145.00	100.0	135.0	0.0900	Open
P4533	J32_50	J33_50	145.00	100.0	140.0	0.0453	Open
P4534	J32_51	J32_52	145.00	300.0	120.0	0.0462	Open
P4535	J32_51	J33_51	145.00	350.0	130.0	0.0466	Open
P4536	J32_52	J32_53	145.00	250.0	140.0	0.1171	Open
P4537	J32_52	J33_52	145.00	250.0	130.0	0.0921	Open
P4538	J32_53	J32_54	145.00	150.0	140.0	0.0687	Open
P4539	J32_53	J33_53	145.00	150.0	130.0	0.0219	Open
P4540	J32_54	J32_55	145.00	100.0	135.0	0.0361	Open
P4541	J32_54	J33_54	145.00	250.0	135.0	0.1279	Open
P4542	J32_55	J32_56	145.00	300.0	140.0	0.0647	Open
P4543	J32_55	J33_55	145.00	200.0	125.0	0.0213	Open
P4544	J32_56	J32_57	145.00	100.0	140.0	0.0117	Open
P4545	J32_56	J33_56	145.00	200.0	130.0	0.0212	Open
P4546	J32_57	J32_58	145.00	200.0	135.0	0.0492	Open
P4547	J32_57	J33_57	145.00	200.0	125.0	0.0096	Open
P4548	J32_58	J32_59	145.00	250.0	140.0	0.0366	Open
P4549	J32_58	J33_58	145.00	300.0	125.0	0.0975	Open
P4550	J32_59	J32_60	145.00	250.0	140.0	0.1356	Open
P4551	J32_59	J33_59	145.00	300.0	130.0	0.0965	Open
P4552	J32_60	J32_61	145.00	250.0	130.0	0.1290	Open
P4553	J32_60	J33_60	145.00	300.0	125.0	0.0051	Open
P4554	J32_61	J32_62	145.00	500.0	125.0	0.0200	Open
P4555	J32_61	J33_61	145.00	600.0	120.0	0.0295	Open
P4556	J32_62	J32_63	145.00	250.0	135.0	0.0474	Open
P4557	J32_62	J33_62	145.00	300.0	130.0	0.0024	Open
P4558	J32_63	J32_64	145.00	300.0	140.0	0.0177	Open
P4559	J32_63	J33_63	145.00	150.0	140.0	0.0256	Open
P4560	J32_64	J32_65	145.00	200.0	125.0	0.0025	Open
P4561	J32_64	J33_64	145.00	150.0	130.0	0.0974	Open
P4562	J32_65	J32_66	145.00	150.0	140.0	0.0878	Open
P4563	J32_65	J33_65	145.00	150.0	140.0	0.0190	Open
P4564	J32_66	J32_67	145.00	150.0	125.0	0.0784	Open
P4565	J32_66	J33_66	145.00	100.0	135.0	0.1377	Open
P4566	J32_67	J32_68	145.00	100.0	125.0	0.1019	Open
P4567	J32_67	J33_67	145.00	250.0	135.0	0.0773	Open
P4568	J32_68	J32_69	145.00	200.0	140.0	0.0955	Open
P4569	J32_68	J33_68	145.00	200.0	130.0	0.0412	Open
P4570	J32_69	J32_70	145.00	150.0	135.0	0.1114	Open
P4571	J32_69	J33_69	145.00	150.0	125.0	0.0747	Open
P4572	J32_70	J32_71	145.00	300.0	140.0	0.0662	Open
P4573	J32_70	J33_70	145.00	150.0	140.0	0.0418	Open
P4574	J32_71	J32_72	145.00	400.0	120.0	0.0148	Open
P4575	J32_71	J33_71	145.00	450.0	125.0	0.0216	Open
P4576	J32_72	J33_72	145.00	300.0	130.0	0.0210	Open
P4577	J33_1	J33_2	145.00	600.0	130.0	0.0440	Open
P4578	J33_1	J34_1	145.00	350.0	125.0	0.0339	Open
P4579	J33_2	J33_3	145.00	100.0	135.0	0.0970	Open
P4580	J33_2	J34_2	145.00	200.0	130.0	0.1425	Open
P4581	J33_3	J33_4	145.00	100.0	135.0	0.0857	Open
P4582	J33_3	J34_3	145.00	150.0	125.0	0.1253	Open
P4583	J33_4	J33_5	145.00	300.0	130.0	0.0007	Open
P4584	J33_4	J34_4	145.00	200.0	125.0	0.0958	Open
P4585	J33_5	J33_6	145.00	250.0	125.0	0.0783	Open
P4586	J33_5	J34_5	145.00	100.0	130.0	0.0516	Open
P4587	J33_6	J33_7	145.00	300.0	135.0	0.1160	Open
P4588	J33_6	J34_6	145.00	150.0	130.0	0.0955	Open
P4589	J33_7	J33_8	145.00	200.0	135.0	0.0806	Open
P4590	J33_7	J34_7	145.00	250.0	125.0	0.1007	Open
P4591	J33_8	J33_9	145.00	300.0	125.0	0.1410	Open
P4592	J33_8	J34_8	145.00	300.0	135.0	0.1067	Open
P4593	J33_9	J33_10	145.00	250.0	135.0	0.0323	Open
P4594	J33_9	J34_9	145.00	250.0	135.0	0.0803	Open
P4595	J33_10	J33_11	145.00	300.0	125.0	0.0412	Open
P4596	J33_10	J34_10	145.00	300.0	125.0	0.0282	Open
P4597	J33_11	J33_12	145.00	600.0	125.0	0.0158	Open
P4598	J33_11	J34_11	145.00	400.0	125.0	0.0443	Open
P4599	J33_12	J33_13	145.00	250.0	125.0	0.1116	Open
P4600	J33_12	J34_12	145.00	100.0	140.0	0.0191	Open
P4601	J33_13	J33_14	145.00	250.0	125.0	0.0878	Open
P4602	J33_13	J34_13	145.00	200.0	125.0	0.0456	Open
P4603	J33_14	J33_15	145.00	200.0	125.0	0.1483	Open
P4604	J33_14	J34_14	145.00	100.0	140.0	0.0137	Open
P4605	J33_15	J33_16	145.00	200.0	135.0	0.0189	Open
P4606	J33_15	J34_15	145.00	100.0	140.0	0.0900	Open
P4607	J33_16	J33_17	145.00	300.0	130.0	0.0503	Open
P4608	J33_16	J34_16	145.00	150.0	140.0	0.1489	Open
P4609	J33_17	J33_18	145.00	250.0	130.0	0.0370	Open
P4610	J33_17	J34_17	145.00	250.0	130.0	0.0046	Open
P4611	J33_18	J33_19	145.00	250.0	130.0	0.0958	Open
P4612	J33_18	J34_18	145.00	150.0	140.0	0.0327	Open
P4613	J33_19	J33_20	145.00	150.0	140.0	0.0546	Open
P4614	J33_19	J34_19	145.00	150.0	140.0	0.1342	Open
P4615	J33_20	J33_21	145.00	200.0	130.0	0.0819	Open
P4616	J33_20	J34_20	145.00	300.0	140.0	0.0282	Open
P4617	J33_21	J33_22	145.00	400.0	125.0	0.0053	Open
P4618	J33_21	J34_21	145.00	600.0	125.0	0.0367	Open
P4619	J33_22	J33_23	145.00	250.0	140.0	0.0915	Open
P4620	J33_22	J34_22	145.00	250.0	135.0	0.0113	Open
P4621	J33_23	J33_24	145.00	150.0	140.0	0.0983	Open
P4622	J33_23	J34_23	145.00	100.0	125.0	0.0512	Open
P4623	J33_24	J33_25	145.00	200.0	135.0	0.0857	Open
P4624	J33_24	J34_24	145.00	100.0	140.0	0.0486	Open
P4625	J33_25	J33_26	145.00	200.0	135.0	0.0066	Open
P4626	J33_25	J34_25	145.00	250.0	135.0	0.0872	Open
P4627	J33_26	J33_27	145.00	250.0	135.0	0.0798	Open
P4628	J33_26	J34_26	145.00	150.0	140.0	0.0187	Open
P4629	J33_27	J33_28	145.00	250.0	135.0	0.1221	Open
P4630	J33_27	J34_27	145.00	250.0	125.0	0.1233	Open
P4631	J33_28	J33_29	145.00	300.0	125.0	0.1086	Open
P4632	J33_28	J34_28	145.00	250.0	125.0	0.1141	Open
P4633	J33_29	J33_30	145.00	300.0	130.0	0.1014	Open
P4634	J33_29	J34_29	145.00	100.0	125.0	0.0178	Open
P4635	J33_30	J33_31	145.00	150.0	135.0	0.1406	Open
P4636	J33_30	J34_30	145.00	200.0	140.0	0.1266	Open
P4637	J33_31	J33_32	145.00	350.0	130.0	0.0242	Open
P4638	J33_31	J34_31	145.00	450.0	130.0	0.0409	Open
P4639	J33_32	J33_33	145.00	150.0	130.0	0.0924	Open
P4640	J33_32	J34_32	145.00	100.0	135.0	0.0603	Open
P4641	J33_33	J33_34	145.00	150.0	135.0	0.1231	Open
P4642	J33_33	J34_33	145.00	200.0	130.0	0.0585	Open
P4643	J33_34	J33_35	145.00	250.0	125.0	0.0577	Open
P4644	J33_34	J34_34	145.00	150.0	135.0	0.0217	Open
P4645	J33_35	J33_36	145.00	300.0	140.0	0.0207	Open
P4646	J33_35	J34_35	145.00	100.0	130.0	0.0506	Open
P4647	J33_36	J33_37	145.00	100.0	130.0	0.0955	Open
P4648	J33_36	J34_36	145.00	250.0	135.0	0.1299	Open
P4649	J33_37	J33_38	145.00	250.0	130.0	0.1207	Open
P4650	J33_37	J34_37	145.00	150.0	125.0	0.0782	Open
P4651	J33_38	J33_39	145.00	150.0	140.0	0.0821	Open
P4652	J33_38	J34_38	145.00	100.0	130.0	0.0459	Open
P4653	J33_39	J33_40	145.00	300.0	125.0	0.1404	Open
P4654	J33_39	J34_39	145.00	150.0	130.0	0.0804	Open
P4655	J33_40	J33_41	145.00	300.0	125.0	0.1153	Open
P4656	J33_40	J34_40	145.00	250.0	130.0	0.1434	Open
P4657	J33_41	J33_42	145.00	450.0	120.0	0.0243	Open
P4658	J33_41	J34_41	145.00	450.0	125.0	0.0203	Open
P4659	J33_42	J33_43	145.00	300.0	140.0	0.0597	Open
P4660	J33_42	J34_42	145.00	100.0	130.0	0.0186	Open
P4661	J33_43	J33_44	145.00	300.0	125.0	0.1074	Open
P4662	J33_43	J34_43	145.00	200.0	130.0	0.0282	Open
P4663	J33_44	J33_45	145.00	150.0	125.0	0.0311	Open
P4664	J33_44	J34_44	145.00	300.0	125.0	0.0836	Open
P4665	J33_45	J33_46	145.00	200.0	135.0	0.0076	Open
P4666	J33_45	J34_45	145.00	250.0	140.0	0.1179	Open
P4667	J33_46	J33_47	145.00	300.0	125.0	0.0766	Open
P4668	J33_46	J34_46	145.00	300.0	125.0	0.1167	Open
P4669	J33_47	J33_48	145.00	100.0	140.0	0.1052	Open
P4670	J33_47	J34_47	145.00	200.0	135.0	0.0893	Open
P4671	J33_48	J33_49	145.00	250.0	125.0	0.1133	Open
P4672	J33_48	J34_48	145.00	200.0	135.0	0.0787	Open
P4673	J33_49	J33_50	145.00	150.0	135.0	0.1476	Open
P4674	J33_49	J34_49	145.00	250.0	125.0	0.1413	Open
P4675	J33_50	J33_51	145.00	200.0	140.0	0.1218	Open
P4676	J33_50	J34_50	145.00	300.0	130.0	0.1124	Open
P4677	J33_51	J33_52	145.00	450.0	125.0	0.0353	Open
P4678	J33_51	J34_51	145.00	400.0	130.0	0.0055	Open
P4679	J33_52	J33_53	145.00	150.0	140.0	0.1396	Open
P4680	J33_52	J34_52	145.00	300.0	130.0	0.0174	Open
P4681	J33_53	J33_54	145.00	200.0	125.0	0.0447	Open
P4682	J33_53	J34_53	145.00	300.0	140.0	0.0962	Open
P4683	J33_54	J33_55	145.00	250.0	125.0	0.1077	Open
P4684	J33_54	J34_54	145.00	250.0	130.0	0.0078	Open
P4685	J33_55	J33_56	145.00	250.0	125.0	0.1010	Open
P4686	J33_55	J34_55	145.00	150.0	140.0	0.0030	Open
P4687	J33_56	J33_57	145.00	200.0	140.0	0.1010	Open
P4688	J33_56	J34_56	145.00	300.0	130.0	0.0356	Open
P4689	J33_57	J33_58	145.00	250.0	125.0	0.0019	Open
P4690	J33_57	J34_57	145.00	150.0	135.0	0.0325	Open
P4691	J33_58	J33_59	145.00	100.0	135.0	0.0546	Open
P4692	J33_58	J34_58	145.00	100.0	140.0	0.1143	Open
P4693	J33_59	J33_60	145.00	150.0	140.0	0.0594	Open
P4694	J33_59	J34_59	145.00	150.0	140.0	0.1296	Open
P4695	J33_60	J33_61	145.00	100.0	140.0	0.0985	Open
P4696	J33_60	J34_60	145.00	100.0	125.0	0.0512	Open
P4697	J33_61	J33_62	145.00	450.0	120.0	0.0254	Open
P4698	J33_61	J34_61	145.00	500.0	125.0	0.0035	Open
P4699	J33_62	J33_63	145.00	200.0	125.0	0.0184	Open
P4700	J33_62	J34_62	145.00	250.0	130.0	0.1204	Open
P4701	J33_63	J33_64	145.00	100.0	135.0	0.0435	Open
P4702	J33_63	J34_63	145.00	200.0	140.0	0.0191	Open
P4703	J33_64	J33_65	145.00	250.0	130.0	0.1091	Open
P4704	J33_64	J34_64	145.00	300.0	125.0	0.1316	Open
P4705	J33_65	J33_66	145.00	200.0	140.0	0.0161	Open
P4706	J33_65	J34_65	145.00	250.0	125.0	0.0530	Open
P4707	J33_66	J33_67	145.00	200.0	125.0	0.1483	Open
P4708	J33_66	J34_66	145.00	300.0	140.0	0.1025	Open
P4709	J33_67	J33_68	145.00	250.0	125.0	0.1476	Open
P4710	J33_67	J34_67	145.00	100.0	125.0	0.0929	Open
P4711	J33_68	J33_69	145.00	150.0	135.0	0.1118	Open
P4712	J33_68	J34_68	145.00	300.0	125.0	0.1184	Open
P4713	J33_69	J33_70	145.00	300.0	140.0	0.1177	Open
P4714	J33_69	J34_69	145.00	300.0	135.0	0.1221	Open
P4715	J33_70	J33_71	145.00	150.0	130.0	0.0070	Open
P4716	J33_70	J34_70	145.00	100.0	130.0	0.1440	Open
P4717	J33_71	J33_72	145.00	350.0	130.0	0.0183	Open
P4718	J33_71	J34_71	145.00	600.0	125.0	0.0060	Open
P4719	J33_72	J34_72	145.00	300.0	140.0	0.0275	Open
P4720	J34_1	J34_2	145.00	600.0	120.0	0.0177	Open
P4721	J34_1	J35_1	145.00	500.0	125.0	0.0449	Open
P4722	J34_2	J34_3	145.00	200.0	135.0	0.0096	Open
P4723	J34_2	J35_2	145.00	200.0	135.0	0.0510	Open
P4724	J34_3	J34_4	145.00	300.0	135.0	0.0891	Open
P4725	J34_3	J35_3	145.00	250.0	125.0	0.0333	Open
P4726	J34_4	J34_5	145.00	200.0	125.0	0.1291	Open
P4727	J34_4	J35_4	145.00	200.0	135.0	0.0406	Open
P4728	J34_5	J34_6	145.00	250.0	130.0	0.0129	Open
P4729	J34_5	J35_5	145.00	100.0	125.0	0.0719	Open
P4730	J34_6	J34_7	145.00	100.0	130.0	0.0368	Open
P4731	J34_6	J35_6	145.00	250.0	130.0	0.0378	Open
P4732	J34_7	J34_8	145.00	300.0	130.0	0.0662	Open
P4733	J34_7	J35_7	145.00	300.0	135.0	0.0839	Open
P4734	J34_8	J34_9	145.00	250.0	130.0	0.0478	Open
P4735	J34_8	J35_8	145.00	300.0	125.0	0.0841	Open
P4736	J34_9	J34_10	145.00	200.0	135.0	0.0535	Open
P4737	J34_9	J35_9	145.00	100.0	125.0	0.0684	Open
P4738	J34_10	J34_11	145.00	200.0	125.0	0.1224	Open
P4739	J34_10	J35_10	145.00	100.0	125.0	0.1451	Open
P4740	J34_11	J34_12	145.00	450.0	130.0	0.0450	Open
P4741	J34_11	J35_11	145.00	350.0	130.0	0.0112	Open
P4742	J34_12	J34_13	145.00	250.0	135.0	0.0457	Open
P4743	J34_12	J35_12	145.00	300.0	135.0	0.0061	Open
P4744	J34_13	J34_14	145.00	300.0	130.0	0.0453	Open
P4745	J34_13	J35_13	145.00	200.0	140.0	0.0759	Open
P4746	J34_14	J34_15	145.00	150.0	130.0	0.1243	Open
P4747	J34_14	J35_14	145.00	200.0	140.0	0.0447	Open
P4748	J34_15	J34_16	145.00	200.0	125.0	0.0979	Open
P4749	J34_15	J35_15	145.00	250.0	135.0	0.0425	Open
P4750	J34_16	J34_17	145.00	250.0	135.0	0.0513	Open
P4751	J34_16	J35_16	145.00	100.0	135.0	0.1411	Open
P4752	J34_17	J34_18	145.00	100.0	130.0	0.0596	Open
P4753	J34_17	J35_17	145.00	150.0	130.0	0.0272	Open
P4754	J34_18	J34_19	145.00	200.0	140.0	0.0631	Open
P4755	J34_18	J35_18	145.00	200.0	125.0	0.1500	Open
P4756	J34_19	J34_20	145.00	100.0	140.0	0.0706	Open
P4757	J34_19	J35_19	145.00	100.0	130.0	0.1030	Open
P4758	J34_20	J34_21	145.00	100.0	140.0	0.1402	Open
P4759	J34_20	J35_20	145.00	300.0	135.0	0.0584	Open
P4760	J34_21	J34_22	145.00	450.0	130.0	0.0477	Open
P4761	J34_21	J35_21	145.00	350.0	130.0	0.0039	Open
P4762	J34_22	J34_23	145.00	200.0	130.0	0.0895	Open
P4763	J34_22	J35_22	145.00	300.0	135.0	0.0512	Open
P4764	J34_23	J34_24	145.00	100.0	125.0	0.0804	Open
P4765	J34_23	J35_23	145.00	200.0	130.0	0.1124	Open
P4766	J34_24	J34_25	145.00	150.0	130.0	0.1422	Open
P4767	J34_24	J35_24	145.00	300.0	125.0	0.0639	Open
P4768	J34_25	J34_26	145.00	200.0	135.0	0.0711	Open
P4769	J34_25	J35_25	145.00	150.0	125.0	0.0166	Open
P4770	J34_26	J34_27	145.00	150.0	140.0	0.0123	Open
P4771	J34_26	J35_26	145.00	300.0	135.0	0.0103	Open
P4772	J34_27	J34_28	145.00	300.0	125.0	0.0014	Open
P4773	J34_27	J35_27	145.00	200.0	130.0	0.1395	Open
P4774	J34_28	J34_29	145.00	100.0	125.0	0.0659	Open
P4775	J34_28	J35_28	145.00	150.0	140.0	0.0169	Open
P4776	J34_29	J34_30	145.00	200.0	130.0	0.0411	Open
P4777	J34_29	J35_29	145.00	100.0	140.0	0.1277	Open
P4778	J34_30	J34_31	145.00	300.0	135.0	0.0982	Open
P4779	J34_30	J35_30	145.00	200.0	135.0	0.0095	Open
P4780	J34_31	J34_32	145.00	600.0	120.0	0.0060	Open
P4781	J34_31	J35_31	145.00	600.0	120.0	0.0022	Open
P4782	J34_32	J34_33	145.00	200.0	140.0	0.0251	Open
P4783	J34_32	J35_32	145.00	200.0	125.0	0.1421	Open
P4784	J34_33	J34_34	145.00	300.0	140.0	0.1303	Open
P4785	J34_33	J35_33	145.00	200.0	130.0	0.0929	Open
P4786	J34_34	J34_35	145.00	150.0	125.0	0.0554	Open
P4787	J34_34	J35_34	145.00	200.0	140.0	0.0841	Open
P4788	J34_35	J34_36	145.00	200.0	135.0	0.0094	Open
P4789	J34_35	J35_35	145.00	150.0	130.0	0.0624	Open
P4790	J34_36	J34_37	145.00	100.0	140.0	0.0851	Open
P4791	J34_36	J35_36	145.00	100.0	140.0	0.0048	Open
P4792	J34_37	J34_38	145.00	250.0	130.0	0.0938	Open
P4793	J34_37	J35_37	145.00	200.0	130.0	0.0553	Open
P4794	J34_38	J34_39	145.00	150.0	140.0	0.0613	Open
P4795	J34_38	J35_38	145.00	300.0	140.0	0.0694	Open
P4796	J34_39	J34_40	145.00	100.0	140.0	0.1047	Open
P4797	J34_39	J35_39	145.00	200.0	125.0	0.1100	Open
P4798	J34_40	J34_41	145.00	200.0	135.0	0.0621	Open
P4799	J34_40	J35_40	145.00	300.0	140.0	0.0495	Open
P4800	J34_41	J34_42	145.00	450.0	125.0	0.0106	Open
P4801	J34_41	J35_41	145.00	350.0	120.0	0.0270	Open
P4802	J34_42	J34_43	145.00	250.0	130.0	0.1208	Open
P4803	J34_42	J35_42	145.00	250.0	125.0	0.0804	Open
P4804	J34_43	J34_44	145.00	250.0	135.0	0.1322	Open
P4805	J34_43	J35_43	145.00	100.0	135.0	0.0615	Open
P4806	J34_44	J34_45	145.00	250.0	125.0	0.1422	Open
P4807	J34_44	J35_44	145.00	250.0	140.0	0.0394	Open
P4808	J34_45	J34_46	145.00	150.0	135.0	0.0434	Open
P4809	J34_45	J35_45	145.00	300.0	130.0	0.0432	Open
P4810	J34_46	J34_47	145.00	150.0	140.0	0.1130	Open
P4811	J34_46	J35_46	145.00	150.0	125.0	0.0961	Open
P4812	J34_47	J34_48	145.00	300.0	125.0	0.1126	Open
P4813	J34_47	J35_47	145.00	250.0	140.0	0.0446	Open
P4814	J34_48	J34_49	145.00	300.0	125.0	0.1032	Open
P4815	J34_48	J35_48	145.00	150.0	125.0	0.0060	Open
P4816	J34_49	J34_50	145.00	200.0	135.0	0.0508	Open
P4817	J34_49	J35_49	145.00	200.0	130.0	0.1398	Open
P4818	J34_50	J34_51	145.00	150.0	135.0	0.1188	Open
P4819	J34_50	J35_50	145.00	200.0	125.0	0.0910	Open
P4820	J34_51	J34_52	145.00	350.0	120.0	0.0137	Open
P4821	J34_51	J35_51	145.00	350.0	120.0	0.0208	Open
P4822	J34_52	J34_53	145.00	250.0	140.0	0.0224	Open
P4823	J34_52	J35_52	145.00	200.0	140.0	0.1186	Open
P4824	J34_53	J34_54	145.00	100.0	130.0	0.0853	Open
P4825	J34_53	J35_53	145.00	150.0	130.0	0.1255	Open
P4826	J34_54	J34_55	145.00	150.0	140.0	0.0102	Open
P4827	J34_54	J35_54	145.00	300.0	130.0	0.1200	Open
P4828	J34_55	J34_56	145.00	200.0	125.0	0.1395	Open
P4829	J34_55	J35_55	145.00	200.0	140.0	0.1261	Open
P4830	J34_56	J34_57	145.00	250.0	135.0	0.0873	Open
P4831	J34_56	J35_56	145.00	300.0	130.0	0.0095	Open
P4832	J34_57	J34_58	145.00	100.0	135.0	0.1458	Open
P4833	J34_57	J35_57	145.00	150.0	140.0	0.0918	Open
P4834	J34_58	J34_59	145.00	150.0	130.0	0.1194	Open
P4835	J34_58	J35_58	145.00	250.0	135.0	0.0976	Open
P4836	J34_59	J34_60	145.00	250.0	135.0	0.0635	Open
P4837	J34_59	J35_59	145.00	200.0	130.0	0.0650	Open
P4838	J34_60	J34_61	145.00	300.0	140.0	0.0075	Open
P4839	J34_60	J35_60	145.00	100.0	135.0	0.0952	Open
P4840	J34_61	J34_62	145.00	300.0	120.0	0.0281	Open
P4841	J34_61	J35_61	145.00	300.0	130.0	0.0469	Open
P4842	J34_62	J34_63	145.00	150.0	135.0	0.1252	Open
P4843	J34_62	J35_62	145.00	250.0	130.0	0.1342	Open
P4844	J34_63	J34_64	145.00	200.0	135.0	0.0311	Open
P4845	J34_63	J35_63	145.00	100.0	140.0	0.1079	Open
P4846	J34_64	J34_65	145.00	300.0	140.0	0.0672	Open
P4847	J34_64	J35_64	145.00	300.0	135.0	0.0625	Open
P4848	J34_65	J34_66	145.00	250.0	135.0	0.0721	Open
P4849	J34_65	J35_65	145.00	150.0	125.0	0.0266	Open
P4850	J34_66	J34_67	145.00	200.0	140.0	0.1077	Open
P4851	J34_66	J35_66	145.00	300.0	140.0	0.0223	Open
P4852	J34_67	J34_68	145.00	300.0	140.0	0.0630	Open
P4853	J34_67	J35_67	145.00	200.0	140.0	0.0854	Open
P4854	J34_68	J34_69	145.00	250.0	130.0	0.0308	Open
P4855	J34_68	J35_68	145.00	250.0	130.0	0.0740	Open
P4856	J34_69	J34_70	145.00	300.0	140.0	0.0640	Open
P4857	J34_69	J35_69	145.00	200.0	130.0	0.0298	Open
P4858	J34_70	J34_71	145.00	200.0	140.0	0.0872	Open
P4859	J34_70	J35_70	145.00	250.0	130.0	0.0686	Open
P4860	J34_71	J34_72	145.00	300.0	125.0	0.0242	Open
P4861	J34_71	J35_71	145.00	350.0	130.0	0.0056	Open
P4862	J34_72	J35_72	145.00	300.0	140.0	0.1436	Open
P4863	J35_1	J35_2	145.00	500.0	120.0	0.0386	Open
P4864	J35_1	J36_1	145.00	450.0	120.0	0.0161	Open
P4865	J35_2	J35_3	145.00	200.0	125.0	0.1274	Open
P4866	J35_2	J36_2	145.00	100.0	140.0	0.0616	Open
P4867	J35_3	J35_4	145.00	200.0	140.0	0.1453	Open
P4868	J35_3	J36_3	145.00	150.0	135.0	0.0019	Open
P4869	J35_4	J35_5	145.00	250.0	135.0	0.1078	Open
P4870	J35_4	J36_4	145.00	100.0	130.0	0.1336	Open
P4871	J35_5	J35_6	145.00	300.0	140.0	0.0143	Open
P4872	J35_5	J36_5	145.00	150.0	130.0	0.1112	Open
P4873	J35_6	J35_7	145.00	100.0	125.0	0.0406	Open
P4874	J35_6	J36_6	145.00	100.0	135.0	0.1435	Open
P4875	J35_7	J35_8	145.00	300.0	125.0	0.0322	Open
P4876	J35_7	J36_7	145.00	150.0	135.0	0.0274	Open
P4877	J35_8	J35_9	145.00	100.0	130.0	0.0494	Open
P4878	J35_8	J36_8	145.00	100.0	130.0	0.0482	Open
P4879	J35_9	J35_10	145.00	250.0	125.0	0.1292	Open
P4880	J35_9	J36_9	145.00	300.0	125.0	0.0289	Open
P4881	J35_10	J35_11	145.00	150.0	125.0	0.0102	Open
P4882	J35_10	J36_10	145.00	300.0	135.0	0.0750	Open
P4883	J35_11	J35_12	145.00	600.0	125.0	0.0107	Open
P4884	J35_11	J36_11	145.00	500.0	130.0	0.0268	Open
P4885	J35_12	J35_13	145.00	200.0	135.0	0.1002	Open
P4886	J35_12	J36_12	145.00	300.0	125.0	0.1231	Open
P4887	J35_13	J35_14	145.00	150.0	125.0	0.0962	Open
P4888	J35_13	J36_13	145.00	150.0	140.0	0.0379	Open
P4889	J35_14	J35_15	145.00	250.0	125.0	0.0219	Open
P4890	J35_14	J36_14	145.00	200.0	130.0	0.0921	Open
P4891	J35_15	J35_16	145.00	100.0	130.0	0.0864	Open
P4892	J35_15	J36_15	145.00	250.0	125.0	0.0939	Open
P4893	J35_16	J35_17	145.00	100.0	125.0	0.0926	Open
P4894	J35_16	J36_16	145.00	250.0	140.0	0.1495	Open
P4895	J35_17	J35_18	145.00	300.0	125.0	0.0616	Open
P4896	J35_17	J36_17	145.00	250.0	140.0	0.0372	Open
P4897	J35_18	J35_19	145.00	150.0	140.0	0.0791	Open
P4898	J35_18	J36_18	145.00	250.0	140.0	0.0605	Open
P4899	J35_19	J35_20	145.00	100.0	125.0	0.0245	Open
P4900	J35_19	J36_19	145.00	150.0	135.0	0.0160	Open
P4901	J35_20	J35_21	145.00	300.0	125.0	0.0157	Open
P4902	J35_20	J36_20	145.00	250.0	140.0	0.0723	Open
P4903	J35_21	J35_22	145.00	600.0	130.0	0.0252	Open
P4904	J35_21	J36_21	145.00	300.0	120.0	0.0244	Open
P4905	J35_22	J35_23	145.00	150.0	140.0	0.1036	Open
P4906	J35_22	J36_22	145.00	100.0	140.0	0.0822	Open
P4907	J35_23	J35_24	145.00	150.0	135.0	0.0420	Open
P4908	J35_23	J36_23	145.00	250.0	125.0	0.0539	Open
P4909	J35_24	J35_25	145.00	100.0	135.0	0.1310	Open
P4910	J35_24	J36_24	145.00	300.0	125.0	0.1080	Open
P4911	J35_25	J35_26	145.00	200.0	125.0	0.0861	Open
P4912	J35_25	J36_25	145.00	250.0	135.0	0.1119	Open
P4913	J35_26	J35_27	145.00	150.0	130.0	0.0194	Open
P4914	J35_26	J36_26	145.00	250.0	140.0	0.1426	Open
P4915	J35_27	J35_28	145.00	100.0	135.0	0.0787	Open
P4916	J35_27	J36_27	145.00	100.0	130.0	0.1479	Open
P4917	J35_28	J35_29	145.00	300.0	135.0	0.1226	Open
P4918	J35_28	J36_28	145.00	250.0	140.0	0.0281	Open
P4919	J35_29	J35_30	145.00	150.0	125.0	0.0684	Open
P4920	J35_29	J36_29	145.00	150.0	130.0	0.0224	Open
P4921	J35_30	J35_31	145.00	300.0	130.0	0.0799	Open
P4922	J35_30	J36_30	145.00	250.0	125.0	0.0944	Open
P4923	J35_31	J35_32	145.00	300.0	120.0	0.0312	Open
P4924	J35_31	J36_31	145.00	450.0	125.0	0.0158	Open
P4925	J35_32	J35_33	145.00	250.0	140.0	0.0307	Open
P4926	J35_32	J36_32	145.00	300.0	135.0	0.1065	Open
P4927	J35_33	J35_34	145.00	150.0	135.0	0.0874	Open
P4928	J35_33	J36_33	145.00	200.0	130.0	0.0638	Open
P4929	J35_34	J35_35	145.00	300.0	125.0	0.0336	Open
P4930	J35_34	J36_34	145.00	300.0	135.0	0.0675	Open
P4931	J35_35	J35_36	145.00	100.0	130.0	0.0620	Open
P4932	J35_35	J36_35	145.00	300.0	140.0	0.0919	Open
P4933	J35_36	J35_37	145.00	250.0	140.0	0.0577	Open
P4934	J35_36	J36_36	145.00	300.0	140.0	0.1160	Open
P4935	J35_37	J35_38	145.00	100.0	125.0	0.0419	Open
P4936	J35_37	J36_37	145.00	200.0	140.0	0.0014	Open
P4937	J35_38	J35_39	145.00	200.0	135.0	0.0177	Open
P4938	J35_38	J36_38	145.00	200.0	135.0	0.0932	Open
P4939	J35_39	J35_40	145.00	150.0	125.0	0.1050	Open
P4940	J35_39	J36_39	145.00	100.0	140.0	0.0972	Open
P4941	J35_40	J35_41	145.00	300.0	140.0	0.1059	Open
P4942	J35_40	J36_40	145.00	150.0	135.0	0.0122	Open
P4943	J35_41	J35_42	145.00	350.0	120.0	0.0078	Open
P4944	J35_41	J36_41	145.00	600.0	120.0	0.0076	Open
P4945	J35_42	J35_43	145.00	300.0	140.0	0.0036	Open
P4946	J35_42	J36_42	145.00	150.0	125.0	0.0743	Open
P4947	J35_43	J35_44	145.00	250.0	135.0	0.0496	Open
P4948	J35_43	J36_43	145.00	200.0	125.0	0.1013	Open
P4949	J35_44	J35_45	145.00	200.0	125.0	0.0195	Open
P4950	J35_44	J36_44	145.00	250.0	140.0	0.0263	Open
P4951	J35_45	J35_46	145.00	200.0	125.0	0.0694	Open
P4952	J35_45	J36_45	145.00	150.0	125.0	0.1256	Open
P4953	J35_46	J35_47	145.00	100.0	140.0	0.1218	Open
P4954	J35_46	J36_46	145.00	250.0	140.0	0.0587	Open
P4955	J35_47	J35_48	145.00	250.0	130.0	0.0985	Open
P4956	J35_47	J36_47	145.00	200.0	135.0	0.1377	Open
P4957	J35_48	J35_49	145.00	250.0	125.0	0.0985	Open
P4958	J35_48	J36_48	145.00	200.0	130.0	0.0367	Open
P4959	J35_49	J35_50	145.00	100.0	140.0	0.0471	Open
P4960	J35_49	J36_49	145.00	300.0	130.0	0.1059	Open
P4961	J35_50	J35_51	145.00	100.0	140.0	0.0597	Open
P4962	J35_50	J36_50	145.00	150.0	135.0	0.0482	Open
P4963	J35_51	J35_52	145.00	450.0	120.0	0.0453	Open
P4964	J35_51	J36_51	145.00	400.0	130.0	0.0119	Open
P4965	J35_52	J35_53	145.00	200.0	125.0	0.1243	Open
P4966	J35_52	J36_52	145.00	100.0	125.0	0.0039	Open
P4967	J35_53	J35_54	145.00	250.0	125.0	0.0224	Open
P4968	J35_53	J36_53	145.00	150.0	140.0	0.1476	Open
P4969	J35_54	J35_55	145.00	100.0	140.0	0.0268	Open
P4970	J35_54	J36_54	145.00	200.0	125.0	0.0116	Open
P4971	J35_55	J35_56	145.00	200.0	125.0	0.0639	Open
P4972	J35_55	J36_55	145.00	150.0	130.0	0.0299	Open
P4973	J35_56	J35_57	145.00	100.0	125.0	0.0070	Open
P4974	J35_56	J36_56	145.00	100.0	125.0	0.1264	Open
P4975	J35_57	J35_58	145.00	100.0	125.0	0.0049	Open
P4976	J35_57	J36_57	145.00	100.0	140.0	0.1344	Open
P4977	J35_58	J35_59	145.00	200.0	135.0	0.1468	Open
P4978	J35_58	J36_58	145.00	150.0	130.0	0.0178	Open
P4979	J35_59	J35_60	145.00	150.0	140.0	0.0514	Open
P4980	J35_59	J36_59	145.00	200.0	135.0	0.1013	Open
P4981	J35_60	J35_61	145.00	100.0	130.0	0.1350	Open
P4982	J35_60	J36_60	145.00	300.0	140.0	0.0826	Open
P4983	J35_61	J35_62	145.00	300.0	130.0	0.0278	Open
P4984	J35_61	J36_61	145.00	400.0	120.0	0.0167	Open
P4985	J35_62	J35_63	145.00	300.0	140.0	0.0151	Open
P4986	J35_62	J36_62	145.00	200.0	140.0	0.0125	Open
P4987	J35_63	J35_64	145.00	250.0	135.0	0.1151	Open
P4988	J35_63	J36_63	145.00	100.0	140.0	0.0175	Open
P4989	J35_64	J35_65	145.00	300.0	125.0	0.0006	Open
P4990	J35_64	J36_64	145.00	300.0	130.0	0.0830	Open
P4991	J35_65	J35_66	145.00	200.0	140.0	0.0508	Open
P4992	J35_65	J36_65	145.00	250.0	130.0	0.1026	Open
P4993	J35_66	J35_67	145.00	250.0	135.0	0.0871	Open
P4994	J35_66	J36_66	145.00	150.0	130.0	0.0406	Open
P4995	J35_67	J35_68	145.00	200.0	125.0	0.0930	Open
P4996	J35_67	J36_67	145.00	100.0	130.0	0.0331	Open
P4997	J35_68	J35_69	145.00	100.0	135.0	0.0272	Open
P4998	J35_68	J36_68	145.00	200.0	130.0	0.0625	Open
P4999	J35_69	J35_70	145.00	250.0	135.0	0.0970	Open
P5000	J35_69	J36_69	145.00	100.0	135.0	0.1499	Open
P5001	J35_70	J35_71	145.00	150.0	140.0	0.0768	Open
P5002	J35_70	J36_70	145.00	300.0	140.0	0.0145	Open
P5003	J35_71	J35_72	145.00	400.0	125.0	0.0169	Open
P5004	J35_71	J36_71	145.00	600.0	120.0	0.0323	Open
P5005	J35_72	J36_72	145.00	200.0	125.0	0.0738	Open
P5006	J36_1	J36_2	145.00	600.0	120.0	0.0317	Open
P5007	J36_1	J37_1	145.00	400.0	120.0	0.0346	Open
P5008	J36_2	J36_3	145.00	100.0	130.0	0.0277	Open
P5009	J36_2	J37_2	145.00	100.0	130.0	0.0460	Open
P5010	J36_3	J36_4	145.00	200.0	125.0	0.0555	Open
P5011	J36_3	J37_3	145.00	300.0	140.0	0.0781	Open
P5012	J36_4	J36_5	145.00	250.0	130.0	0.1261	Open
P5013	J36_4	J37_4	145.00	100.0	125.0	0.0737	Open
P5014	J36_5	J36_6	145.00	200.0	130.0	0.0890	Open
P5015	J36_5	J37_5	145.00	300.0	140.0	0.0321	Open
P5016	J36_6	J36_7	145.00	200.0	130.0	0.0337	Open
P5017	J36_6	J37_6	145.00	100.0	135.0	0.0375	Open
P5018	J36_7	J36_8	145.00	100.0	140.0	0.0557	Open
P5019	J36_7	J37_7	145.00	250.0	125.0	0.0273	Open
P5020	J36_8	J36_9	145.00	100.0	135.0	0.1492	Open
P5021	J36_8	J37_8	145.00	250.0	135.0	0.0788	Open
P5022	J36_9	J36_10	145.00	300.0	125.0	0.0614	Open
P5023	J36_9	J37_9	145.00	150.0	140.0	0.1370	Open
P5024	J36_10	J36_11	145.00	300.0	130.0	0.0689	Open
P5025	J36_10	J37_10	145.00	150.0	130.0	0.0379	Open
P5026	J36_11	J36_12	145.00	350.0	120.0	0.0479	Open
P5027	J36_11	J37_11	145.00	350.0	125.0	0.0341	Open
P5028	J36_12	J36_13	145.00	250.0	125.0	0.0707	Open
P5029	J36_12	J37_12	145.00	250.0	140.0	0.0211	Open
P5030	J36_13	J36_14	145.00	150.0	140.0	0.0026	Open
P5031	J36_13	J37_13	145.00	150.0	135.0	0.1348	Open
P5032	J36_14	J36_15	145.00	100.0	140.0	0.0945	Open
P5033	J36_14	J37_14	145.00	100.0	135.0	0.0378	Open
P5034	J36_15	J36_16	145.00	250.0	140.0	0.0231	Open
P5035	J36_15	J37_15	145.00	250.0	135.0	0.1437	Open
P5036	J36_16	J36_17	145.00	250.0	135.0	0.0878	Open
P5037	J36_16	J37_16	145.00	300.0	125.0	0.0371	Open
P5038	J36_17	J36_18	145.00	200.0	140.0	0.1453	Open
P5039	J36_17	J37_17	145.00	250.0	135.0	0.1198	Open
P5040	J36_18	J36_19	145.00	150.0	125.0	0.0640	Open
P5041	J36_18	J37_18	145.00	100.0	135.0	0.0122	Open
P5042	J36_19	J36_20	145.00	100.0	125.0	0.0820	Open
P5043	J36_19	J37_19	145.00	150.0	135.0	0.0512	Open
P5044	J36_20	J36_21	145.00	300.0	125.0	0.0999	Open
P5045	J36_20	J37_20	145.00	250.0	140.0	0.1121	Open
P5046	J36_21	J36_22	145.00	300.0	125.0	0.0287	Open
P5047	J36_21	J37_21	145.00	400.0	125.0	0.0329	Open
P5048	J36_22	J36_23	145.00	250.0	130.0	0.1495	Open
P5049	J36_22	J37_22	145.00	150.0	135.0	0.0680	Open
P5050	J36_23	J36_24	145.00	250.0	135.0	0.1297	Open
P5051	J36_23	J37_23	145.00	250.0	135.0	0.0482	Open
P5052	J36_24	J36_25	145.00	300.0	125.0	0.0169	Open
P5053	J36_24	J37_24	145.00	250.0	130.0	0.1422	Open
P5054	J36_25	J36_26	145.00	200.0	130.0	0.0017	Open
P5055	J36_25	J37_25	145.00	200.0	135.0	0.0355	Open
P5056	J36_26	J36_27	145.00	200.0	125.0	0.1220	Open
P5057	J36_26	J37_26	145.00	150.0	140.0	0.0249	Open
P5058	J36_27	J36_28	145.00	300.0	125.0	0.0157	Open
P5059	J36_27	J37_27	145.00	300.0	140.0	0.1403	Open
P5060	J36_28	J36_29	145.00	150.0	140.0	0.0827	Open
P5061	J36_28	J37_28	145.00	150.0	140.0	0.1235	Open
P5062	J36_29	J36_30	145.00	100.0	130.0	0.0443	Open
P5063	J36_29	J37_29	145.00	300.0	135.0	0.0307	Open
P5064	J36_30	J36_31	145.00	250.0	125.0	0.0355	Open
P5065	J36_30	J37_30	145.00	150.0	130.0	0.0811	Open
P5066	J36_31	J36_32	145.00	450.0	125.0	0.0407	Open
P5067	J36_31	J37_31	145.00	600.0	120.0	0.0313	Open
P5068	J36_32	J36_33	145.00	200.0	140.0	0.1250	Open
P5069	J36_32	J37_32	145.00	150.0	135.0	0.1162	Open
P5070	J36_33	J36_34	145.00	300.0	130.0	0.0210	Open
P5071	J36_33	J37_33	145.00	250.0	135.0	0.0483	Open
P5072	J36_34	J36_35	145.00	300.0	140.0	0.0894	Open
P5073	J36_34	J37_34	145.00	250.0	135.0	0.0607	Open
P5074	J36_35	J36_36	145.00	200.0	135.0	0.0166	Open
P5075	J36_35	J37_35	145.00	150.0	140.0	0.0449	Open
P5076	J36_36	J36_37	145.00	200.0	130.0	0.0303	Open
P5077	J36_36	J37_36	145.00	250.0	135.0	0.0274	Open
P5078	J36_37	J36_38	145.00	250.0	140.0	0.1125	Open
P5079	J36_37	J37_37	145.00	100.0	125.0	0.1487	Open
P5080	J36_38	J36_39	145.00	200.0	140.0	0.0455	Open
P5081	J36_38	J37_38	145.00	100.0	135.0	0.1484	Open
P5082	J36_39	J36_40	145.00	250.0	135.0	0.0004	Open
P5083	J36_39	J37_39	145.00	300.0	125.0	0.0946	Open
P5084	J36_40	J36_41	145.00	250.0	140.0	0.1473	Open
P5085	J36_40	J37_40	145.00	300.0	135.0	0.0636	Open
P5086	J36_41	J36_42	145.00	400.0	120.0	0.0057	Open
P5087	J36_41	J37_41	145.00	600.0	130.0	0.0041	Open
P5088	J36_42	J36_43	145.00	250.0	125.0	0.0693	Open
P5089	J36_42	J37_42	145.00	300.0	125.0	0.0466	Open
P5090	J36_43	J36_44	145.00	200.0	125.0	0.1366	Open
P5091	J36_43	J37_43	145.00	300.0	130.0	0.0793	Open
P5092	J36_44	J36_45	145.00	100.0	125.0	0.0842	Open
P5093	J36_44	J37_44	145.00	300.0	130.0	0.0026	Open
P5094	J36_45	J36_46	145.00	250.0	125.0	0.0151	Open
P5095	J36_45	J37_45	145.00	100.0	140.0	0.0695	Open
P5096	J36_46	J36_47	145.00	200.0	140.0	0.0340	Open
P5097	J36_46	J37_46	145.00	150.0	135.0	0.0491	Open
P5098	J36_47	J36_48	145.00	200.0	135.0	0.0356	Open
P5099	J36_47	J37_47	145.00	250.0	130.0	0.0615	Open
P5100	J36_48	J36_49	145.00	150.0	140.0	0.1255	Open
P5101	J36_48	J37_48	145.00	150.0	125.0	0.1163	Open
P5102	J36_49	J36_50	145.00	250.0	125.0	0.0541	Open
P5103	J36_49	J37_49	145.00	250.0	140.0	0.0107	Open
P5104	J36_50	J36_51	145.00	150.0	135.0	0.0590	Open
P5105	J36_50	J37_50	145.00	100.0	140.0	0.1280	Open
P5106	J36_51	J36_52	145.00	300.0	125.0	0.0086	Open
P5107	J36_51	J37_51	145.00	600.0	130.0	0.0224	Open
P5108	J36_52	J36_53	145.00	150.0	130.0	0.0644	Open
P5109	J36_52	J37_52	145.00	200.0	135.0	0.0675	Open
P5110	J36_53	J36_54	145.00	300.0	140.0	0.0580	Open
P5111	J36_53	J37_53	145.00	150.0	140.0	0.1488	Open
P5112	J36_54	J36_55	145.00	100.0	125.0	0.0907	Open
P5113	J36_54	J37_54	145.00	300.0	140.0	0.1243	Open
P5114	J36_55	J36_56	145.00	150.0	140.0	0.0107	Open
P5115	J36_55	J37_55	145.00	200.0	125.0	0.0334	Open
P5116	J36_56	J36_57	145.00	150.0	130.0	0.0665	Open
P5117	J36_56	J37_56	145.00	100.0	135.0	0.0746	Open
P5118	J36_57	J36_58	145.00	300.0	140.0	0.1038	Open
P5119	J36_57	J37_57	145.00	300.0	125.0	0.0470	Open
P5120	J36_58	J36_59	145.00	300.0	125.0	0.0574	Open
P5121	J36_58	J37_58	145.00	200.0	135.0	0.0502	Open
P5122	J36_59	J36_60	145.00	100.0	140.0	0.0471	Open
P5123	J36_59	J37_59	145.00	200.0	135.0	0.0946	Open
P5124	J36_60	J36_61	145.00	100.0	135.0	0.0623	Open
P5125	J36_60	J37_60	145.00	250.0	125.0	0.1133	Open
P5126	J36_61	J36_62	145.00	500.0	120.0	0.0049	Open
P5127	J36_61	J37_61	145.00	400.0	125.0	0.0005	Open
P5128	J36_62	J36_63	145.00	300.0	125.0	0.1051	Open
P5129	J36_62	J37_62	145.00	250.0	130.0	0.0809	Open
P5130	J36_63	J36_64	145.00	200.0	125.0	0.0548	Open
P5131	J36_63	J37_63	145.00	100.0	140.0	0.0968	Open
P5132	J36_64	J36_65	145.00	150.0	140.0	0.0249	Open
P5133	J36_64	J37_64	145.00	300.0	130.0	0.0441	Open
P5134	J36_65	J36_66	145.00	300.0	125.0	0.0674	Open
P5135	J36_65	J37_65	145.00	300.0	135.0	0.1415	Open
P5136	J36_66	J36_67	145.00	250.0	130.0	0.1248	Open
P5137	J36_66	J37_66	145.00	200.0	125.0	0.0063	Open
P5138	J36_67	J36_68	145.00	250.0	125.0	0.1222	Open
P5139	J36_67	J37_67	145.00	300.0	135.0	0.0486	Open
P5140	J36_68	J36_69	145.00	150.0	140.0	0.0281	Open
P5141	J36_68	J37_68	145.00	150.0	140.0	0.1080	Open
P5142	J36_69	J36_70	145.00	300.0	135.0	0.1088	Open
P5143	J36_69	J37_69	145.00	100.0	135.0	0.0257	Open
P5144	J36_70	J36_71	145.00	100.0	130.0	0.1304	Open
P5145	J36_70	J37_70	145.00	100.0	135.0	0.1246	Open
P5146	J36_71	J36_72	145.00	600.0	120.0	0.0358	Open
P5147	J36_71	J37_71	145.00	300.0	125.0	0.0372	Open
P5148	J36_72	J37_72	145.00	100.0	135.0	0.1429	Open
P5149	J37_1	J37_2	145.00	350.0	120.0	0.0025	Open
P5150	J37_1	J38_1	145.00	600.0	120.0	0.0214	Open
P5151	J37_2	J37_3	145.00	250.0	140.0	0.0951	Open
P5152	J37_2	J38_2	145.00	250.0	130.0	0.0919	Open
P5153	J37_3	J37_4	145.00	200.0	125.0	0.0350	Open
P5154	J37_3	J38_3	145.00	300.0	130.0	0.0160	Open
P5155	J37_4	J37_5	145.00	250.0	140.0	0.0297	Open
P5156	J37_4	J38_4	145.00	300.0	135.0	0.0745	Open
P5157	J37_5	J37_6	145.00	250.0	125.0	0.1254	Open
P5158	J37_5	J38_5	145.00	250.0	140.0	0.0974	Open
P5159	J37_6	J37_7	145.00	200.0	135.0	0.0451	Open
P5160	J37_6	J38_6	145.00	250.0	140.0	0.0452	Open
P5161	J37_7	J37_8	145.00	150.0	125.0	0.1457	Open
P5162	J37_7	J38_7	145.00	200.0	135.0	0.1339	Open
P5163	J37_8	J37_9	145.00	300.0	130.0	0.0767	Open
P5164	J37_8	J38_8	145.00	100.0	125.0	0.1167	Open
P5165	J37_9	J37_10	145.00	100.0	140.0	0.0233	Open
P5166	J37_9	J38_9	145.00	100.0	140.0	0.1098	Open
P5167	J37_10	J37_11	145.00	150.0	125.0	0.0451	Open
P5168	J37_10	J38_10	145.00	200.0	130.0	0.0625	Open
P5169	J37_11	J37_12	145.00	450.0	120.0	0.0427	Open
P5170	J37_11	J38_11	145.00	450.0	125.0	0.0085	Open
P5171	J37_12	J37_13	145.00	300.0	125.0	0.0742	Open
P5172	J37_12	J38_12	145.00	200.0	135.0	0.0635	Open
P5173	J37_13	J37_14	145.00	250.0	135.0	0.1034	Open
P5174	J37_13	J38_13	145.00	300.0	125.0	0.0248	Open
P5175	J37_14	J37_15	145.00	100.0	140.0	0.0498	Open
P5176	J37_14	J38_14	145.00	150.0	135.0	0.0286	Open
P5177	J37_15	J37_16	145.00	100.0	135.0	0.0054	Open
P5178	J37_15	J38_15	145.00	200.0	135.0	0.1197	Open
P5179	J37_16	J37_17	145.00	150.0	130.0	0.1041	Open
P5180	J37_16	J38_16	145.00	100.0	125.0	0.0503	Open
P5181	J37_17	J37_18	145.00	250.0	130.0	0.0758	Open
P5182	J37_17	J38_17	145.00	200.0	140.0	0.0175	Open
P5183	J37_18	J37_19	145.00	100.0	130.0	0.0637	Open
P5184	J37_18	J38_18	145.00	100.0	130.0	0.0976	Open
P5185	J37_19	J37_20	145.00	100.0	140.0	0.0188	Open
P5186	J37_19	J38_19	145.00	150.0	125.0	0.0614	Open
P5187	J37_20	J37_21	145.00	150.0	125.0	0.1180	Open
P5188	J37_20	J38_20	145.00	100.0	140.0	0.0099	Open
P5189	J37_21	J37_22	145.00	500.0	125.0	0.0274	Open
P5190	J37_21	J38_21	145.00	300.0	125.0	0.0266	Open
P5191	J37_22	J37_23	145.00	250.0	140.0	0.1435	Open
P5192	J37_22	J38_22	145.00	200.0	140.0	0.0237	Open
P5193	J37_23	J37_24	145.00	100.0	130.0	0.1408	Open
P5194	J37_23	J38_23	145.00	100.0	125.0	0.1247	Open
P5195	J37_24	J37_25	145.00	200.0	130.0	0.0260	Open
P5196	J37_24	J38_24	145.00	150.0	135.0	0.0204	Open
P5197	J37_25	J37_26	145.00	250.0	130.0	0.0794	Open
P5198	J37_25	J38_25	145.00	150.0	135.0	0.0361	Open
P5199	J37_26	J37_27	145.00	150.0	140.0	0.1116	Open
P5200	J37_26	J38_26	145.00	300.0	130.0	0.0684	Open
P5201	J37_27	J37_28	145.00	100.0	125.0	0.0933	Open
P5202	J37_27	J38_27	145.00	150.0	125.0	0.0619	Open
P5203	J37_28	J37_29	145.00	250.0	125.0	0.0215	Open
P5204	J37_28	J38_28	145.00	150.0	135.0	0.1163	Open
P5205	J37_29	J37_30	145.00	300.0	135.0	0.1064	Open
P5206	J37_29	J38_29	145.00	150.0	135.0	0.1045	Open
P5207	J37_30	J37_31	145.00	150.0	135.0	0.0735	Open
P5208	J37_30	J38_30	145.00	250.0	140.0	0.0275	Open
P5209	J37_31	J37_32	145.00	350.0	130.0	0.0241	Open
P5210	J37_31	J38_31	145.00	400.0	125.0	0.0048	Open
P5211	J37_32	J37_33	145.00	200.0	135.0	0.1162	Open
P5212	J37_32	J38_32	145.00	150.0	140.0	0.0525	Open
P5213	J37_33	J37_34	145.00	250.0	140.0	0.0889	Open
P5214	J37_33	J38_33	145.00	250.0	130.0	0.0995	Open
P5215	J37_34	J37_35	145.00	300.0	130.0	0.0865	Open
P5216	J37_34	J38_34	145.00	150.0	130.0	0.1107	Open
P5217	J37_35	J37_36	145.00	300.0	130.0	0.0426	Open
P5218	J37_35	J38_35	145.00	250.0	130.0	0.0556	Open
P5219	J37_36	J37_37	145.00	200.0	125.0	0.0786	Open
P5220	J37_36	J38_36	145.00	200.0	125.0	0.0377	Open
P5221	J37_37	J37_38	145.00	100.0	135.0	0.1226	Open
P5222	J37_37	J38_37	145.00	150.0	140.0	0.0020	Open
P5223	J37_38	J37_39	145.00	250.0	140.0	0.1490	Open
P5224	J37_38	J38_38	145.00	300.0	140.0	0.0924	Open
P5225	J37_39	J37_40	145.00	200.0	135.0	0.1397	Open
P5226	J37_39	J38_39	145.00	250.0	135.0	0.0611	Open
P5227	J37_40	J37_41	145.00	300.0	140.0	0.1237	Open
P5228	J37_40	J38_40	145.00	200.0	140.0	0.1268	Open
P5229	J37_41	J37_42	145.00	300.0	125.0	0.0134	Open
P5230	J37_41	J38_41	145.00	300.0	130.0	0.0279	Open
P5231	J37_42	J37_43	145.00	100.0	135.0	0.0795	Open
P5232	J37_42	J38_42	145.00	150.0	140.0	0.0178	Open
P5233	J37_43	J37_44	145.00	300.0	135.0	0.0007	Open
P5234	J37_43	J38_43	145.00	300.0	140.0	0.0357	Open
P5235	J37_44	J37_45	145.00	150.0	140.0	0.0844	Open
P5236	J37_44	J38_44	145.00	250.0	125.0	0.0425	Open
P5237	J37_45	J37_46	145.00	150.0	130.0	0.1475	Open
P5238	J37_45	J38_45	145.00	100.0	125.0	0.0740	Open
P5239	J37_46	J37_47	145.00	200.0	130.0	0.1275	Open
P5240	J37_46	J38_46	145.00	200.0	135.0	0.0686	Open
P5241	J37_47	J37_48	145.00	250.0	130.0	0.1144	Open
P5242	J37_47	J38_47	145.00	200.0	125.0	0.0763	Open
P5243	J37_48	J37_49	145.00	100.0	135.0	0.0437	Open
P5244	J37_48	J38_48	145.00	250.0	125.0	0.1142	Open
P5245	J37_49	J37_50	145.00	300.0	140.0	0.0455	Open
P5246	J37_49	J38_49	145.00	100.0	135.0	0.0009	Open
P5247	J37_50	J37_51	145.00	200.0	125.0	0.0403	Open
P5248	J37_50	J38_50	145.00	100.0	140.0	0.0898	Open
P5249	J37_51	J37_52	145.00	600.0	130.0	0.0201	Open
P5250	J37_51	J38_51	145.00	350.0	120.0	0.0493	Open
P5251	J37_52	J37_53	145.00	250.0	140.0	0.0440	Open
P5252	J37_52	J38_52	145.00	250.0	130.0	0.1389	Open
P5253	J37_53	J37_54	145.00	200.0	130.0	0.0589	Open
P5254	J37_53	J38_53	145.00	300.0	135.0	0.1216	Open
P5255	J37_54	J37_55	145.00	200.0	125.0	0.0193	Open
P5256	J37_54	J38_54	145.00	100.0	125.0	0.1111	Open
P5257	J37_55	J37_56	145.00	100.0	135.0	0.1322	Open
P5258	J37_55	J38_55	145.00	250.0	140.0	0.1174	Open
P5259	J37_56	J37_57	145.00	200.0	135.0	0.1258	Open
P5260	J37_56	J38_56	145.00	250.0	135.0	0.1308	Open
P5261	J37_57	J37_58	145.00	100.0	130.0	0.0533	Open
P5262	J37_57	J38_57	145.00	150.0	125.0	0.1017	Open
P5263	J37_58	J37_59	145.00	200.0	125.0	0.0303	Open
P5264	J37_58	J38_58	145.00	200.0	125.0	0.0030	Open
P5265	J37_59	J37_60	145.00	200.0	130.0	0.0724	Open
P5266	J37_59	J38_59	145.00	150.0	125.0	0.0288	Open
P5267	J37_60	J37_61	145.00	300.0	125.0	0.1224	Open
P5268	J37_60	J38_60	145.00	200.0	140.0	0.0648	Open
P5269	J37_61	J37_62	145.00	500.0	130.0	0.0196	Open
P5270	J37_61	J38_61	145.00	350.0	125.0	0.0204	Open
P5271	J37_62	J37_63	145.00	150.0	130.0	0.0918	Open
P5272	J37_62	J38_62	145.00	150.0	135.0	0.0561	Open
P5273	J37_63	J37_64	145.00	100.0	130.0	0.1452	Open
P5274	J37_63	J38_63	145.00	150.0	125.0	0.0301	Open
P5275	J37_64	J37_65	145.00	100.0	135.0	0.1332	Open
P5276	J37_64	J38_64	145.00	300.0	130.0	0.1056	Open
P5277	J37_65	J37_66	145.00	250.0	130.0	0.0463	Open
P5278	J37_65	J38_65	145.00	250.0	140.0	0.0079	Open
P5279	J37_66	J37_67	145.00	150.0	125.0	0.0039	Open
P5280	J37_66	J38_66	145.00	200.0	135.0	0.1144	Open
P5281	J37_67	J37_68	145.00	150.0	140.0	0.0426	Open
P5282	J37_67	J38_67	145.00	250.0	130.0	0.0872	Open
P5283	J37_68	J37_69	145.00	300.0	125.0	0.0696	Open
P5284	J37_68	J38_68	145.00	150.0	130.0	0.0955	Open
P5285	J37_69	J37_70	145.00	300.0	135.0	0.1346	Open
P5286	J37_69	J38_69	145.00	100.0	125.0	0.0216	Open
P5287	J37_70	J37_71	145.00	250.0	135.0	0.1121	Open
P5288	J37_70	J38_70	145.00	200.0	125.0	0.1291	Open
P5289	J37_71	J37_72	145.00	300.0	125.0	0.0435	Open
P5290	J37_71	J38_71	145.00	450.0	130.0	0.0192	Open
P5291	J37_72	J38_72	145.00	200.0	140.0	0.0478	Open
P5292	J38_1	J38_2	145.00	300.0	125.0	0.0365	Open
P5293	J38_1	J39_1	145.00	500.0	120.0	0.0146	Open
P5294	J38_2	J38_3	145.00	150.0	135.0	0.0262	Open
P5295	J38_2	J39_2	145.00	200.0	130.0	0.1480	Open
P5296	J38_3	J38_4	145.00	250.0	140.0	0.1106	Open
P5297	J38_3	J39_3	145.00	100.0	130.0	0.0801	Open
P5298	J38_4	J38_5	145.00	150.0	140.0	0.0348	Open
P5299	J38_4	J39_4	145.00	300.0	130.0	0.0787	Open
P5300	J38_5	J38_6	145.00	200.0	130.0	0.1324	Open
P5301	J38_5	J39_5	145.00	250.0	125.0	0.0606	Open
P5302	J38_6	J38_7	145.00	200.0	130.0	0.0091	Open
P5303	J38_6	J39_6	145.00	300.0	135.0	0.0254	Open
P5304	J38_7	J38_8	145.00	250.0	125.0	0.0183	Open
P5305	J38_7	J39_7	145.00	200.0	135.0	0.1063	Open
P5306	J38_8	J38_9	145.00	300.0	130.0	0.0676	Open
P5307	J38_8	J39_8	145.00	250.0	135.0	0.0552	Open
P5308	J38_9	J38_10	145.00	100.0	125.0	0.0974	Open
P5309	J38_9	J39_9	145.00	200.0	125.0	0.0879	Open
P5310	J38_10	J38_11	145.00	250.0	135.0	0.0465	Open
P5311	J38_10	J39_10	145.00	100.0	130.0	0.0223	Open
P5312	J38_11	J38_12	145.00	450.0	120.0	0.0371	Open
P5313	J38_11	J39_11	145.00	350.0	125.0	0.0381	Open
P5314	J38_12	J38_13	145.00	300.0	135.0	0.0354	Open
P5315	J38_12	J39_12	145.00	250.0	140.0	0.0918	Open
P5316	J38_13	J38_14	145.00	150.0	125.0	0.0109	Open
P5317	J38_13	J39_13	145.00	150.0	140.0	0.0355	Open
P5318	J38_14	J38_15	145.00	250.0	135.0	0.0463	Open
P5319	J38_14	J39_14	145.00	250.0	130.0	0.1228	Open
P5320	J38_15	J38_16	145.00	250.0	140.0	0.0394	Open
P5321	J38_15	J39_15	145.00	200.0	125.0	0.0834	Open
P5322	J38_16	J38_17	145.00	300.0	135.0	0.1121	Open
P5323	J38_16	J39_16	145.00	300.0	140.0	0.0351	Open
P5324	J38_17	J38_18	145.00	100.0	135.0	0.0291	Open
P5325	J38_17	J39_17	145.00	200.0	135.0	0.0489	Open
P5326	J38_18	J38_19	145.00	150.0	135.0	0.1349	Open
P5327	J38_18	J39_18	145.00	300.0	135.0	0.1151	Open
P5328	J38_19	J38_20	145.00	200.0	140.0	0.1171	Open
P5329	J38_19	J39_19	145.00	300.0	125.0	0.1121	Open
P5330	J38_20	J38_21	145.00	300.0	140.0	0.0310	Open
P5331	J38_20	J39_20	145.00	100.0	125.0	0.0263	Open
P5332	J38_21	J38_22	145.00	500.0	120.0	0.0221	Open
P5333	J38_21	J39_21	145.00	500.0	120.0	0.0318	Open
P5334	J38_22	J38_23	145.00	100.0	140.0	0.0381	Open
P5335	J38_22	J39_22	145.00	200.0	140.0	0.1255	Open
P5336	J38_23	J38_24	145.00	300.0	140.0	0.0871	Open
P5337	J38_23	J39_23	145.00	150.0	135.0	0.0599	Open
P5338	J38_24	J38_25	145.00	100.0	125.0	0.0229	Open
P5339	J38_24	J39_24	145.00	250.0	140.0	0.1240	Open
P5340	J38_25	J38_26	145.00	250.0	140.0	0.0355	Open
P5341	J38_25	J39_25	145.00	250.0	130.0	0.0947	Open
P5342	J38_26	J38_27	145.00	300.0	135.0	0.1265	Open
P5343	J38_26	J39_26	145.00	200.0	140.0	0.1281	Open
P5344	J38_27	J38_28	145.00	200.0	125.0	0.0409	Open
P5345	J38_27	J39_27	145.00	300.0	125.0	0.1076	Open
P5346	J38_28	J38_29	145.00	250.0	140.0	0.1034	Open
P5347	J38_28	J39_28	145.00	100.0	125.0	0.0405	Open
P5348	J38_29	J38_30	145.00	250.0	130.0	0.0396	Open
P5349	J38_29	J39_29	145.00	200.0	140.0	0.1318	Open
P5350	J38_30	J38_31	145.00	250.0	130.0	0.1392	Open
P5351	J38_30	J39_30	145.00	300.0	125.0	0.1416	Open
P5352	J38_31	J38_32	145.00	300.0	120.0	0.0042	Open
P5353	J38_31	J39_31	145.00	500.0	125.0	0.0140	Open
P5354	J38_32	J38_33	145.00	200.0	130.0	0.0596	Open
P5355	J38_32	J39_32	145.00	100.0	140.0	0.0104	Open
P5356	J38_33	J38_34	145.00	300.0	140.0	0.0606	Open
P5357	J38_33	J39_33	145.00	250.0	140.0	0.0832	Open
P5358	J38_34	J38_35	145.00	100.0	140.0	0.0710	Open
P5359	J38_34	J39_34	145.00	200.0	130.0	0.0539	Open
P5360	J38_35	J38_36	145.00	300.0	135.0	0.0982	Open
P5361	J38_35	J39_35	145.00	100.0	130.0	0.1071	Open
P5362	J38_36	J38_37	145.00	150.0	125.0	0.1386	Open
P5363	J38_36	J39_36	145.00	250.0	135.0	0.0011	Open
P5364	J38_37	J38_38	145.00	250.0	125.0	0.0568	Open
P5365	J38_37	J39_37	145.00	300.0	135.0	0.0255	Open
P5366	J38_38	J38_39	145.00	250.0	130.0	0.0841	Open
P5367	J38_38	J39_38	145.00	200.0	135.0	0.0358	Open
P5368	J38_39	J38_40	145.00	100.0	130.0	0.1469	Open
P5369	J38_39	J39_39	145.00	100.0	130.0	0.1369	Open
P5370	J38_40	J38_41	145.00	100.0	135.0	0.0413	Open
P5371	J38_40	J39_40	145.00	100.0	135.0	0.0567	Open
P5372	J38_41	J38_42	145.00	500.0	120.0	0.0076	Open
P5373	J38_41	J39_41	145.00	450.0	125.0	0.0223	Open
P5374	J38_42	J38_43	145.00	150.0	140.0	0.0268	Open
P5375	J38_42	J39_42	145.00	100.0	125.0	0.1434	Open
P5376	J38_43	J38_44	145.00	250.0	140.0	0.1102	Open
P5377	J38_43	J39_43	145.00	300.0	125.0	0.0351	Open
P5378	J38_44	J38_45	145.00	150.0	130.0	0.1028	Open
P5379	J38_44	J39_44	145.00	100.0	135.0	0.0219	Open
P5380	J38_45	J38_46	145.00	200.0	130.0	0.0498	Open
P5381	J38_45	J39_45	145.00	200.0	135.0	0.0717	Open
P5382	J38_46	J38_47	145.00	100.0	130.0	0.0052	Open
P5383	J38_46	J39_46	145.00	150.0	130.0	0.1103	Open
P5384	J38_47	J38_48	145.00	100.0	125.0	0.0488	Open
P5385	J38_47	J39_47	145.00	150.0	130.0	0.0196	Open
P5386	J38_48	J38_49	145.00	150.0	125.0	0.0999	Open
P5387	J38_48	J39_48	145.00	150.0	135.0	0.1403	Open
P5388	J38_49	J38_50	145.00	250.0	125.0	0.0662	Open
P5389	J38_49	J39_49	145.00	250.0	135.0	0.0140	Open
P5390	J38_50	J38_51	145.00	100.0	140.0	0.0217	Open
P5391	J38_50	J39_50	145.00	150.0	140.0	0.1099	Open
P5392	J38_51	J38_52	145.00	400.0	120.0	0.0460	Open
P5393	J38_51	J39_51	145.00	300.0	120.0	0.0074	Open
P5394	J38_52	J38_53	145.00	150.0	140.0	0.1231	Open
P5395	J38_52	J39_52	145.00	200.0	140.0	0.1067	Open
P5396	J38_53	J38_54	145.00	300.0	130.0	0.0555	Open
P5397	J38_53	J39_53	145.00	200.0	125.0	0.0961	Open
P5398	J38_54	J38_55	145.00	300.0	125.0	0.0337	Open
P5399	J38_54	J39_54	145.00	150.0	135.0	0.0514	Open
P5400	J38_55	J38_56	145.00	100.0	140.0	0.1181	Open
P5401	J38_55	J39_55	145.00	150.0	125.0	0.0185	Open
P5402	J38_56	J38_57	145.00	300.0	135.0	0.1078	Open
P5403	J38_56	J39_56	145.00	150.0	125.0	0.0266	Open
P5404	J38_57	J38_58	145.00	300.0	130.0	0.0030	Open
P5405	J38_57	J39_57	145.00	200.0	140.0	0.0855	Open
P5406	J38_58	J38_59	145.00	150.0	140.0	0.1325	Open
P5407	J38_58	J39_58	145.00	300.0	130.0	0.1277	Open
P5408	J38_59	J38_60	145.00	250.0	130.0	0.0078	Open
P5409	J38_59	J39_59	145.00	200.0	130.0	0.0548	Open
P5410	J38_60	J38_61	145.00	300.0	125.0	0.0145	Open
P5411	J38_60	J39_60	145.00	150.0	135.0	0.1114	Open
P5412	J38_61	J38_62	145.00	500.0	120.0	0.0320	Open
P5413	J38_61	J39_61	145.00	600.0	125.0	0.0168	Open
P5414	J38_62	J38_63	145.00	300.0	130.0	0.0192	Open
P5415	J38_62	J39_62	145.00	150.0	140.0	0.1074	Open
P5416	J38_63	J38_64	145.00	200.0	130.0	0.0150	Open
P5417	J38_63	J39_63	145.00	250.0	125.0	0.0364	Open
P5418	J38_64	J38_65	145.00	300.0	130.0	0.1298	Open
P5419	J38_64	J39_64	145.00	250.0	140.0	0.1043	Open
P5420	J38_65	J38_66	145.00	200.0	135.0	0.0473	Open
P5421	J38_65	J39_65	145.00	250.0	135.0	0.0723	Open
P5422	J38_66	J38_67	145.00	100.0	130.0	0.0796	Open
P5423	J38_66	J39_66	145.00	150.0	140.0	0.0696	Open
P5424	J38_67	J38_68	145.00	100.0	125.0	0.1404	Open
P5425	J38_67	J39_67	145.00	300.0	140.0	0.0725	Open
P5426	J38_68	J38_69	145.00	250.0	130.0	0.0544	Open
P5427	J38_68	J39_68	145.00	100.0	125.0	0.0630	Open
P5428	J38_69	J38_70	145.00	100.0	140.0	0.1218	Open
P5429	J38_69	J39_69	145.00	100.0	130.0	0.1103	Open
P5430	J38_70	J38_71	145.00	250.0	130.0	0.0224	Open
P5431	J38_70	J39_70	145.00	300.0	130.0	0.0942	Open
P5432	J38_71	J38_72	145.00	600.0	120.0	0.0174	Open
P5433	J38_71	J39_71	145.00	450.0	125.0	0.0263	Open
P5434	J38_72	J39_72	145.00	250.0	135.0	0.0637	Open
P5435	J39_1	J39_2	145.00	500.0	125.0	0.0421	Open
P5436	J39_1	J40_1	145.00	300.0	120.0	0.0421	Open
P5437	J39_2	J39_3	145.00	150.0	125.0	0.1448	Open
P5438	J39_2	J40_2	145.00	150.0	135.0	0.1318	Open
P5439	J39_3	J39_4	145.00	100.0	140.0	0.0593	Open
P5440	J39_3	J40_3	145.00	200.0	130.0	0.1189	Open
P5441	J39_4	J39_5	145.00	200.0	130.0	0.1262	Open
P5442	J39_4	J40_4	145.00	100.0	130.0	0.1000	Open
P5443	J39_5	J39_6	145.00	250.0	125.0	0.0786	Open
P5444	J39_5	J40_5	145.00	250.0	130.0	0.0843	Open
P5445	J39_6	J39_7	145.00	100.0	140.0	0.1267	Open
P5446	J39_6	J40_6	145.00	100.0	135.0	0.1062	Open
P5447	J39_7	J39_8	145.00	300.0	130.0	0.0075	Open
P5448	J39_7	J40_7	145.00	200.0	130.0	0.0239	Open
P5449	J39_8	J39_9	145.00	200.0	130.0	0.0006	Open
P5450	J39_8	J40_8	145.00	100.0	135.0	0.0080	Open
P5451	J39_9	J39_10	145.00	200.0	130.0	0.0853	Open
P5452	J39_9	J40_9	145.00	100.0	140.0	0.0100	Open
P5453	J39_10	J39_11	145.00	100.0	125.0	0.1015	Open
P5454	J39_10	J40_10	145.00	300.0	125.0	0.0662	Open
P5455	J39_11	J39_12	145.00	350.0	125.0	0.0331	Open
P5456	J39_11	J40_11	145.00	600.0	125.0	0.0015	Open
P5457	J39_12	J39_13	145.00	100.0	125.0	0.0150	Open
P5458	J39_12	J40_12	145.00	150.0	135.0	0.0358	Open
P5459	J39_13	J39_14	145.00	250.0	135.0	0.0904	Open
P5460	J39_13	J40_13	145.00	200.0	130.0	0.1296	Open
P5461	J39_14	J39_15	145.00	150.0	140.0	0.0412	Open
P5462	J39_14	J40_14	145.00	250.0	125.0	0.0240	Open
P5463	J39_15	J39_16	145.00	150.0	135.0	0.0164	Open
P5464	J39_15	J40_15	145.00	100.0	125.0	0.1033	Open
P5465	J39_16	J39_17	145.00	150.0	125.0	0.0717	Open
P5466	J39_16	J40_16	145.00	100.0	135.0	0.1140	Open
P5467	J39_17	J39_18	145.00	200.0	135.0	0.0399	Open
P5468	J39_17	J40_17	145.00	250.0	135.0	0.1310	Open
P5469	J39_18	J39_19	145.00	300.0	140.0	0.0249	Open
P5470	J39_18	J40_18	145.00	250.0	140.0	0.1077	Open
P5471	J39_19	J39_20	145.00	100.0	140.0	0.0156	Open
P5472	J39_19	J40_19	145.00	300.0	135.0	0.0290	Open
P5473	J39_20	J39_21	145.00	100.0	135.0	0.0880	Open
P5474	J39_20	J40_20	145.00	250.0	135.0	0.1225	Open
P5475	J39_21	J39_22	145.00	350.0	130.0	0.0353	Open
P5476	J39_21	J40_21	145.00	450.0	130.0	0.0479	Open
P5477	J39_22	J39_23	145.00	150.0	125.0	0.0292	Open
P5478	J39_22	J40_22	145.00	150.0	140.0	0.1086	Open
P5479	J39_23	J39_24	145.00	200.0	135.0	0.1288	Open
P5480	J39_23	J40_23	145.00	250.0	130.0	0.0018	Open
P5481	J39_24	J39_25	145.00	300.0	140.0	0.1336	Open
P5482	J39_24	J40_24	145.00	250.0	135.0	0.0874	Open
P5483	J39_25	J39_26	145.00	250.0	125.0	0.0700	Open
P5484	J39_25	J40_25	145.00	200.0	125.0	0.0465	Open
P5485	J39_26	J39_27	145.00	200.0	135.0	0.1305	Open
P5486	J39_26	J40_26	145.00	300.0	135.0	0.0457	Open
P5487	J39_27	J39_28	145.00	100.0	130.0	0.1315	Open
P5488	J39_27	J40_27	145.00	250.0	130.0	0.0798	Open
P5489	J39_28	J39_29	145.00	200.0	125.0	0.1175	Open
P5490	J39_28	J40_28	145.00	200.0	140.0	0.0075	Open
P5491	J39_29	J39_30	145.00	300.0	125.0	0.1436	Open
P5492	J39_29	J40_29	145.00	100.0	135.0	0.0877	Open
P5493	J39_30	J39_31	145.00	300.0	125.0	0.1276	Open
P5494	J39_30	J40_30	145.00	100.0	130.0	0.0016	Open
P5495	J39_31	J39_32	145.00	350.0	125.0	0.0174	Open
P5496	J39_31	J40_31	145.00	600.0	130.0	0.0252	Open
P5497	J39_32	J39_33	145.00	100.0	140.0	0.0865	Open
P5498	J39_32	J40_32	145.00	300.0	140.0	0.0302	Open
P5499	J39_33	J39_34	145.00	100.0	130.0	0.0668	Open
P5500	J39_33	J40_33	145.00	150.0	140.0	0.0251	Open
P5501	J39_34	J39_35	145.00	200.0	130.0	0.0392	Open
P5502	J39_34	J40_34	145.00	100.0	140.0	0.0342	Open
P5503	J39_35	J39_36	145.00	150.0	140.0	0.0822	Open
P5504	J39_35	J40_35	145.00	250.0	140.0	0.1336	Open
P5505	J39_36	J39_37	145.00	100.0	140.0	0.0735	Open
P5506	J39_36	J40_36	145.00	150.0	130.0	0.0513	Open
P5507	J39_37	J39_38	145.00	200.0	140.0	0.0282	Open
P5508	J39_37	J40_37	145.00	200.0	125.0	0.0168	Open
P5509	J39_38	J39_39	145.00	200.0	125.0	0.0468	Open
P5510	J39_38	J40_38	145.00	300.0	130.0	0.0523	Open
P5511	J39_39	J39_40	145.00	300.0	135.0	0.0734	Open
P5512	J39_39	J40_39	145.00	300.0	140.0	0.0081	Open
P5513	J39_40	J39_41	145.00	300.0	140.0	0.0962	Open
P5514	J39_40	J40_40	145.00	250.0	135.0	0.0335	Open
P5515	J39_41	J39_42	145.00	600.0	130.0	0.0039	Open
P5516	J39_41	J40_41	145.00	600.0	125.0	0.0403	Open
P5517	J39_42	J39_43	145.00	100.0	140.0	0.1386	Open
P5518	J39_42	J40_42	145.00	250.0	130.0	0.0951	Open
P5519	J39_43	J39_44	145.00	300.0	130.0	0.0886	Open
P5520	J39_43	J40_43	145.00	100.0	140.0	0.1030	Open
P5521	J39_44	J39_45	145.00	250.0	130.0	0.0867	Open
P5522	J39_44	J40_44	145.00	250.0	130.0	0.0899	Open
P5523	J39_45	J39_46	145.00	200.0	125.0	0.1087	Open
P5524	J39_45	J40_45	145.00	200.0	135.0	0.0643	Open
P5525	J39_46	J39_47	145.00	150.0	135.0	0.1294	Open
P5526	J39_46	J40_46	145.00	200.0	135.0	0.1287	Open
P5527	J39_47	J39_48	145.00	250.0	130.0	0.1400	Open
P5528	J39_47	J40_47	145.00	100.0	140.0	0.1112	Open
P5529	J39_48	J39_49	145.00	300.0	125.0	0.0865	Open
P5530	J39_48	J40_48	145.00	250.0	125.0	0.0987	Open
P5531	J39_49	J39_50	145.00	250.0	130.0	0.0804	Open
P5532	J39_49	J40_49	145.00	200.0	135.0	0.0062	Open
P5533	J39_50	J39_51	145.00	100.0	140.0	0.0838	Open
P5534	J39_50	J40_50	145.00	100.0	130.0	0.1118	Open
P5535	J39_51	J39_52	145.00	400.0	125.0	0.0119	Open
P5536	J39_51	J40_51	145.00	400.0	120.0	0.0456	Open
P5537	J39_52	J39_53	145.00	300.0	125.0	0.0798	Open
P5538	J39_52	J40_52	145.00	100.0	125.0	0.0907	Open
P5539	J39_53	J39_54	145.00	100.0	140.0	0.0845	Open
P5540	J39_53	J40_53	145.00	200.0	140.0	0.0919	Open
P5541	J39_54	J39_55	145.00	300.0	130.0	0.1237	Open
P5542	J39_54	J40_54	145.00	150.0	130.0	0.1215	Open
P5543	J39_55	J39_56	145.00	250.0	135.0	0.1287	Open
P5544	J39_55	J40_55	145.00	250.0	140.0	0.0003	Open
P5545	J39_56	J39_57	145.00	200.0	140.0	0.0505	Open
P5546	J39_56	J40_56	145.00	150.0	135.0	0.1129	Open
P5547	J39_57	J39_58	145.00	300.0	130.0	0.0972	Open
P5548	J39_57	J40_57	145.00	300.0	135.0	0.0593	Open
P5549	J39_58	J39_59	145.00	300.0	130.0	0.0193	Open
P5550	J39_58	J40_58	145.00	100.0	125.0	0.1110	Open
P5551	J39_59	J39_60	145.00	100.0	125.0	0.1329	Open
P5552	J39_59	J40_59	145.00	100.0	125.0	0.1253	Open
P5553	J39_60	J39_61	145.00	250.0	125.0	0.0076	Open
P5554	J39_60	J40_60	145.00	150.0	130.0	0.0507	Open
P5555	J39_61	J39_62	145.00	600.0	125.0	0.0170	Open
P5556	J39_61	J40_61	145.00	400.0	125.0	0.0032	Open
P5557	J39_62	J39_63	145.00	200.0	125.0	0.0484	Open
P5558	J39_62	J40_62	145.00	200.0	140.0	0.1460	Open
P5559	J39_63	J39_64	145.00	200.0	135.0	0.1177	Open
P5560	J39_63	J40_63	145.00	100.0	130.0	0.0845	Open
P5561	J39_64	J39_65	145.00	300.0	135.0	0.0478	Open
P5562	J39_64	J40_64	145.00	200.0	130.0	0.0347	Open
P5563	J39_65	J39_66	145.00	300.0	135.0	0.0747	Open
P5564	J39_65	J40_65	145.00	250.0	130.0	0.1400	Open
P5565	J39_66	J39_67	145.00	250.0	135.0	0.0730	Open
P5566	J39_66	J40_66	145.00	100.0	125.0	0.0654	Open
P5567	J39_67	J39_68	145.00	250.0	125.0	0.0806	Open
P5568	J39_67	J40_67	145.00	250.0	130.0	0.0814	Open
P5569	J39_68	J39_69	145.00	250.0	125.0	0.1454	Open
P5570	J39_68	J40_68	145.00	250.0	135.0	0.1292	Open
P5571	J39_69	J39_70	145.00	100.0	125.0	0.0130	Open
P5572	J39_69	J40_69	145.00	250.0	140.0	0.0784	Open
P5573	J39_70	J39_71	145.00	150.0	140.0	0.1066	Open
P5574	J39_70	J40_70	145.00	150.0	140.0	0.0016	Open
P5575	J39_71	J39_72	145.00	500.0	125.0	0.0356	Open
P5576	J39_71	J40_71	145.00	500.0	120.0	0.0251	Open
P5577	J39_72	J40_72	145.00	100.0	125.0	0.1031	Open
P5578	J40_1	J40_2	145.00	500.0	130.0	0.0107	Open
P5579	J40_1	J41_1	145.00	600.0	120.0	0.0257	Open
P5580	J40_2	J40_3	145.00	150.0	140.0	0.0151	Open
P5581	J40_2	J41_2	145.00	150.0	135.0	0.0383	Open
P5582	J40_3	J40_4	145.00	200.0	125.0	0.1314	Open
P5583	J40_3	J41_3	145.00	200.0	130.0	0.1223	Open
P5584	J40_4	J40_5	145.00	150.0	130.0	0.0803	Open
P5585	J40_4	J41_4	145.00	200.0	140.0	0.1200	Open
P5586	J40_5	J40_6	145.00	100.0	135.0	0.0533	Open
P5587	J40_5	J41_5	145.00	300.0	140.0	0.0474	Open
P5588	J40_6	J40_7	145.00	200.0	125.0	0.1060	Open
P5589	J40_6	J41_6	145.00	250.0	125.0	0.1327	Open
P5590	J40_7	J40_8	145.00	200.0	125.0	0.1248	Open
P5591	J40_7	J41_7	145.00	250.0	135.0	0.0898	Open
P5592	J40_8	J40_9	145.00	250.0	135.0	0.0526	Open
P5593	J40_8	J41_8	145.00	300.0	125.0	0.0872	Open
P5594	J40_9	J40_10	145.00	300.0	135.0	0.0970	Open
P5595	J40_9	J41_9	145.00	300.0	130.0	0.0644	Open
P5596	J40_10	J40_11	145.00	250.0	125.0	0.0038	Open
P5597	J40_10	J41_10	145.00	300.0	130.0	0.0414	Open
P5598	J40_11	J40_12	145.00	300.0	130.0	0.0440	Open
P5599	J40_11	J41_11	145.00	500.0	125.0	0.0127	Open
P5600	J40_12	J40_13	145.00	200.0	125.0	0.0413	Open
P5601	J40_12	J41_12	145.00	300.0	140.0	0.0248	Open
P5602	J40_13	J40_14	145.00	300.0	140.0	0.0738	Open
P5603	J40_13	J41_13	145.00	250.0	135.0	0.0601	Open
P5604	J40_14	J40_15	145.00	100.0	135.0	0.0646	Open
P5605	J40_14	J41_14	145.00	100.0	130.0	0.0440	Open
P5606	J40_15	J40_16	145.00	150.0	135.0	0.0374	Open
P5607	J40_15	J41_15	145.00	200.0	130.0	0.1320	Open
P5608	J40_16	J40_17	145.00	300.0	135.0	0.1286	Open
P5609	J40_16	J41_16	145.00	150.0	135.0	0.0876	Open
P5610	J40_17	J40_18	145.00	150.0	140.0	0.1477	Open
P5611	J40_17	J41_17	145.00	200.0	125.0	0.0202	Open
P5612	J40_18	J40_19	145.00	200.0	135.0	0.0288	Open
P5613	J40_18	J41_18	145.00	150.0	140.0	0.1008	Open
P5614	J40_19	J40_20	145.00	300.0	135.0	0.0650	Open
P5615	J40_19	J41_19	145.00	300.0	135.0	0.0378	Open
P5616	J40_20	J40_21	145.00	250.0	140.0	0.1192	Open
P5617	J40_20	J41_20	145.00	300.0	140.0	0.0642	Open
P5618	J40_21	J40_22	145.00	450.0	120.0	0.0023	Open
P5619	J40_21	J41_21	145.00	350.0	130.0	0.0372	Open
P5620	J40_22	J40_23	145.00	200.0	130.0	0.0513	Open
P5621	J40_22	J41_22	145.00	300.0	140.0	0.1194	Open
P5622	J40_23	J40_24	145.00	200.0	135.0	0.0154	Open
P5623	J40_23	J41_23	145.00	200.0	125.0	0.0575	Open
P5624	J40_24	J40_25	145.00	250.0	135.0	0.0525	Open
P5625	J40_24	J41_24	145.00	300.0	130.0	0.1207	Open
P5626	J40_25	J40_26	145.00	100.0	140.0	0.1190	Open
P5627	J40_25	J41_25	145.00	200.0	135.0	0.0073	Open
P5628	J40_26	J40_27	145.00	250.0	125.0	0.0573	Open
P5629	J40_26	J41_26	145.00	200.0	140.0	0.1356	Open
P5630	J40_27	J40_28	145.00	150.0	135.0	0.0858	Open
P5631	J40_27	J41_27	145.00	100.0	130.0	0.0617	Open
P5632	J40_28	J40_29	145.00	250.0	125.0	0.0941	Open
P5633	J40_28	J41_28	145.00	150.0	130.0	0.0435	Open
P5634	J40_29	J40_30	145.00	200.0	125.0	0.0604	Open
P5635	J40_29	J41_29	145.00	100.0	135.0	0.0992	Open
P5636	J40_30	J40_31	145.00	250.0	125.0	0.0303	Open
P5637	J40_30	J41_30	145.00	200.0	140.0	0.1342	Open
P5638	J40_31	J40_32	145.00	350.0	120.0	0.0449	Open
P5639	J40_31	J41_31	145.00	500.0	120.0	0.0068	Open
P5640	J40_32	J40_33	145.00	100.0	140.0	0.0763	Open
P5641	J40_32	J41_32	145.00	300.0	130.0	0.0132	Open
P5642	J40_33	J40_34	145.00	200.0	140.0	0.1473	Open
P5643	J40_33	J41_33	145.00	200.0	130.0	0.1422	Open
P5644	J40_34	J40_35	145.00	150.0	140.0	0.0480	Open
P5645	J40_34	J41_34	145.00	100.0	140.0	0.0387	Open
P5646	J40_35	J40_36	145.00	300.0	135.0	0.1405	Open
P5647	J40_35	J41_35	145.00	200.0	140.0	0.0213	Open
P5648	J40_36	J40_37	145.00	200.0	125.0	0.1169	Open
P5649	J40_36	J41_36	145.00	150.0	125.0	0.0638	Open
P5650	J40_37	J40_38	145.00	300.0	135.0	0.0138	Open
P5651	J40_37	J41_37	145.00	100.0	140.0	0.1457	Open
P5652	J40_38	J40_39	145.00	250.0	125.0	0.1082	Open
P5653	J40_38	J41_38	145.00	150.0	130.0	0.1093	Open
P5654	J40_39	J40_40	145.00	200.0	135.0	0.1073	Open
P5655	J40_39	J41_39	145.00	250.0	135.0	0.1007	Open
P5656	J40_40	J40_41	145.00	300.0	140.0	0.0431	Open
P5657	J40_40	J41_40	145.00	200.0	135.0	0.0618	Open
P5658	J40_41	J40_42	145.00	300.0	130.0	0.0457	Open
P5659	J40_41	J41_41	145.00	450.0	120.0	0.0305	Open
P5660	J40_42	J40_43	145.00	200.0	135.0	0.0946	Open
P5661	J40_42	J41_42	145.00	300.0	125.0	0.0230	Open
P5662	J40_43	J40_44	145.00	250.0	130.0	0.1377	Open
P5663	J40_43	J41_43	145.00	100.0	130.0	0.1154	Open
P5664	J40_44	J40_45	145.00	200.0	140.0	0.0346	Open
P5665	J40_44	J41_44	145.00	300.0	135.0	0.0124	Open
P5666	J40_45	J40_46	145.00	200.0	135.0	0.1369	Open
P5667	J40_45	J41_45	145.00	250.0	125.0	0.0995	Open
P5668	J40_46	J40_47	145.00	200.0	125.0	0.0542	Open
P5669	J40_46	J41_46	145.00	250.0	140.0	0.1031	Open
P5670	J40_47	J40_48	145.00	300.0	140.0	0.0907	Open
P5671	J40_47	J41_47	145.00	150.0	140.0	0.0705	Open
P5672	J40_48	J40_49	145.00	200.0	130.0	0.1475	Open
P5673	J40_48	J41_48	145.00	100.0	140.0	0.1276	Open
P5674	J40_49	J40_50	145.00	250.0	135.0	0.0834	Open
P5675	J40_49	J41_49	145.00	300.0	140.0	0.0240	Open
P5676	J40_50	J40_51	145.00	150.0	125.0	0.0535	Open
P5677	J40_50	J41_50	145.00	250.0	130.0	0.0792	Open
P5678	J40_51	J40_52	145.00	300.0	130.0	0.0369	Open
P5679	J40_51	J41_51	145.00	500.0	120.0	0.0393	Open
P5680	J40_52	J40_53	145.00	300.0	130.0	0.0210	Open
P5681	J40_52	J41_52	145.00	300.0	130.0	0.1208	Open
P5682	J40_53	J40_54	145.00	150.0	125.0	0.0183	Open
P5683	J40_53	J41_53	145.00	200.0	135.0	0.0159	Open
P5684	J40_54	J40_55	145.00	200.0	130.0	0.0936	Open
P5685	J40_54	J41_54	145.00	300.0	135.0	0.0696	Open
P5686	J40_55	J40_56	145.00	300.0	140.0	0.0202	Open
P5687	J40_55	J41_55	145.00	200.0	130.0	0.0118	Open
P5688	J40_56	J40_57	145.00	300.0	130.0	0.0552	Open
P5689	J40_56	J41_56	145.00	250.0	125.0	0.0760	Open
P5690	J40_57	J40_58	145.00	200.0	135.0	0.0821	Open
P5691	J40_57	J41_57	145.00	200.0	130.0	0.0851	Open
P5692	J40_58	J40_59	145.00	100.0	140.0	0.0948	Open
P5693	J40_58	J41_58	145.00	250.0	130.0	0.1267	Open
P5694	J40_59	J40_60	145.00	250.0	130.0	0.0933	Open
P5695	J40_59	J41_59	145.00	100.0	135.0	0.0933	Open
P5696	J40_60	J40_61	145.00	150.0	135.0	0.0176	Open
P5697	J40_60	J41_60	145.00	300.0	130.0	0.0137	Open
P5698	J40_61	J40_62	145.00	350.0	130.0	0.0459	Open
P5699	J40_61	J41_61	145.00	350.0	120.0	0.0184	Open
P5700	J40_62	J40_63	145.00	200.0	140.0	0.1429	Open
P5701	J40_62	J41_62	145.00	200.0	130.0	0.0173	Open
P5702	J40_63	J40_64	145.00	100.0	135.0	0.1182	Open
P5703	J40_63	J41_63	145.00	200.0	125.0	0.0377	Open
P5704	J40_64	J40_65	145.00	100.0	130.0	0.1335	Open
P5705	J40_64	J41_64	145.00	200.0	125.0	0.0184	Open
P5706	J40_65	J40_66	145.00	150.0	140.0	0.0431	Open
P5707	J40_65	J41_65	145.00	150.0	135.0	0.0730	Open
P5708	J40_66	J40_67	145.00	250.0	125.0	0.0284	Open
P5709	J40_66	J41_66	145.00	100.0	125.0	0.1348	Open
P5710	J40_67	J40_68	145.00	250.0	125.0	0.1078	Open
P5711	J40_67	J41_67	145.00	100.0	140.0	0.0783	Open
P5712	J40_68	J40_69	145.00	150.0	135.0	0.0862	Open
P5713	J40_68	J41_68	145.00	250.0	135.0	0.0301	Open
P5714	J40_69	J40_70	145.00	300.0	130.0	0.1247	Open
P5715	J40_69	J41_69	145.00	100.0	130.0	0.1180	Open
P5716	J40_70	J40_71	145.00	200.0	130.0	0.1454	Open
P5717	J40_70	J41_70	145.00	250.0	140.0	0.1076	Open
P5718	J40_71	J40_72	145.00	500.0	130.0	0.0284	Open
P5719	J40_71	J41_71	145.00	400.0	130.0	0.0327	Open
P5720	J40_72	J41_72	145.00	150.0	140.0	0.1421	Open
P5721	J41_1	J41_2	145.00	400.0	125.0	0.0315	Open
P5722	J41_1	J42_1	145.00	300.0	120.0	0.0491	Open
P5723	J41_2	J41_3	145.00	600.0	120.0	0.0466	Open
P5724	J41_2	J42_2	145.00	400.0	120.0	0.0186	Open
P5725	J41_3	J41_4	145.00	300.0	130.0	0.0487	Open
P5726	J41_3	J42_3	145.00	350.0	130.0	0.0277	Open
P5727	J41_4	J41_5	145.00	400.0	125.0	0.0454	Open
P5728	J41_4	J42_4	145.00	600.0	130.0	0.0181	Open
P5729	J41_5	J41_6	145.00	350.0	130.0	0.0244	Open
P5730	J41_5	J42_5	145.00	600.0	120.0	0.0135	Open
P5731	J41_6	J41_7	145.00	300.0	125.0	0.0301	Open
P5732	J41_6	J42_6	145.00	450.0	125.0	0.0098	Open
P5733	J41_7	J41_8	145.00	500.0	120.0	0.0121	Open
P5734	J41_7	J42_7	145.00	300.0	130.0	0.0485	Open
P5735	J41_8	J41_9	145.00	300.0	125.0	0.0343	Open
P5736	J41_8	J42_8	145.00	350.0	130.0	0.0289	Open
P5737	J41_9	J41_10	145.00	300.0	125.0	0.0037	Open
P5738	J41_9	J42_9	145.00	600.0	125.0	0.0211	Open
P5739	J41_10	J41_11	145.00	300.0	120.0	0.0327	Open
P5740	J41_10	J42_10	145.00	600.0	120.0	0.0197	Open
P5741	J41_11	J41_12	145.00	500.0	130.0	0.0197	Open
P5742	J41_11	J42_11	145.00	400.0	130.0	0.0192	Open
P5743	J41_12	J41_13	145.00	400.0	130.0	0.0385	Open
P5744	J41_12	J42_12	145.00	600.0	125.0	0.0122	Open
P5745	J41_13	J41_14	145.00	300.0	130.0	0.0454	Open
P5746	J41_13	J42_13	145.00	500.0	125.0	0.0326	Open
P5747	J41_14	J41_15	145.00	450.0	120.0	0.0097	Open
P5748	J41_14	J42_14	145.00	600.0	120.0	0.0424	Open
P5749	J41_15	J41_16	145.00	450.0	125.0	0.0309	Open
P5750	J41_15	J42_15	145.00	500.0	125.0	0.0372	Open
P5751	J41_16	J41_17	145.00	400.0	120.0	0.0437	Open
P5752	J41_16	J42_16	145.00	350.0	130.0	0.0421	Open
P5753	J41_17	J41_18	145.00	600.0	120.0	0.0027	Open
P5754	J41_17	J42_17	145.00	450.0	130.0	0.0273	Open
P5755	J41_18	J41_19	145.00	500.0	130.0	0.0254	Open
P5756	J41_18	J42_18	145.00	300.0	120.0	0.0324	Open
P5757	J41_19	J41_20	145.00	300.0	125.0	0.0046	Open
P5758	J41_19	J42_19	145.00	300.0	120.0	0.0036	Open
P5759	J41_20	J41_21	145.00	300.0	120.0	0.0442	Open
P5760	J41_20	J42_20	145.00	500.0	120.0	0.0023	Open
P5761	J41_21	J41_22	145.00	450.0	130.0	0.0269	Open
P5762	J41_21	J42_21	145.00	400.0	130.0	0.0348	Open
P5763	J41_22	J41_23	145.00	350.0	120.0	0.0478	Open
P5764	J41_22	J42_22	145.00	600.0	130.0	0.0248	Open
P5765	J41_23	J41_24	145.00	350.0	130.0	0.0012	Open
P5766	J41_23	J42_23	145.00	450.0	130.0	0.0388	Open
P5767	J41_24	J41_25	145.00	450.0	125.0	0.0404	Open
P5768	J41_24	J42_24	145.00	350.0	120.0	0.0151	Open
P5769	J41_25	J41_26	145.00	450.0	130.0	0.0371	Open
P5770	J41_25	J42_25	145.00	400.0	130.0	0.0452	Open
P5771	J41_26	J41_27	145.00	350.0	130.0	0.0373	Open
P5772	J41_26	J42_26	145.00	350.0	120.0	0.0461	Open
P5773	J41_27	J41_28	145.00	300.0	130.0	0.0091	Open
P5774	J41_27	J42_27	145.00	300.0	125.0	0.0210	Open
P5775	J41_28	J41_29	145.00	350.0	125.0	0.0415	Open
P5776	J41_28	J42_28	145.00	350.0	130.0	0.0070	Open
P5777	J41_29	J41_30	145.00	350.0	130.0	0.0196	Open
P5778	J41_29	J42_29	145.00	400.0	125.0	0.0345	Open
P5779	J41_30	J41_31	145.00	400.0	125.0	0.0178	Open
P5780	J41_30	J42_30	145.00	350.0	130.0	0.0263	Open
P5781	J41_31	J41_32	145.00	300.0	125.0	0.0346	Open
P5782	J41_31	J42_31	145.00	300.0	120.0	0.0395	Open
P5783	J41_32	J41_33	145.00	600.0	120.0	0.0401	Open
P5784	J41_32	J42_32	145.00	350.0	130.0	0.0129	Open
P5785	J41_33	J41_34	145.00	400.0	130.0	0.0370	Open
P5786	J41_33	J42_33	145.00	350.0	120.0	0.0161	Open
P5787	J41_34	J41_35	145.00	450.0	130.0	0.0149	Open
P5788	J41_34	J42_34	145.00	600.0	120.0	0.0235	Open
P5789	J41_35	J41_36	145.00	400.0	125.0	0.0008	Open
P5790	J41_35	J42_35	145.00	350.0	130.0	0.0163	Open
P5791	J41_36	J41_37	145.00	300.0	125.0	0.0104	Open
P5792	J41_36	J42_36	145.00	400.0	120.0	0.0090	Open
P5793	J41_37	J41_38	145.00	600.0	120.0	0.0219	Open
P5794	J41_37	J42_37	145.00	350.0	125.0	0.0175	Open
P5795	J41_38	J41_39	145.00	500.0	120.0	0.0383	Open
P5796	J41_38	J42_38	145.00	600.0	120.0	0.0495	Open
P5797	J41_39	J41_40	145.00	600.0	125.0	0.0244	Open
P5798	J41_39	J42_39	145.00	500.0	130.0	0.0481	Open
P5799	J41_40	J41_41	145.00	600.0	120.0	0.0186	Open
P5800	J41_40	J42_40	145.00	300.0	125.0	0.0175	Open
P5801	J41_41	J41_42	145.00	600.0	120.0	0.0171	Open
P5802	J41_41	J42_41	145.00	300.0	130.0	0.0389	Open
P5803	J41_42	J41_43	145.00	500.0	130.0	0.0115	Open
P5804	J41_42	J42_42	145.00	350.0	130.0	0.0490	Open
P5805	J41_43	J41_44	145.00	400.0	120.0	0.0163	Open
P5806	J41_43	J42_43	145.00	300.0	120.0	0.0009	Open
P5807	J41_44	J41_45	145.00	500.0	130.0	0.0099	Open
P5808	J41_44	J42_44	145.00	600.0	120.0	0.0422	Open
P5809	J41_45	J41_46	145.00	600.0	130.0	0.0160	Open
P5810	J41_45	J42_45	145.00	450.0	130.0	0.0008	Open
P5811	J41_46	J41_47	145.00	600.0	130.0	0.0172	Open
P5812	J41_46	J42_46	145.00	450.0	125.0	0.0306	Open
P5813	J41_47	J41_48	145.00	300.0	130.0	0.0278	Open
P5814	J41_47	J42_47	145.00	350.0	125.0	0.0220	Open
P5815	J41_48	J41_49	145.00	500.0	120.0	0.0308	Open
P5816	J41_48	J42_48	145.00	500.0	125.0	0.0394	Open
P5817	J41_49	J41_50	145.00	400.0	120.0	0.0022	Open
P5818	J41_49	J42_49	145.00	450.0	120.0	0.0211	Open
P5819	J41_50	J41_51	145.00	350.0	130.0	0.0435	Open
P5820	J41_50	J42_50	145.00	600.0	130.0	0.0017	Open
P5821	J41_51	J41_52	145.00	300.0	120.0	0.0417	Open
P5822	J41_51	J42_51	145.00	300.0	120.0	0.0036	Open
P5823	J41_52	J41_53	145.00	450.0	130.0	0.0327	Open
P5824	J41_52	J42_52	145.00	500.0	130.0	0.0201	Open
P5825	J41_53	J41_54	145.00	600.0	130.0	0.0146	Open
P5826	J41_53	J42_53	145.00	400.0	125.0	0.0214	Open
P5827	J41_54	J41_55	145.00	500.0	130.0	0.0314	Open
P5828	J41_54	J42_54	145.00	350.0	120.0	0.0291	Open
P5829	J41_55	J41_56	145.00	450.0	125.0	0.0329	Open
P5830	J41_55	J42_55	145.00	600.0	120.0	0.0172	Open
P5831	J41_56	J41_57	145.00	300.0	130.0	0.0062	Open
P5832	J41_56	J42_56	145.00	300.0	125.0	0.0345	Open
P5833	J41_57	J41_58	145.00	400.0	120.0	0.0254	Open
P5834	J41_57	J42_57	145.00	450.0	120.0	0.0491	Open
P5835	J41_58	J41_59	145.00	500.0	125.0	0.0111	Open
P5836	J41_58	J42_58	145.00	350.0	125.0	0.0013	Open
P5837	J41_59	J41_60	145.00	450.0	125.0	0.0331	Open
P5838	J41_59	J42_59	145.00	400.0	130.0	0.0495	Open
P5839	J41_60	J41_61	145.00	350.0	130.0	0.0161	Open
P5840	J41_60	J42_60	145.00	500.0	120.0	0.0269	Open
P5841	J41_61	J41_62	145.00	600.0	125.0	0.0130	Open
P5842	J41_61	J42_61	145.00	600.0	120.0	0.0027	Open
P5843	J41_62	J41_63	145.00	600.0	120.0	0.0108	Open
P5844	J41_62	J42_62	145.00	350.0	125.0	0.0237	Open
P5845	J41_63	J41_64	145.00	300.0	120.0	0.0337	Open
P5846	J41_63	J42_63	145.00	600.0	130.0	0.0188	Open
P5847	J41_64	J41_65	145.00	600.0	120.0	0.0267	Open
P5848	J41_64	J42_64	145.00	600.0	125.0	0.0102	Open
P5849	J41_65	J41_66	145.00	450.0	120.0	0.0278	Open
P5850	J41_65	J42_65	145.00	450.0	120.0	0.0144	Open
P5851	J41_66	J41_67	145.00	400.0	125.0	0.0324	Open
P5852	J41_66	J42_66	145.00	450.0	125.0	0.0270	Open
P5853	J41_67	J41_68	145.00	600.0	125.0	0.0270	Open
P5854	J41_67	J42_67	145.00	350.0	120.0	0.0439	Open
P5855	J41_68	J41_69	145.00	300.0	120.0	0.0363	Open
P5856	J41_68	J42_68	145.00	400.0	125.0	0.0007	Open
P5857	J41_69	J41_70	145.00	500.0	130.0	0.0284	Open
P5858	J41_69	J42_69	145.00	350.0	130.0	0.0203	Open
P5859	J41_70	J41_71	145.00	350.0	120.0	0.0294	Open
P5860	J41_70	J42_70	145.00	350.0	130.0	0.0339	Open
P5861	J41_71	J41_72	145.00	450.0	120.0	0.0045	Open
P5862	J41_71	J42_71	145.00	600.0	130.0	0.0078	Open
P5863	J41_72	J42_72	145.00	600.0	130.0	0.0275	Open
P5864	J42_1	J42_2	145.00	350.0	125.0	0.0089	Open
P5865	J42_1	J43_1	145.00	350.0	130.0	0.0470	Open
P5866	J42_2	J42_3	145.00	150.0	125.0	0.0734	Open
P5867	J42_2	J43_2	145.00	200.0	140.0	0.1494	Open
P5868	J42_3	J42_4	145.00	200.0	135.0	0.0368	Open
P5869	J42_3	J43_3	145.00	200.0	130.0	0.1233	Open
P5870	J42_4	J42_5	145.00	100.0	130.0	0.0200	Open
P5871	J42_4	J43_4	145.00	150.0	140.0	0.0620	Open
P5872	J42_5	J42_6	145.00	250.0	140.0	0.1425	Open
P5873	J42_5	J43_5	145.00	200.0	130.0	0.0651	Open
P5874	J42_6	J42_7	145.00	250.0	140.0	0.0607	Open
P5875	J42_6	J43_6	145.00	200.0	140.0	0.1233	Open
P5876	J42_7	J42_8	145.00	100.0	125.0	0.0938	Open
P5877	J42_7	J43_7	145.00	300.0	125.0	0.0241	Open
P5878	J42_8	J42_9	145.00	300.0	140.0	0.0573	Open
P5879	J42_8	J43_8	145.00	150.0	140.0	0.1482	Open
P5880	J42_9	J42_10	145.00	250.0	135.0	0.1117	Open
P5881	J42_9	J43_9	145.00	300.0	130.0	0.1493	Open
P5882	J42_10	J42_11	145.00	200.0	130.0	0.0865	Open
P5883	J42_10	J43_10	145.00	300.0	135.0	0.1002	Open
P5884	J42_11	J42_12	145.00	350.0	130.0	0.0151	Open
P5885	J42_11	J43_11	145.00	300.0	130.0	0.0172	Open
P5886	J42_12	J42_13	145.00	300.0	140.0	0.0592	Open
P5887	J42_12	J43_12	145.00	200.0	140.0	0.1244	Open
P5888	J42_13	J42_14	145.00	150.0	140.0	0.1110	Open
P5889	J42_13	J43_13	145.00	150.0	140.0	0.0701	Open
P5890	J42_14	J42_15	145.00	300.0	140.0	0.0929	Open
P5891	J42_14	J43_14	145.00	300.0	140.0	0.0059	Open
P5892	J42_15	J42_16	145.00	100.0	130.0	0.0574	Open
P5893	J42_15	J43_15	145.00	150.0	130.0	0.0460	Open
P5894	J42_16	J42_17	145.00	150.0	125.0	0.1056	Open
P5895	J42_16	J43_16	145.00	250.0	130.0	0.1479	Open
P5896	J42_17	J42_18	145.00	300.0	130.0	0.0930	Open
P5897	J42_17	J43_17	145.00	150.0	135.0	0.0333	Open
P5898	J42_18	J42_19	145.00	150.0	125.0	0.1209	Open
P5899	J42_18	J43_18	145.00	150.0	130.0	0.1179	Open
P5900	J42_19	J42_20	145.00	300.0	140.0	0.0897	Open
P5901	J42_19	J43_19	145.00	200.0	130.0	0.0186	Open
P5902	J42_20	J42_21	145.00	150.0	135.0	0.0890	Open
P5903	J42_20	J43_20	145.00	150.0	135.0	0.1192	Open
P5904	J42_21	J42_22	145.00	350.0	130.0	0.0390	Open
P5905	J42_21	J43_21	145.00	350.0	125.0	0.0022	Open
P5906	J42_22	J42_23	145.00	150.0	130.0	0.0558	Open
P5907	J42_22	J43_22	145.00	250.0	135.0	0.0768	Open
P5908	J42_23	J42_24	145.00	150.0	125.0	0.0648	Open
P5909	J42_23	J43_23	145.00	200.0	130.0	0.0808	Open
P5910	J42_24	J42_25	145.00	100.0	125.0	0.0497	Open
P5911	J42_24	J43_24	145.00	250.0	125.0	0.0471	Open
P5912	J42_25	J42_26	145.00	150.0	140.0	0.0739	Open
P5913	J42_25	J43_25	145.00	250.0	125.0	0.0342	Open
P5914	J42_26	J42_27	145.00	150.0	140.0	0.0574	Open
P5915	J42_26	J43_26	145.00	250.0	135.0	0.0558	Open
P5916	J42_27	J42_28	145.00	250.0	125.0	0.0786	Open
P5917	J42_27	J43_27	145.00	200.0	130.0	0.0579	Open
P5918	J42_28	J42_29	145.00	100.0	140.0	0.1367	Open
P5919	J42_28	J43_28	145.00	300.0	125.0	0.0260	Open
P5920	J42_29	J42_30	145.00	250.0	125.0	0.0431	Open
P5921	J42_29	J43_29	145.00	250.0	130.0	0.0146	Open
P5922	J42_30	J42_31	145.00	250.0	125.0	0.0156	Open
P5923	J42_30	J43_30	145.00	300.0	135.0	0.0038	Open
P5924	J42_31	J42_32	145.00	600.0	130.0	0.0085	Open
P5925	J42_31	J43_31	145.00	450.0	120.0	0.0309	Open
P5926	J42_32	J42_33	145.00	150.0	140.0	0.0942	Open
P5927	J42_32	J43_32	145.00	150.0	140.0	0.0435	Open
P5928	J42_33	J42_34	145.00	150.0	140.0	0.1231	Open
P5929	J42_33	J43_33	145.00	150.0	140.0	0.0956	Open
P5930	J42_34	J42_35	145.00	100.0	140.0	0.0502	Open
P5931	J42_34	J43_34	145.00	200.0	130.0	0.0264	Open
P5932	J42_35	J42_36	145.00	250.0	140.0	0.0876	Open
P5933	J42_35	J43_35	145.00	150.0	130.0	0.1166	Open
P5934	J42_36	J42_37	145.00	300.0	140.0	0.1283	Open
P5935	J42_36	J43_36	145.00	200.0	125.0	0.0723	Open
P5936	J42_37	J42_38	145.00	100.0	135.0	0.0540	Open
P5937	J42_37	J43_37	145.00	150.0	135.0	0.0955	Open
P5938	J42_38	J42_39	145.00	300.0	135.0	0.1283	Open
P5939	J42_38	J43_38	145.00	300.0	140.0	0.0207	Open
P5940	J42_39	J42_40	145.00	300.0	140.0	0.0062	Open
P5941	J42_39	J43_39	145.00	250.0	125.0	0.1327	Open
P5942	J42_40	J42_41	145.00	200.0	130.0	0.1135	Open
P5943	J42_40	J43_40	145.00	100.0	140.0	0.1146	Open
P5944	J42_41	J42_42	145.00	450.0	125.0	0.0404	Open
P5945	J42_41	J43_41	145.00	450.0	125.0	0.0084	Open
P5946	J42_42	J42_43	145.00	250.0	135.0	0.0851	Open
P5947	J42_42	J43_42	145.00	250.0	135.0	0.0295	Open
P5948	J42_43	J42_44	145.00	300.0	135.0	0.0368	Open
P5949	J42_43	J43_43	145.00	150.0	125.0	0.0246	Open
P5950	J42_44	J42_45	145.00	100.0	125.0	0.1304	Open
P5951	J42_44	J43_44	145.00	300.0	135.0	0.1423	Open
P5952	J42_45	J42_46	145.00	200.0	135.0	0.0591	Open
P5953	J42_45	J43_45	145.00	300.0	140.0	0.0524	Open
P5954	J42_46	J42_47	145.00	150.0	140.0	0.0256	Open
P5955	J42_46	J43_46	145.00	250.0	130.0	0.0563	Open
P5956	J42_47	J42_48	145.00	100.0	135.0	0.1350	Open
P5957	J42_47	J43_47	145.00	250.0	130.0	0.1325	Open
P5958	J42_48	J42_49	145.00	200.0	130.0	0.1469	Open
P5959	J42_48	J43_48	145.00	150.0	130.0	0.0711	Open
P5960	J42_49	J42_50	145.00	300.0	135.0	0.0170	Open
P5961	J42_49	J43_49	145.00	150.0	130.0	0.1202	Open
P5962	J42_50	J42_51	145.00	250.0	130.0	0.0900	Open
P5963	J42_50	J43_50	145.00	200.0	135.0	0.0994	Open
P5964	J42_51	J42_52	145.00	600.0	120.0	0.0402	Open
P5965	J42_51	J43_51	145.00	350.0	130.0	0.0173	Open
P5966	J42_52	J42_53	145.00	100.0	135.0	0.0439	Open
P5967	J42_52	J43_52	145.00	150.0	125.0	0.0361	Open
P5968	J42_53	J42_54	145.00	100.0	140.0	0.1165	Open
P5969	J42_53	J43_53	145.00	150.0	135.0	0.1437	Open
P5970	J42_54	J42_55	145.00	150.0	130.0	0.1484	Open
P5971	J42_54	J43_54	145.00	150.0	125.0	0.1270	Open
P5972	J42_55	J42_56	145.00	200.0	130.0	0.0776	Open
P5973	J42_55	J43_55	145.00	250.0	135.0	0.0705	Open
P5974	J42_56	J42_57	145.00	250.0	135.0	0.0025	Open
P5975	J42_56	J43_56	145.00	300.0	140.0	0.1471	Open
P5976	J42_57	J42_58	145.00	250.0	130.0	0.0580	Open
P5977	J42_57	J43_57	145.00	250.0	135.0	0.0679	Open
P5978	J42_58	J42_59	145.00	300.0	135.0	0.0168	Open
P5979	J42_58	J43_58	145.00	100.0	130.0	0.0015	Open
P5980	J42_59	J42_60	145.00	150.0	125.0	0.0257	Open
P5981	J42_59	J43_59	145.00	200.0	135.0	0.1015	Open
P5982	J42_60	J42_61	145.00	250.0	140.0	0.1172	Open
P5983	J42_60	J43_60	145.00	300.0	140.0	0.1023	Open
P5984	J42_61	J42_62	145.00	350.0	120.0	0.0405	Open
P5985	J42_61	J43_61	145.00	450.0	120.0	0.0114	Open
P5986	J42_62	J42_63	145.00	200.0	135.0	0.0183	Open
P5987	J42_62	J43_62	145.00	200.0	135.0	0.0587	Open
P5988	J42_63	J42_64	145.00	150.0	140.0	0.0239	Open
P5989	J42_63	J43_63	145.00	100.0	140.0	0.0553	Open
P5990	J42_64	J42_65	145.00	200.0	125.0	0.1002	Open
P5991	J42_64	J43_64	145.00	300.0	130.0	0.1293	Open
P5992	J42_65	J42_66	145.00	150.0	135.0	0.0219	Open
P5993	J42_65	J43_65	145.00	100.0	125.0	0.0423	Open
P5994	J42_66	J42_67	145.00	200.0	140.0	0.1438	Open
P5995	J42_66	J43_66	145.00	250.0	140.0	0.0160	Open
P5996	J42_67	J42_68	145.00	100.0	140.0	0.0054	Open
P5997	J42_67	J43_67	145.00	300.0	130.0	0.0673	Open
P5998	J42_68	J42_69	145.00	200.0	135.0	0.0772	Open
P5999	J42_68	J43_68	145.00	100.0	125.0	0.1274	Open
P6000	J42_69	J42_70	145.00	150.0	135.0	0.0011	Open
P6001	J42_69	J43_69	145.00	250.0	125.0	0.0555	Open
P6002	J42_70	J42_71	145.00	150.0	130.0	0.0190	Open
P6003	J42_70	J43_70	145.00	100.0	130.0	0.1076	Open
P6004	J42_71	J42_72	145.00	350.0	130.0	0.0377	Open
P6005	J42_71	J43_71	145.00	400.0	120.0	0.0120	Open
P6006	J42_72	J43_72	145.00	200.0	135.0	0.0109	Open
P6007	J43_1	J43_2	145.00	600.0	120.0	0.0080	Open
P6008	J43_1	J44_1	145.00	600.0	120.0	0.0339	Open
P6009	J43_2	J43_3	145.00	150.0	130.0	0.0979	Open
P6010	J43_2	J44_2	145.00	100.0	140.0	0.1349	Open
P6011	J43_3	J43_4	145.00	300.0	130.0	0.0424	Open
P6012	J43_3	J44_3	145.00	150.0	135.0	0.0110	Open
P6013	J43_4	J43_5	145.00	250.0	125.0	0.1291	Open
P6014	J43_4	J44_4	145.00	300.0	125.0	0.0785	Open
P6015	J43_5	J43_6	145.00	250.0	135.0	0.0726	Open
P6016	J43_5	J44_5	145.00	250.0	130.0	0.1488	Open
P6017	J43_6	J43_7	145.00	100.0	130.0	0.0334	Open
P6018	J43_6	J44_6	145.00	200.0	135.0	0.0588	Open
P6019	J43_7	J43_8	145.00	200.0	135.0	0.0945	Open
P6020	J43_7	J44_7	145.00	300.0	135.0	0.0180	Open
P6021	J43_8	J43_9	145.00	100.0	135.0	0.0388	Open
P6022	J43_8	J44_8	145.00	300.0	135.0	0.0996	Open
P6023	J43_9	J43_10	145.00	150.0	125.0	0.0015	Open
P6024	J43_9	J44_9	145.00	150.0	130.0	0.1490	Open
P6025	J43_10	J43_11	145.00	250.0	140.0	0.1135	Open
P6026	J43_10	J44_10	145.00	200.0	130.0	0.0964	Open
P6027	J43_11	J43_12	145.00	400.0	120.0	0.0226	Open
P6028	J43_11	J44_11	145.00	600.0	125.0	0.0094	Open
P6029	J43_12	J43_13	145.00	100.0	140.0	0.0916	Open
P6030	J43_12	J44_12	145.00	250.0	140.0	0.1151	Open
P6031	J43_13	J43_14	145.00	200.0	135.0	0.0760	Open
P6032	J43_13	J44_13	145.00	100.0	135.0	0.1225	Open
P6033	J43_14	J43_15	145.00	250.0	135.0	0.0610	Open
P6034	J43_14	J44_14	145.00	250.0	140.0	0.1410	Open
P6035	J43_15	J43_16	145.00	200.0	125.0	0.0303	Open
P6036	J43_15	J44_15	145.00	200.0	130.0	0.0586	Open
P6037	J43_16	J43_17	145.00	300.0	135.0	0.0994	Open
P6038	J43_16	J44_16	145.00	200.0	140.0	0.1294	Open
P6039	J43_17	J43_18	145.00	300.0	125.0	0.0173	Open
P6040	J43_17	J44_17	145.00	150.0	130.0	0.1385	Open
P6041	J43_18	J43_19	145.00	100.0	140.0	0.0519	Open
P6042	J43_18	J44_18	145.00	150.0	140.0	0.1405	Open
P6043	J43_19	J43_20	145.00	200.0	125.0	0.0419	Open
P6044	J43_19	J44_19	145.00	250.0	130.0	0.0579	Open
P6045	J43_20	J43_21	145.00	250.0	135.0	0.1321	Open
P6046	J43_20	J44_20	145.00	200.0	140.0	0.1401	Open
P6047	J43_21	J43_22	145.00	300.0	130.0	0.0030	Open
P6048	J43_21	J44_21	145.00	400.0	130.0	0.0156	Open
P6049	J43_22	J43_23	145.00	150.0	135.0	0.0417	Open
P6050	J43_22	J44_22	145.00	100.0	130.0	0.0175	Open
P6051	J43_23	J43_24	145.00	250.0	140.0	0.1019	Open
P6052	J43_23	J44_23	145.00	100.0	140.0	0.0236	Open
P6053	J43_24	J43_25	145.00	200.0	130.0	0.0462	Open
P6054	J43_24	J44_24	145.00	250.0	140.0	0.0254	Open
P6055	J43_25	J43_26	145.00	150.0	140.0	0.0462	Open
P6056	J43_25	J44_25	145.00	200.0	130.0	0.0973	Open
P6057	J43_26	J43_27	145.00	200.0	135.0	0.1081	Open
P6058	J43_26	J44_26	145.00	100.0	130.0	0.0543	Open
P6059	J43_27	J43_28	145.00	200.0	125.0	0.1465	Open
P6060	J43_27	J44_27	145.00	200.0	125.0	0.0037	Open
P6061	J43_28	J43_29	145.00	200.0	135.0	0.0378	Open
P6062	J43_28	J44_28	145.00	200.0	125.0	0.0020	Open
P6063	J43_29	J43_30	145.00	300.0	135.0	0.1386	Open
P6064	J43_29	J44_29	145.00	150.0	130.0	0.0594	Open
P6065	J43_30	J43_31	145.00	300.0	130.0	0.0590	Open
P6066	J43_30	J44_30	145.00	100.0	135.0	0.0824	Open
P6067	J43_31	J43_32	145.00	450.0	125.0	0.0227	Open
P6068	J43_31	J44_31	145.00	400.0	120.0	0.0259	Open
P6069	J43_32	J43_33	145.00	150.0	130.0	0.0714	Open
P6070	J43_32	J44_32	145.00	150.0	140.0	0.0259	Open
P6071	J43_33	J43_34	145.00	300.0	130.0	0.0233	Open
P6072	J43_33	J44_33	145.00	150.0	130.0	0.1486	Open
P6073	J43_34	J43_35	145.00	200.0	125.0	0.1011	Open
P6074	J43_34	J44_34	145.00	200.0	130.0	0.1133	Open
P6075	J43_35	J43_36	145.00	100.0	135.0	0.0952	Open
P6076	J43_35	J44_35	145.00	200.0	130.0	0.1446	Open
P6077	J43_36	J43_37	145.00	100.0	125.0	0.1288	Open
P6078	J43_36	J44_36	145.00	200.0	140.0	0.1028	Open
P6079	J43_37	J43_38	145.00	200.0	130.0	0.0422	Open
P6080	J43_37	J44_37	145.00	150.0	135.0	0.0612	Open
P6081	J43_38	J43_39	145.00	250.0	130.0	0.0572	Open
P6082	J43_38	J44_38	145.00	100.0	140.0	0.0555	Open
P6083	J43_39	J43_40	145.00	200.0	125.0	0.1180	Open
P6084	J43_39	J44_39	145.00	100.0	125.0	0.0128	Open
P6085	J43_40	J43_41	145.00	100.0	140.0	0.0145	Open
P6086	J43_40	J44_40	145.00	300.0	130.0	0.1195	Open
P6087	J43_41	J43_42	145.00	600.0	120.0	0.0235	Open
P6088	J43_41	J44_41	145.00	400.0	130.0	0.0407	Open
P6089	J43_42	J43_43	145.00	250.0	140.0	0.1216	Open
P6090	J43_42	J44_42	145.00	300.0	135.0	0.0641	Open
P6091	J43_43	J43_44	145.00	100.0	140.0	0.0036	Open
P6092	J43_43	J44_43	145.00	300.0	140.0	0.1065	Open
P6093	J43_44	J43_45	145.00	100.0	135.0	0.1140	Open
P6094	J43_44	J44_44	145.00	150.0	140.0	0.0392	Open
P6095	J43_45	J43_46	145.00	150.0	130.0	0.1347	Open
P6096	J43_45	J44_45	145.00	300.0	125.0	0.1146	Open
P6097	J43_46	J43_47	145.00	200.0	140.0	0.1372	Open
P6098	J43_46	J44_46	145.00	100.0	140.0	0.1241	Open
P6099	J43_47	J43_48	145.00	300.0	130.0	0.0204	Open
P6100	J43_47	J44_47	145.00	250.0	140.0	0.0367	Open
P6101	J43_48	J43_49	145.00	300.0	125.0	0.0437	Open
P6102	J43_48	J44_48	145.00	100.0	130.0	0.1004	Open
P6103	J43_49	J43_50	145.00	150.0	135.0	0.0708	Open
P6104	J43_49	J44_49	145.00	200.0	130.0	0.0837	Open
P6105	J43_50	J43_51	145.00	150.0	130.0	0.1422	Open
P6106	J43_50	J44_50	145.00	100.0	125.0	0.0474	Open
P6107	J43_51	J43_52	145.00	450.0	120.0	0.0294	Open
P6108	J43_51	J44_51	145.00	400.0	130.0	0.0385	Open
P6109	J43_52	J43_53	145.00	150.0	130.0	0.1333	Open
P6110	J43_52	J44_52	145.00	100.0	135.0	0.1221	Open
P6111	J43_53	J43_54	145.00	150.0	140.0	0.0135	Open
P6112	J43_53	J44_53	145.00	300.0	140.0	0.0881	Open
P6113	J43_54	J43_55	145.00	250.0	125.0	0.0280	Open
P6114	J43_54	J44_54	145.00	300.0	125.0	0.1163	Open
P6115	J43_55	J43_56	145.00	300.0	140.0	0.1305	Open
P6116	J43_55	J44_55	145.00	150.0	130.0	0.0684	Open
P6117	J43_56	J43_57	145.00	250.0	125.0	0.0482	Open
P6118	J43_56	J44_56	145.00	250.0	135.0	0.0009	Open
P6119	J43_57	J43_58	145.00	300.0	125.0	0.0189	Open
P6120	J43_57	J44_57	145.00	300.0	135.0	0.0058	Open
P6121	J43_58	J43_59	145.00	200.0	125.0	0.1092	Open
P6122	J43_58	J44_58	145.00	150.0	125.0	0.0397	Open
P6123	J43_59	J43_60	145.00	300.0	140.0	0.0208	Open
P6124	J43_59	J44_59	145.00	200.0	125.0	0.1162	Open
P6125	J43_60	J43_61	145.00	100.0	140.0	0.1333	Open
P6126	J43_60	J44_60	145.00	100.0	135.0	0.1239	Open
P6127	J43_61	J43_62	145.00	400.0	120.0	0.0425	Open
P6128	J43_61	J44_61	145.00	400.0	120.0	0.0434	Open
P6129	J43_62	J43_63	145.00	100.0	140.0	0.0388	Open
P6130	J43_62	J44_62	145.00	250.0	140.0	0.1323	Open
P6131	J43_63	J43_64	145.00	300.0	130.0	0.1422	Open
P6132	J43_63	J44_63	145.00	100.0	125.0	0.0637	Open
P6133	J43_64	J43_65	145.00	100.0	135.0	0.0939	Open
P6134	J43_64	J44_64	145.00	100.0	135.0	0.0636	Open
P6135	J43_65	J43_66	145.00	150.0	125.0	0.0839	Open
P6136	J43_65	J44_65	145.00	150.0	125.0	0.1494	Open
P6137	J43_66	J43_67	145.00	200.0	140.0	0.1303	Open
P6138	J43_66	J44_66	145.00	300.0	130.0	0.0686	Open
P6139	J43_67	J43_68	145.00	250.0	130.0	0.0879	Open
P6140	J43_67	J44_67	145.00	250.0	125.0	0.0913	Open
P6141	J43_68	J43_69	145.00	250.0	125.0	0.0358	Open
P6142	J43_68	J44_68	145.00	250.0	140.0	0.1030	Open
P6143	J43_69	J43_70	145.00	300.0	125.0	0.0947	Open
P6144	J43_69	J44_69	145.00	300.0	140.0	0.0453	Open
P6145	J43_70	J43_71	145.00	100.0	130.0	0.0845	Open
P6146	J43_70	J44_70	145.00	300.0	130.0	0.1500	Open
P6147	J43_71	J43_72	145.00	600.0	130.0	0.0019	Open
P6148	J43_71	J44_71	145.00	500.0	125.0	0.0083	Open
P6149	J43_72	J44_72	145.00	100.0	135.0	0.0867	Open
P6150	J44_1	J44_2	145.00	500.0	120.0	0.0265	Open
P6151	J44_1	J45_1	145.00	350.0	120.0	0.0320	Open
P6152	J44_2	J44_3	145.00	300.0	135.0	0.0264	Open
P6153	J44_2	J45_2	145.00	300.0	130.0	0.0458	Open
P6154	J44_3	J44_4	145.00	300.0	135.0	0.0789	Open
P6155	J44_3	J45_3	145.00	200.0	140.0	0.0029	Open
P6156	J44_4	J44_5	145.00	300.0	135.0	0.0899	Open
P6157	J44_4	J45_4	145.00	100.0	135.0	0.0949	Open
P6158	J44_5	J44_6	145.00	250.0	135.0	0.1470	Open
P6159	J44_5	J45_5	145.00	250.0	125.0	0.0798	Open
P6160	J44_6	J44_7	145.00	150.0	135.0	0.0458	Open
P6161	J44_6	J45_6	145.00	150.0	140.0	0.0742	Open
P6162	J44_7	J44_8	145.00	300.0	135.0	0.0644	Open
P6163	J44_7	J45_7	145.00	150.0	140.0	0.0405	Open
P6164	J44_8	J44_9	145.00	200.0	135.0	0.0685	Open
P6165	J44_8	J45_8	145.00	300.0	140.0	0.0095	Open
P6166	J44_9	J44_10	145.00	300.0	135.0	0.0596	Open
P6167	J44_9	J45_9	145.00	250.0	125.0	0.0991	Open
P6168	J44_10	J44_11	145.00	150.0	125.0	0.1172	Open
P6169	J44_10	J45_10	145.00	150.0	130.0	0.1048	Open
P6170	J44_11	J44_12	145.00	300.0	125.0	0.0255	Open
P6171	J44_11	J45_11	145.00	500.0	120.0	0.0308	Open
P6172	J44_12	J44_13	145.00	100.0	135.0	0.1371	Open
P6173	J44_12	J45_12	145.00	150.0	125.0	0.0884	Open
P6174	J44_13	J44_14	145.00	300.0	125.0	0.0266	Open
P6175	J44_13	J45_13	145.00	250.0	130.0	0.1300	Open
P6176	J44_14	J44_15	145.00	100.0	140.0	0.0032	Open
P6177	J44_14	J45_14	145.00	300.0	125.0	0.0683	Open
P6178	J44_15	J44_16	145.00	100.0	125.0	0.1089	Open
P6179	J44_15	J45_15	145.00	250.0	130.0	0.1010	Open
P6180	J44_16	J44_17	145.00	200.0	125.0	0.0247	Open
P6181	J44_16	J45_16	145.00	200.0	125.0	0.1397	Open
P6182	J44_17	J44_18	145.00	300.0	125.0	0.0126	Open
P6183	J44_17	J45_17	145.00	200.0	130.0	0.1070	Open
P6184	J44_18	J44_19	145.00	150.0	125.0	0.0012	Open
P6185	J44_18	J45_18	145.00	150.0	135.0	0.0206	Open
P6186	J44_19	J44_20	145.00	200.0	130.0	0.1452	Open
P6187	J44_19	J45_19	145.00	100.0	125.0	0.1226	Open
P6188	J44_20	J44_21	145.00	150.0	135.0	0.0545	Open
P6189	J44_20	J45_20	145.00	250.0	130.0	0.0942	Open
P6190	J44_21	J44_22	145.00	500.0	125.0	0.0492	Open
P6191	J44_21	J45_21	145.00	400.0	120.0	0.0259	Open
P6192	J44_22	J44_23	145.00	300.0	135.0	0.0682	Open
P6193	J44_22	J45_22	145.00	200.0	130.0	0.0448	Open
P6194	J44_23	J44_24	145.00	250.0	135.0	0.0943	Open
P6195	J44_23	J45_23	145.00	200.0	130.0	0.0053	Open
P6196	J44_24	J44_25	145.00	200.0	140.0	0.1456	Open
P6197	J44_24	J45_24	145.00	100.0	130.0	0.0613	Open
P6198	J44_25	J44_26	145.00	300.0	140.0	0.0054	Open
P6199	J44_25	J45_25	145.00	300.0	125.0	0.0581	Open
P6200	J44_26	J44_27	145.00	100.0	130.0	0.0462	Open
P6201	J44_26	J45_26	145.00	100.0	135.0	0.0066	Open
P6202	J44_27	J44_28	145.00	150.0	130.0	0.1021	Open
P6203	J44_27	J45_27	145.00	200.0	135.0	0.1476	Open
P6204	J44_28	J44_29	145.00	250.0	130.0	0.0071	Open
P6205	J44_28	J45_28	145.00	100.0	135.0	0.0124	Open
P6206	J44_29	J44_30	145.00	100.0	135.0	0.1466	Open
P6207	J44_29	J45_29	145.00	100.0	130.0	0.1041	Open
P6208	J44_30	J44_31	145.00	100.0	125.0	0.1128	Open
P6209	J44_30	J45_30	145.00	200.0	135.0	0.0225	Open
P6210	J44_31	J44_32	145.00	350.0	120.0	0.0461	Open
P6211	J44_31	J45_31	145.00	350.0	130.0	0.0057	Open
P6212	J44_32	J44_33	145.00	200.0	135.0	0.0341	Open
P6213	J44_32	J45_32	145.00	150.0	125.0	0.0720	Open
P6214	J44_33	J44_34	145.00	250.0	125.0	0.1096	Open
P6215	J44_33	J45_33	145.00	250.0	130.0	0.1041	Open
P6216	J44_34	J44_35	145.00	100.0	130.0	0.1064	Open
P6217	J44_34	J45_34	145.00	100.0	135.0	0.0499	Open
P6218	J44_35	J44_36	145.00	100.0	135.0	0.1050	Open
P6219	J44_35	J45_35	145.00	150.0	125.0	0.0033	Open
P6220	J44_36	J44_37	145.00	250.0	135.0	0.0754	Open
P6221	J44_36	J45_36	145.00	150.0	135.0	0.0153	Open
P6222	J44_37	J44_38	145.00	200.0	140.0	0.0625	Open
P6223	J44_37	J45_37	145.00	100.0	130.0	0.0552	Open
P6224	J44_38	J44_39	145.00	200.0	135.0	0.0099	Open
P6225	J44_38	J45_38	145.00	300.0	140.0	0.0633	Open
P6226	J44_39	J44_40	145.00	300.0	140.0	0.0699	Open
P6227	J44_39	J45_39	145.00	200.0	125.0	0.1379	Open
P6228	J44_40	J44_41	145.00	200.0	135.0	0.0025	Open
P6229	J44_40	J45_40	145.00	100.0	130.0	0.0966	Open
P6230	J44_41	J44_42	145.00	600.0	130.0	0.0320	Open
P6231	J44_41	J45_41	145.00	500.0	130.0	0.0243	Open
P6232	J44_42	J44_43	145.00	250.0	135.0	0.1295	Open
P6233	J44_42	J45_42	145.00	100.0	135.0	0.0049	Open
P6234	J44_43	J44_44	145.00	200.0	140.0	0.1141	Open
P6235	J44_43	J45_43	145.00	200.0	140.0	0.1434	Open
P6236	J44_44	J44_45	145.00	150.0	130.0	0.0987	Open
P6237	J44_44	J45_44	145.00	200.0	140.0	0.1477	Open
P6238	J44_45	J44_46	145.00	100.0	130.0	0.0354	Open
P6239	J44_45	J45_45	145.00	200.0	135.0	0.1012	Open
P6240	J44_46	J44_47	145.00	300.0	130.0	0.0674	Open
P6241	J44_46	J45_46	145.00	100.0	125.0	0.0671	Open
P6242	J44_47	J44_48	145.00	300.0	130.0	0.0294	Open
P6243	J44_47	J45_47	145.00	200.0	130.0	0.1480	Open
P6244	J44_48	J44_49	145.00	150.0	125.0	0.0510	Open
P6245	J44_48	J45_48	145.00	200.0	140.0	0.0282	Open
P6246	J44_49	J44_50	145.00	200.0	130.0	0.0301	Open
P6247	J44_49	J45_49	145.00	150.0	125.0	0.1357	Open
P6248	J44_50	J44_51	145.00	200.0	125.0	0.1306	Open
P6249	J44_50	J45_50	145.00	200.0	130.0	0.0006	Open
P6250	J44_51	J44_52	145.00	500.0	125.0	0.0057	Open
P6251	J44_51	J45_51	145.00	400.0	130.0	0.0274	Open
P6252	J44_52	J44_53	145.00	250.0	125.0	0.1318	Open
P6253	J44_52	J45_52	145.00	200.0	130.0	0.0901	Open
P6254	J44_53	J44_54	145.00	250.0	140.0	0.0567	Open
P6255	J44_53	J45_53	145.00	200.0	125.0	0.0483	Open
P6256	J44_54	J44_55	145.00	150.0	130.0	0.0605	Open
P6257	J44_54	J45_54	145.00	150.0	135.0	0.0082	Open
P6258	J44_55	J44_56	145.00	300.0	130.0	0.0217	Open
P6259	J44_55	J45_55	145.00	100.0	140.0	0.0324	Open
P6260	J44_56	J44_57	145.00	150.0	125.0	0.0255	Open
P6261	J44_56	J45_56	145.00	300.0	125.0	0.1096	Open
P6262	J44_57	J44_58	145.00	150.0	130.0	0.1000	Open
P6263	J44_57	J45_57	145.00	200.0	135.0	0.0276	Open
P6264	J44_58	J44_59	145.00	150.0	140.0	0.1035	Open
P6265	J44_58	J45_58	145.00	100.0	130.0	0.0374	Open
P6266	J44_59	J44_60	145.00	150.0	130.0	0.0241	Open
P6267	J44_59	J45_59	145.00	300.0	140.0	0.1296	Open
P6268	J44_60	J44_61	145.00	100.0	125.0	0.0952	Open
P6269	J44_60	J45_60	145.00	300.0	130.0	0.0752	Open
P6270	J44_61	J44_62	145.00	450.0	130.0	0.0429	Open
P6271	J44_61	J45_61	145.00	300.0	125.0	0.0101	Open
P6272	J44_62	J44_63	145.00	150.0	130.0	0.0190	Open
P6273	J44_62	J45_62	145.00	300.0	130.0	0.1192	Open
P6274	J44_63	J44_64	145.00	100.0	140.0	0.0301	Open
P6275	J44_63	J45_63	145.00	100.0	130.0	0.1156	Open
P6276	J44_64	J44_65	145.00	150.0	125.0	0.1319	Open
P6277	J44_64	J45_64	145.00	250.0	130.0	0.0398	Open
P6278	J44_65	J44_66	145.00	250.0	140.0	0.0798	Open
P6279	J44_65	J45_65	145.00	300.0	135.0	0.0644	Open
P6280	J44_66	J44_67	145.00	300.0	135.0	0.1153	Open
P6281	J44_66	J45_66	145.00	100.0	135.0	0.0211	Open
P6282	J44_67	J44_68	145.00	300.0	135.0	0.1027	Open
P6283	J44_67	J45_67	145.00	150.0	135.0	0.0982	Open
P6284	J44_68	J44_69	145.00	250.0	125.0	0.0115	Open
P6285	J44_68	J45_68	145.00	200.0	140.0	0.0188	Open
P6286	J44_69	J44_70	145.00	300.0	125.0	0.0816	Open
P6287	J44_69	J45_69	145.00	250.0	130.0	0.1283	Open
P6288	J44_70	J44_71	145.00	250.0	125.0	0.0477	Open
P6289	J44_70	J45_70	145.00	300.0	125.0	0.0636	Open
P6290	J44_71	J44_72	145.00	500.0	130.0	0.0100	Open
P6291	J44_71	J45_71	145.00	350.0	130.0	0.0252	Open
P6292	J44_72	J45_72	145.00	300.0	125.0	0.0595	Open
P6293	J45_1	J45_2	145.00	450.0	130.0	0.0011	Open
P6294	J45_1	J46_1	145.00	600.0	120.0	0.0312	Open
P6295	J45_2	J45_3	145.00	100.0	130.0	0.0972	Open
P6296	J45_2	J46_2	145.00	300.0	135.0	0.0603	Open
P6297	J45_3	J45_4	145.00	250.0	135.0	0.0603	Open
P6298	J45_3	J46_3	145.00	250.0	125.0	0.0113	Open
P6299	J45_4	J45_5	145.00	150.0	135.0	0.0029	Open
P6300	J45_4	J46_4	145.00	100.0	140.0	0.1406	Open
P6301	J45_5	J45_6	145.00	250.0	125.0	0.1410	Open
P6302	J45_5	J46_5	145.00	150.0	140.0	0.0077	Open
P6303	J45_6	J45_7	145.00	150.0	125.0	0.1385	Open
P6304	J45_6	J46_6	145.00	300.0	135.0	0.1463	Open
P6305	J45_7	J45_8	145.00	100.0	140.0	0.0360	Open
P6306	J45_7	J46_7	145.00	150.0	125.0	0.1445	Open
P6307	J45_8	J45_9	145.00	300.0	135.0	0.0405	Open
P6308	J45_8	J46_8	145.00	200.0	130.0	0.1317	Open
P6309	J45_9	J45_10	145.00	300.0	140.0	0.0556	Open
P6310	J45_9	J46_9	145.00	300.0	135.0	0.1336	Open
P6311	J45_10	J45_11	145.00	300.0	130.0	0.1146	Open
P6312	J45_10	J46_10	145.00	250.0	125.0	0.1135	Open
P6313	J45_11	J45_12	145.00	500.0	130.0	0.0423	Open
P6314	J45_11	J46_11	145.00	400.0	125.0	0.0296	Open
P6315	J45_12	J45_13	145.00	100.0	140.0	0.0773	Open
P6316	J45_12	J46_12	145.00	200.0	140.0	0.0307	Open
P6317	J45_13	J45_14	145.00	100.0	125.0	0.0177	Open
P6318	J45_13	J46_13	145.00	100.0	125.0	0.0908	Open
P6319	J45_14	J45_15	145.00	200.0	125.0	0.0568	Open
P6320	J45_14	J46_14	145.00	250.0	135.0	0.0505	Open
P6321	J45_15	J45_16	145.00	300.0	125.0	0.0669	Open
P6322	J45_15	J46_15	145.00	150.0	125.0	0.0138	Open
P6323	J45_16	J45_17	145.00	150.0	130.0	0.0616	Open
P6324	J45_16	J46_16	145.00	200.0	135.0	0.0695	Open
P6325	J45_17	J45_18	145.00	250.0	135.0	0.0057	Open
P6326	J45_17	J46_17	145.00	250.0	125.0	0.1198	Open
P6327	J45_18	J45_19	145.00	100.0	135.0	0.0067	Open
P6328	J45_18	J46_18	145.00	100.0	140.0	0.1410	Open
P6329	J45_19	J45_20	145.00	250.0	140.0	0.0834	Open
P6330	J45_19	J46_19	145.00	300.0	130.0	0.0081	Open
P6331	J45_20	J45_21	145.00	300.0	135.0	0.0026	Open
P6332	J45_20	J46_20	145.00	100.0	125.0	0.1411	Open
P6333	J45_21	J45_22	145.00	300.0	125.0	0.0280	Open
P6334	J45_21	J46_21	145.00	500.0	125.0	0.0229	Open
P6335	J45_22	J45_23	145.00	150.0	130.0	0.0319	Open
P6336	J45_22	J46_22	145.00	250.0	135.0	0.1391	Open
P6337	J45_23	J45_24	145.00	150.0	125.0	0.0986	Open
P6338	J45_23	J46_23	145.00	300.0	140.0	0.0907	Open
P6339	J45_24	J45_25	145.00	200.0	125.0	0.0914	Open
P6340	J45_24	J46_24	145.00	300.0	135.0	0.1429	Open
P6341	J45_25	J45_26	145.00	150.0	130.0	0.0690	Open
P6342	J45_25	J46_25	145.00	200.0	125.0	0.0328	Open
P6343	J45_26	J45_27	145.00	300.0	125.0	0.0206	Open
P6344	J45_26	J46_26	145.00	100.0	125.0	0.0559	Open
P6345	J45_27	J45_28	145.00	250.0	130.0	0.1468	Open
P6346	J45_27	J46_27	145.00	150.0	125.0	0.1379	Open
P6347	J45_28	J45_29	145.00	150.0	125.0	0.0653	Open
P6348	J45_28	J46_28	145.00	250.0	135.0	0.0263	Open
P6349	J45_29	J45_30	145.00	300.0	135.0	0.0288	Open
P6350	J45_29	J46_29	145.00	300.0	140.0	0.1076	Open
P6351	J45_30	J45_31	145.00	200.0	125.0	0.0354	Open
P6352	J45_30	J46_30	145.00	200.0	130.0	0.1164	Open
P6353	J45_31	J45_32	145.00	350.0	130.0	0.0417	Open
P6354	J45_31	J46_31	145.00	500.0	130.0	0.0127	Open
P6355	J45_32	J45_33	145.00	100.0	140.0	0.0717	Open
P6356	J45_32	J46_32	145.00	300.0	125.0	0.0214	Open
P6357	J45_33	J45_34	145.00	100.0	125.0	0.0671	Open
P6358	J45_33	J46_33	145.00	200.0	130.0	0.0237	Open
P6359	J45_34	J45_35	145.00	300.0	140.0	0.1305	Open
P6360	J45_34	J46_34	145.00	150.0	140.0	0.0503	Open
P6361	J45_35	J45_36	145.00	150.0	140.0	0.0053	Open
P6362	J45_35	J46_35	145.00	200.0	135.0	0.0059	Open
P6363	J45_36	J45_37	145.00	200.0	125.0	0.0353	Open
P6364	J45_36	J46_36	145.00	200.0	140.0	0.1402	Open
P6365	J45_37	J45_38	145.00	100.0	135.0	0.1333	Open
P6366	J45_37	J46_37	145.00	150.0	125.0	0.0807	Open
P6367	J45_38	J45_39	145.00	150.0	140.0	0.1163	Open
P6368	J45_38	J46_38	145.00	300.0	140.0	0.0987	Open
P6369	J45_39	J45_40	145.00	300.0	130.0	0.0223	Open
P6370	J45_39	J46_39	145.00	150.0	130.0	0.1192	Open
P6371	J45_40	J45_41	145.00	250.0	130.0	0.0777	Open
P6372	J45_40	J46_40	145.00	200.0	130.0	0.1041	Open
P6373	J45_41	J45_42	145.00	450.0	120.0	0.0326	Open
P6374	J45_41	J46_41	145.00	450.0	120.0	0.0442	Open
P6375	J45_42	J45_43	145.00	100.0	125.0	0.1080	Open
P6376	J45_42	J46_42	145.00	150.0	125.0	0.0700	Open
P6377	J45_43	J45_44	145.00	200.0	135.0	0.1299	Open
P6378	J45_43	J46_43	145.00	100.0	130.0	0.0441	Open
P6379	J45_44	J45_45	145.00	150.0	130.0	0.0212	Open
P6380	J45_44	J46_44	145.00	200.0	135.0	0.0689	Open
P6381	J45_45	J45_46	145.00	300.0	125.0	0.1228	Open
P6382	J45_45	J46_45	145.00	150.0	140.0	0.0783	Open
P6383	J45_46	J45_47	145.00	100.0	140.0	0.1274	Open
P6384	J45_46	J46_46	145.00	150.0	130.0	0.0379	Open
P6385	J45_47	J45_48	145.00	300.0	130.0	0.1276	Open
P6386	J45_47	J46_47	145.00	250.0	140.0	0.0349	Open
P6387	J45_48	J45_49	145.00	200.0	140.0	0.0138	Open
P6388	J45_48	J46_48	145.00	200.0	125.0	0.0432	Open
P6389	J45_49	J45_50	145.00	150.0	130.0	0.0948	Open
P6390	J45_49	J46_49	145.00	150.0	125.0	0.0686	Open
P6391	J45_50	J45_51	145.00	250.0	125.0	0.1042	Open
P6392	J45_50	J46_50	145.00	250.0	130.0	0.0375	Open
P6393	J45_51	J45_52	145.00	600.0	125.0	0.0407	Open
P6394	J45_51	J46_51	145.00	350.0	120.0	0.0460	Open
P6395	J45_52	J45_53	145.00	100.0	140.0	0.1149	Open
P6396	J45_52	J46_52	145.00	250.0	135.0	0.0480	Open
P6397	J45_53	J45_54	145.00	100.0	140.0	0.1245	Open
P6398	J45_53	J46_53	145.00	150.0	125.0	0.0625	Open
P6399	J45_54	J45_55	145.00	150.0	125.0	0.0106	Open
P6400	J45_54	J46_54	145.00	300.0	130.0	0.0528	Open
P6401	J45_55	J45_56	145.00	250.0	125.0	0.0808	Open
P6402	J45_55	J46_55	145.00	300.0	125.0	0.0013	Open
P6403	J45_56	J45_57	145.00	250.0	135.0	0.0871	Open
P6404	J45_56	J46_56	145.00	150.0	135.0	0.0380	Open
P6405	J45_57	J45_58	145.00	250.0	135.0	0.1420	Open
P6406	J45_57	J46_57	145.00	200.0	135.0	0.0248	Open
P6407	J45_58	J45_59	145.00	150.0	130.0	0.0525	Open
P6408	J45_58	J46_58	145.00	300.0	135.0	0.0712	Open
P6409	J45_59	J45_60	145.00	150.0	140.0	0.0208	Open
P6410	J45_59	J46_59	145.00	250.0	130.0	0.0871	Open
P6411	J45_60	J45_61	145.00	200.0	140.0	0.0298	Open
P6412	J45_60	J46_60	145.00	100.0	125.0	0.0894	Open
P6413	J45_61	J45_62	145.00	350.0	120.0	0.0306	Open
P6414	J45_61	J46_61	145.00	350.0	120.0	0.0050	Open
P6415	J45_62	J45_63	145.00	250.0	135.0	0.1430	Open
P6416	J45_62	J46_62	145.00	200.0	125.0	0.0639	Open
P6417	J45_63	J45_64	145.00	100.0	130.0	0.0739	Open
P6418	J45_63	J46_63	145.00	150.0	140.0	0.0014	Open
P6419	J45_64	J45_65	145.00	200.0	130.0	0.1046	Open
P6420	J45_64	J46_64	145.00	300.0	135.0	0.0370	Open
P6421	J45_65	J45_66	145.00	300.0	130.0	0.0580	Open
P6422	J45_65	J46_65	145.00	250.0	125.0	0.1153	Open
P6423	J45_66	J45_67	145.00	100.0	130.0	0.0354	Open
P6424	J45_66	J46_66	145.00	250.0	130.0	0.0887	Open
P6425	J45_67	J45_68	145.00	100.0	125.0	0.1450	Open
P6426	J45_67	J46_67	145.00	150.0	130.0	0.0938	Open
P6427	J45_68	J45_69	145.00	300.0	135.0	0.0243	Open
P6428	J45_68	J46_68	145.00	300.0	130.0	0.0359	Open
P6429	J45_69	J45_70	145.00	150.0	130.0	0.0869	Open
P6430	J45_69	J46_69	145.00	300.0	125.0	0.1412	Open
P6431	J45_70	J45_71	145.00	250.0	135.0	0.0113	Open
P6432	J45_70	J46_70	145.00	150.0	125.0	0.0277	Open
P6433	J45_71	J45_72	145.00	350.0	125.0	0.0241	Open
P6434	J45_71	J46_71	145.00	600.0	120.0	0.0409	Open
P6435	J45_72	J46_72	145.00	100.0	140.0	0.1044	Open
P6436	J46_1	J46_2	145.00	500.0	125.0	0.0433	Open
P6437	J46_1	J47_1	145.00	350.0	130.0	0.0038	Open
P6438	J46_2	J46_3	145.00	200.0	140.0	0.0610	Open
P6439	J46_2	J47_2	145.00	300.0	135.0	0.1196	Open
P6440	J46_3	J46_4	145.00	150.0	140.0	0.0965	Open
P6441	J46_3	J47_3	145.00	100.0	140.0	0.0130	Open
P6442	J46_4	J46_5	145.00	250.0	140.0	0.0217	Open
P6443	J46_4	J47_4	145.00	100.0	135.0	0.0692	Open
P6444	J46_5	J46_6	145.00	300.0	140.0	0.1241	Open
P6445	J46_5	J47_5	145.00	100.0	125.0	0.0927	Open
P6446	J46_6	J46_7	145.00	250.0	140.0	0.1090	Open
P6447	J46_6	J47_6	145.00	150.0	135.0	0.0139	Open
P6448	J46_7	J46_8	145.00	150.0	125.0	0.0196	Open
P6449	J46_7	J47_7	145.00	100.0	135.0	0.0296	Open
P6450	J46_8	J46_9	145.00	100.0	140.0	0.0754	Open
P6451	J46_8	J47_8	145.00	150.0	135.0	0.0961	Open
P6452	J46_9	J46_10	145.00	150.0	140.0	0.0109	Open
P6453	J46_9	J47_9	145.00	150.0	130.0	0.1388	Open
P6454	J46_10	J46_11	145.00	100.0	125.0	0.0393	Open
P6455	J46_10	J47_10	145.00	150.0	125.0	0.1244	Open
P6456	J46_11	J46_12	145.00	400.0	120.0	0.0050	Open
P6457	J46_11	J47_11	145.00	500.0	130.0	0.0337	Open
P6458	J46_12	J46_13	145.00	100.0	130.0	0.0433	Open
P6459	J46_12	J47_12	145.00	300.0	135.0	0.0348	Open
P6460	J46_13	J46_14	145.00	250.0	140.0	0.0258	Open
P6461	J46_13	J47_13	145.00	250.0	135.0	0.0805	Open
P6462	J46_14	J46_15	145.00	100.0	135.0	0.1347	Open
P6463	J46_14	J47_14	145.00	100.0	140.0	0.0836	Open
P6464	J46_15	J46_16	145.00	200.0	130.0	0.0031	Open
P6465	J46_15	J47_15	145.00	250.0	140.0	0.0650	Open
P6466	J46_16	J46_17	145.00	100.0	140.0	0.0629	Open
P6467	J46_16	J47_16	145.00	250.0	125.0	0.0121	Open
P6468	J46_17	J46_18	145.00	150.0	135.0	0.0153	Open
P6469	J46_17	J47_17	145.00	200.0	125.0	0.0576	Open
P6470	J46_18	J46_19	145.00	200.0	130.0	0.1372	Open
P6471	J46_18	J47_18	145.00	150.0	125.0	0.0962	Open
P6472	J46_19	J46_20	145.00	250.0	140.0	0.1127	Open
P6473	J46_19	J47_19	145.00	200.0	125.0	0.0427	Open
P6474	J46_20	J46_21	145.00	100.0	135.0	0.1409	Open
P6475	J46_20	J47_20	145.00	250.0	130.0	0.0098	Open
P6476	J46_21	J46_22	145.00	400.0	125.0	0.0166	Open
P6477	J46_21	J47_21	145.00	300.0	125.0	0.0176	Open
P6478	J46_22	J46_23	145.00	150.0	125.0	0.0828	Open
P6479	J46_22	J47_22	145.00	300.0	125.0	0.1353	Open
P6480	J46_23	J46_24	145.00	100.0	130.0	0.1283	Open
P6481	J46_23	J47_23	145.00	100.0	125.0	0.1434	Open
P6482	J46_24	J46_25	145.00	100.0	130.0	0.1135	Open
P6483	J46_24	J47_24	145.00	150.0	125.0	0.1400	Open
P6484	J46_25	J46_26	145.00	100.0	125.0	0.0134	Open
P6485	J46_25	J47_25	145.00	100.0	135.0	0.0026	Open
P6486	J46_26	J46_27	145.00	100.0	140.0	0.0006	Open
P6487	J46_26	J47_26	145.00	200.0	130.0	0.0016	Open
P6488	J46_27	J46_28	145.00	250.0	125.0	0.0755	Open
P6489	J46_27	J47_27	145.00	300.0	125.0	0.0171	Open
P6490	J46_28	J46_29	145.00	150.0	125.0	0.0976	Open
P6491	J46_28	J47_28	145.00	200.0	140.0	0.1066	Open
P6492	J46_29	J46_30	145.00	300.0	135.0	0.1458	Open
P6493	J46_29	J47_29	145.00	300.0	140.0	0.0519	Open
P6494	J46_30	J46_31	145.00	150.0	140.0	0.1254	Open
P6495	J46_30	J47_30	145.00	250.0	140.0	0.1093	Open
P6496	J46_31	J46_32	145.00	500.0	130.0	0.0438	Open
P6497	J46_31	J47_31	145.00	300.0	130.0	0.0165	Open
P6498	J46_32	J46_33	145.00	150.0	135.0	0.0456	Open
P6499	J46_32	J47_32	145.00	250.0	140.0	0.0917	Open
P6500	J46_33	J46_34	145.00	200.0	140.0	0.1293	Open
P6501	J46_33	J47_33	145.00	200.0	135.0	0.0407	Open
P6502	J46_34	J46_35	145.00	300.0	135.0	0.0948	Open
P6503	J46_34	J47_34	145.00	250.0	130.0	0.0100	Open
P6504	J46_35	J46_36	145.00	200.0	130.0	0.0770	Open
P6505	J46_35	J47_35	145.00	300.0	135.0	0.0539	Open
P6506	J46_36	J46_37	145.00	250.0	140.0	0.0447	Open
P6507	J46_36	J47_36	145.00	300.0	125.0	0.1138	Open
P6508	J46_37	J46_38	145.00	300.0	130.0	0.0073	Open
P6509	J46_37	J47_37	145.00	300.0	135.0	0.0119	Open
P6510	J46_38	J46_39	145.00	250.0	140.0	0.0373	Open
P6511	J46_38	J47_38	145.00	300.0	130.0	0.1282	Open
P6512	J46_39	J46_40	145.00	250.0	140.0	0.0072	Open
P6513	J46_39	J47_39	145.00	100.0	135.0	0.0970	Open
P6514	J46_40	J46_41	145.00	300.0	135.0	0.0062	Open
P6515	J46_40	J47_40	145.00	150.0	135.0	0.0661	Open
P6516	J46_41	J46_42	145.00	300.0	125.0	0.0182	Open
P6517	J46_41	J47_41	145.00	600.0	130.0	0.0373	Open
P6518	J46_42	J46_43	145.00	150.0	140.0	0.0083	Open
P6519	J46_42	J47_42	145.00	250.0	135.0	0.1454	Open
P6520	J46_43	J46_44	145.00	300.0	140.0	0.1427	Open
P6521	J46_43	J47_43	145.00	300.0	135.0	0.0380	Open
P6522	J46_44	J46_45	145.00	300.0	125.0	0.0062	Open
P6523	J46_44	J47_44	145.00	150.0	140.0	0.0635	Open
P6524	J46_45	J46_46	145.00	150.0	130.0	0.1294	Open
P6525	J46_45	J47_45	145.00	300.0	140.0	0.1135	Open
P6526	J46_46	J46_47	145.00	200.0	125.0	0.1352	Open
P6527	J46_46	J47_46	145.00	300.0	125.0	0.1424	Open
P6528	J46_47	J46_48	145.00	300.0	135.0	0.0321	Open
P6529	J46_47	J47_47	145.00	150.0	135.0	0.1280	Open
P6530	J46_48	J46_49	145.00	100.0	130.0	0.0284	Open
P6531	J46_48	J47_48	145.00	150.0	125.0	0.0798	Open
P6532	J46_49	J46_50	145.00	150.0	135.0	0.1438	Open
P6533	J46_49	J47_49	145.00	250.0	140.0	0.1446	Open
P6534	J46_50	J46_51	145.00	300.0	125.0	0.0537	Open
P6535	J46_50	J47_50	145.00	100.0	130.0	0.0998	Open
P6536	J46_51	J46_52	145.00	600.0	120.0	0.0259	Open
P6537	J46_51	J47_51	145.00	600.0	130.0	0.0466	Open
P6538	J46_52	J46_53	145.00	200.0	125.0	0.0154	Open
P6539	J46_52	J47_52	145.00	100.0	135.0	0.0805	Open
P6540	J46_53	J46_54	145.00	150.0	140.0	0.0321	Open
P6541	J46_53	J47_53	145.00	300.0	130.0	0.1095	Open
P6542	J46_54	J46_55	145.00	150.0	130.0	0.0988	Open
P6543	J46_54	J47_54	145.00	200.0	130.0	0.0172	Open
P6544	J46_55	J46_56	145.00	150.0	135.0	0.0580	Open
P6545	J46_55	J47_55	145.00	250.0	140.0	0.1133	Open
P6546	J46_56	J46_57	145.00	100.0	135.0	0.1473	Open
P6547	J46_56	J47_56	145.00	250.0	125.0	0.1136	Open
P6548	J46_57	J46_58	145.00	150.0	130.0	0.1093	Open
P6549	J46_57	J47_57	145.00	150.0	130.0	0.1088	Open
P6550	J46_58	J46_59	145.00	300.0	130.0	0.0830	Open
P6551	J46_58	J47_58	145.00	100.0	130.0	0.1361	Open
P6552	J46_59	J46_60	145.00	300.0	140.0	0.0324	Open
P6553	J46_59	J47_59	145.00	300.0	125.0	0.0514	Open
P6554	J46_60	J46_61	145.00	100.0	140.0	0.1261	Open
P6555	J46_60	J47_60	145.00	150.0	125.0	0.1178	Open
P6556	J46_61	J46_62	145.00	400.0	130.0	0.0287	Open
P6557	J46_61	J47_61	145.00	400.0	120.0	0.0391	Open
P6558	J46_62	J46_63	145.00	200.0	140.0	0.0477	Open
P6559	J46_62	J47_62	145.00	100.0	130.0	0.1294	Open
P6560	J46_63	J46_64	145.00	100.0	135.0	0.1103	Open
P6561	J46_63	J47_63	145.00	300.0	140.0	0.0391	Open
P6562	J46_64	J46_65	145.00	200.0	140.0	0.0219	Open
P6563	J46_64	J47_64	145.00	100.0	125.0	0.1128	Open
P6564	J46_65	J46_66	145.00	100.0	125.0	0.0741	Open
P6565	J46_65	J47_65	145.00	100.0	135.0	0.0198	Open
P6566	J46_66	J46_67	145.00	250.0	140.0	0.0973	Open
P6567	J46_66	J47_66	145.00	150.0	125.0	0.1047	Open
P6568	J46_67	J46_68	145.00	150.0	140.0	0.0750	Open
P6569	J46_67	J47_67	145.00	150.0	140.0	0.1246	Open
P6570	J46_68	J46_69	145.00	150.0	140.0	0.0474	Open
P6571	J46_68	J47_68	145.00	300.0	125.0	0.0815	Open
P6572	J46_69	J46_70	145.00	300.0	125.0	0.1468	Open
P6573	J46_69	J47_69	145.00	150.0	135.0	0.0780	Open
P6574	J46_70	J46_71	145.00	200.0	135.0	0.0960	Open
P6575	J46_70	J47_70	145.00	250.0	130.0	0.1031	Open
P6576	J46_71	J46_72	145.00	350.0	125.0	0.0470	Open
P6577	J46_71	J47_71	145.00	300.0	125.0	0.0055	Open
P6578	J46_72	J47_72	145.00	100.0	135.0	0.1092	Open
P6579	J47_1	J47_2	145.00	500.0	130.0	0.0165	Open
P6580	J47_1	J48_1	145.00	300.0	120.0	0.0404	Open
P6581	J47_2	J47_3	145.00	250.0	130.0	0.1092	Open
P6582	J47_2	J48_2	145.00	200.0	135.0	0.0054	Open
P6583	J47_3	J47_4	145.00	150.0	140.0	0.0234	Open
P6584	J47_3	J48_3	145.00	100.0	125.0	0.0918	Open
P6585	J47_4	J47_5	145.00	300.0	140.0	0.1348	Open
P6586	J47_4	J48_4	145.00	200.0	125.0	0.0646	Open
P6587	J47_5	J47_6	145.00	150.0	130.0	0.0008	Open
P6588	J47_5	J48_5	145.00	200.0	140.0	0.0189	Open
P6589	J47_6	J47_7	145.00	100.0	125.0	0.0468	Open
P6590	J47_6	J48_6	145.00	150.0	125.0	0.0598	Open
P6591	J47_7	J47_8	145.00	250.0	125.0	0.0425	Open
P6592	J47_7	J48_7	145.00	250.0	130.0	0.1061	Open
P6593	J47_8	J47_9	145.00	250.0	125.0	0.0207	Open
P6594	J47_8	J48_8	145.00	100.0	125.0	0.0008	Open
P6595	J47_9	J47_10	145.00	150.0	130.0	0.0414	Open
P6596	J47_9	J48_9	145.00	250.0	140.0	0.0993	Open
P6597	J47_10	J47_11	145.00	200.0	135.0	0.1478	Open
P6598	J47_10	J48_10	145.00	150.0	125.0	0.1412	Open
P6599	J47_11	J47_12	145.00	400.0	120.0	0.0221	Open
P6600	J47_11	J48_11	145.00	450.0	120.0	0.0447	Open
P6601	J47_12	J47_13	145.00	200.0	135.0	0.0146	Open
P6602	J47_12	J48_12	145.00	200.0	135.0	0.1235	Open
P6603	J47_13	J47_14	145.00	300.0	135.0	0.0885	Open
P6604	J47_13	J48_13	145.00	150.0	135.0	0.0163	Open
P6605	J47_14	J47_15	145.00	300.0	125.0	0.1025	Open
P6606	J47_14	J48_14	145.00	300.0	125.0	0.0286	Open
P6607	J47_15	J47_16	145.00	100.0	130.0	0.1409	Open
P6608	J47_15	J48_15	145.00	150.0	135.0	0.1343	Open
P6609	J47_16	J47_17	145.00	100.0	135.0	0.0861	Open
P6610	J47_16	J48_16	145.00	200.0	125.0	0.1484	Open
P6611	J47_17	J47_18	145.00	250.0	125.0	0.0907	Open
P6612	J47_17	J48_17	145.00	300.0	130.0	0.0940	Open
P6613	J47_18	J47_19	145.00	300.0	125.0	0.0561	Open
P6614	J47_18	J48_18	145.00	150.0	135.0	0.1154	Open
P6615	J47_19	J47_20	145.00	300.0	125.0	0.1323	Open
P6616	J47_19	J48_19	145.00	250.0	135.0	0.0202	Open
P6617	J47_20	J47_21	145.00	100.0	140.0	0.1210	Open
P6618	J47_20	J48_20	145.00	250.0	140.0	0.0955	Open
P6619	J47_21	J47_22	145.00	450.0	120.0	0.0354	Open
P6620	J47_21	J48_21	145.00	500.0	130.0	0.0048	Open
P6621	J47_22	J47_23	145.00	250.0	135.0	0.0005	Open
P6622	J47_22	J48_22	145.00	100.0	140.0	0.1036	Open
P6623	J47_23	J47_24	145.00	200.0	125.0	0.0627	Open
P6624	J47_23	J48_23	145.00	150.0	130.0	0.1138	Open
P6625	J47_24	J47_25	145.00	200.0	130.0	0.0951	Open
P6626	J47_24	J48_24	145.00	100.0	130.0	0.0845	Open
P6627	J47_25	J47_26	145.00	200.0	130.0	0.0657	Open
P6628	J47_25	J48_25	145.00	300.0	135.0	0.1335	Open
P6629	J47_26	J47_27	145.00	300.0	135.0	0.1300	Open
P6630	J47_26	J48_26	145.00	200.0	130.0	0.1018	Open
P6631	J47_27	J47_28	145.00	150.0	140.0	0.0057	Open
P6632	J47_27	J48_27	145.00	250.0	125.0	0.1381	Open
P6633	J47_28	J47_29	145.00	150.0	140.0	0.0733	Open
P6634	J47_28	J48_28	145.00	200.0	140.0	0.0084	Open
P6635	J47_29	J47_30	145.00	100.0	135.0	0.0799	Open
P6636	J47_29	J48_29	145.00	300.0	140.0	0.1229	Open
P6637	J47_30	J47_31	145.00	200.0	135.0	0.1292	Open
P6638	J47_30	J48_30	145.00	250.0	130.0	0.0829	Open
P6639	J47_31	J47_32	145.00	500.0	125.0	0.0087	Open
P6640	J47_31	J48_31	145.00	300.0	125.0	0.0039	Open
P6641	J47_32	J47_33	145.00	150.0	140.0	0.0805	Open
P6642	J47_32	J48_32	145.00	250.0	130.0	0.0652	Open
P6643	J47_33	J47_34	145.00	250.0	125.0	0.0596	Open
P6644	J47_33	J48_33	145.00	300.0	130.0	0.1067	Open
P6645	J47_34	J47_35	145.00	100.0	135.0	0.1011	Open
P6646	J47_34	J48_34	145.00	300.0	135.0	0.0635	Open
P6647	J47_35	J47_36	145.00	100.0	125.0	0.1492	Open
P6648	J47_35	J48_35	145.00	300.0	130.0	0.0211	Open
P6649	J47_36	J47_37	145.00	100.0	140.0	0.1292	Open
P6650	J47_36	J48_36	145.00	150.0	125.0	0.0215	Open
P6651	J47_37	J47_38	145.00	250.0	125.0	0.0255	Open
P6652	J47_37	J48_37	145.00	200.0	140.0	0.0931	Open
P6653	J47_38	J47_39	145.00	150.0	135.0	0.0594	Open
P6654	J47_38	J48_38	145.00	100.0	130.0	0.1437	Open
P6655	J47_39	J47_40	145.00	200.0	125.0	0.0856	Open
P6656	J47_39	J48_39	145.00	300.0	135.0	0.0230	Open
P6657	J47_40	J47_41	145.00	150.0	125.0	0.0953	Open
P6658	J47_40	J48_40	145.00	100.0	130.0	0.0220	Open
P6659	J47_41	J47_42	145.00	350.0	130.0	0.0328	Open
P6660	J47_41	J48_41	145.00	450.0	120.0	0.0301	Open
P6661	J47_42	J47_43	145.00	100.0	135.0	0.0806	Open
P6662	J47_42	J48_42	145.00	200.0	125.0	0.1274	Open
P6663	J47_43	J47_44	145.00	200.0	140.0	0.0437	Open
P6664	J47_43	J48_43	145.00	250.0	140.0	0.1441	Open
P6665	J47_44	J47_45	145.00	100.0	140.0	0.0261	Open
P6666	J47_44	J48_44	145.00	250.0	140.0	0.0670	Open
P6667	J47_45	J47_46	145.00	100.0	130.0	0.1439	Open
P6668	J47_45	J48_45	145.00	200.0	140.0	0.0440	Open
P6669	J47_46	J47_47	145.00	200.0	140.0	0.0284	Open
P6670	J47_46	J48_46	145.00	200.0	140.0	0.0279	Open
P6671	J47_47	J47_48	145.00	100.0	135.0	0.1393	Open
P6672	J47_47	J48_47	145.00	250.0	140.0	0.0381	Open
P6673	J47_48	J47_49	145.00	200.0	125.0	0.0717	Open
P6674	J47_48	J48_48	145.00	200.0	130.0	0.0698	Open
P6675	J47_49	J47_50	145.00	100.0	135.0	0.0392	Open
P6676	J47_49	J48_49	145.00	200.0	135.0	0.0997	Open
P6677	J47_50	J47_51	145.00	300.0	140.0	0.0198	Open
P6678	J47_50	J48_50	145.00	300.0	130.0	0.1288	Open
P6679	J47_51	J47_52	145.00	400.0	130.0	0.0192	Open
P6680	J47_51	J48_51	145.00	350.0	130.0	0.0216	Open
P6681	J47_52	J47_53	145.00	300.0	135.0	0.1304	Open
P6682	J47_52	J48_52	145.00	100.0	125.0	0.1171	Open
P6683	J47_53	J47_54	145.00	150.0	140.0	0.0154	Open
P6684	J47_53	J48_53	145.00	150.0	130.0	0.1450	Open
P6685	J47_54	J47_55	145.00	250.0	135.0	0.1171	Open
P6686	J47_54	J48_54	145.00	300.0	135.0	0.0616	Open
P6687	J47_55	J47_56	145.00	150.0	125.0	0.1158	Open
P6688	J47_55	J48_55	145.00	150.0	125.0	0.1008	Open
P6689	J47_56	J47_57	145.00	200.0	135.0	0.1407	Open
P6690	J47_56	J48_56	145.00	200.0	135.0	0.0590	Open
P6691	J47_57	J47_58	145.00	100.0	125.0	0.1031	Open
P6692	J47_57	J48_57	145.00	150.0	125.0	0.1192	Open
P6693	J47_58	J47_59	145.00	100.0	140.0	0.1024	Open
P6694	J47_58	J48_58	145.00	250.0	135.0	0.0774	Open
P6695	J47_59	J47_60	145.00	250.0	130.0	0.1401	Open
P6696	J47_59	J48_59	145.00	100.0	140.0	0.1337	Open
P6697	J47_60	J47_61	145.00	100.0	130.0	0.1172	Open
P6698	J47_60	J48_60	145.00	250.0	140.0	0.1250	Open
P6699	J47_61	J47_62	145.00	450.0	130.0	0.0492	Open
P6700	J47_61	J48_61	145.00	300.0	130.0	0.0111	Open
P6701	J47_62	J47_63	145.00	150.0	140.0	0.0053	Open
P6702	J47_62	J48_62	145.00	250.0	130.0	0.0070	Open
P6703	J47_63	J47_64	145.00	150.0	135.0	0.0307	Open
P6704	J47_63	J48_63	145.00	300.0	135.0	0.1457	Open
P6705	J47_64	J47_65	145.00	250.0	125.0	0.1138	Open
P6706	J47_64	J48_64	145.00	100.0	140.0	0.1185	Open
P6707	J47_65	J47_66	145.00	250.0	125.0	0.0684	Open
P6708	J47_65	J48_65	145.00	100.0	140.0	0.0139	Open
P6709	J47_66	J47_67	145.00	100.0	140.0	0.0957	Open
P6710	J47_66	J48_66	145.00	200.0	125.0	0.0609	Open
P6711	J47_67	J47_68	145.00	150.0	135.0	0.0242	Open
P6712	J47_67	J48_67	145.00	100.0	140.0	0.0668	Open
P6713	J47_68	J47_69	145.00	300.0	125.0	0.1280	Open
P6714	J47_68	J48_68	145.00	150.0	135.0	0.0582	Open
P6715	J47_69	J47_70	145.00	100.0	140.0	0.0191	Open
P6716	J47_69	J48_69	145.00	100.0	140.0	0.1200	Open
P6717	J47_70	J47_71	145.00	250.0	125.0	0.0458	Open
P6718	J47_70	J48_70	145.00	200.0	125.0	0.0853	Open
P6719	J47_71	J47_72	145.00	400.0	125.0	0.0288	Open
P6720	J47_71	J48_71	145.00	300.0	120.0	0.0097	Open
P6721	J47_72	J48_72	145.00	100.0	125.0	0.0286	Open
P6722	J48_1	J48_2	145.00	400.0	120.0	0.0005	Open
P6723	J48_1	J49_1	145.00	400.0	120.0	0.0492	Open
P6724	J48_2	J48_3	145.00	200.0	140.0	0.1178	Open
P6725	J48_2	J49_2	145.00	300.0	125.0	0.0686	Open
P6726	J48_3	J48_4	145.00	200.0	130.0	0.0920	Open
P6727	J48_3	J49_3	145.00	100.0	140.0	0.0213	Open
P6728	J48_4	J48_5	145.00	100.0	125.0	0.0710	Open
P6729	J48_4	J49_4	145.00	300.0	130.0	0.1206	Open
P6730	J48_5	J48_6	145.00	200.0	135.0	0.1070	Open
P6731	J48_5	J49_5	145.00	300.0	130.0	0.1188	Open
P6732	J48_6	J48_7	145.00	150.0	140.0	0.0806	Open
P6733	J48_6	J49_6	145.00	200.0	130.0	0.1124	Open
P6734	J48_7	J48_8	145.00	250.0	130.0	0.1487	Open
P6735	J48_7	J49_7	145.00	250.0	125.0	0.0089	Open
P6736	J48_8	J48_9	145.00	150.0	140.0	0.1222	Open
P6737	J48_8	J49_8	145.00	150.0	125.0	0.0571	Open
P6738	J48_9	J48_10	145.00	250.0	125.0	0.1138	Open
P6739	J48_9	J49_9	145.00	200.0	135.0	0.0242	Open
P6740	J48_10	J48_11	145.00	200.0	135.0	0.0499	Open
P6741	J48_10	J49_10	145.00	200.0	135.0	0.0566	Open
P6742	J48_11	J48_12	145.00	600.0	130.0	0.0221	Open
P6743	J48_11	J49_11	145.00	450.0	120.0	0.0263	Open
P6744	J48_12	J48_13	145.00	100.0	125.0	0.0443	Open
P6745	J48_12	J49_12	145.00	200.0	125.0	0.0379	Open
P6746	J48_13	J48_14	145.00	300.0	125.0	0.1485	Open
P6747	J48_13	J49_13	145.00	300.0	135.0	0.0267	Open
P6748	J48_14	J48_15	145.00	100.0	130.0	0.0157	Open
P6749	J48_14	J49_14	145.00	250.0	140.0	0.0267	Open
P6750	J48_15	J48_16	145.00	200.0	135.0	0.0864	Open
P6751	J48_15	J49_15	145.00	300.0	140.0	0.0045	Open
P6752	J48_16	J48_17	145.00	200.0	125.0	0.1308	Open
P6753	J48_16	J49_16	145.00	150.0	130.0	0.1290	Open
P6754	J48_17	J48_18	145.00	150.0	140.0	0.0206	Open
P6755	J48_17	J49_17	145.00	100.0	130.0	0.0444	Open
P6756	J48_18	J48_19	145.00	100.0	135.0	0.0204	Open
P6757	J48_18	J49_18	145.00	150.0	125.0	0.0500	Open
P6758	J48_19	J48_20	145.00	100.0	140.0	0.1106	Open
P6759	J48_19	J49_19	145.00	100.0	125.0	0.0658	Open
P6760	J48_20	J48_21	145.00	200.0	130.0	0.0900	Open
P6761	J48_20	J49_20	145.00	100.0	130.0	0.0086	Open
P6762	J48_21	J48_22	145.00	500.0	125.0	0.0365	Open
P6763	J48_21	J49_21	145.00	600.0	125.0	0.0469	Open
P6764	J48_22	J48_23	145.00	300.0	140.0	0.0752	Open
P6765	J48_22	J49_22	145.00	150.0	140.0	0.0406	Open
P6766	J48_23	J48_24	145.00	300.0	130.0	0.0173	Open
P6767	J48_23	J49_23	145.00	150.0	135.0	0.0175	Open
P6768	J48_24	J48_25	145.00	250.0	130.0	0.0863	Open
P6769	J48_24	J49_24	145.00	200.0	140.0	0.0639	Open
P6770	J48_25	J48_26	145.00	150.0	130.0	0.0667	Open
P6771	J48_25	J49_25	145.00	250.0	130.0	0.0570	Open
P6772	J48_26	J48_27	145.00	100.0	130.0	0.0375	Open
P6773	J48_26	J49_26	145.00	250.0	135.0	0.1049	Open
P6774	J48_27	J48_28	145.00	150.0	130.0	0.0391	Open
P6775	J48_27	J49_27	145.00	250.0	130.0	0.0115	Open
P6776	J48_28	J48_29	145.00	250.0	130.0	0.0301	Open
P6777	J48_28	J49_28	145.00	150.0	125.0	0.0195	Open
P6778	J48_29	J48_30	145.00	250.0	135.0	0.0220	Open
P6779	J48_29	J49_29	145.00	100.0	135.0	0.0311	Open
P6780	J48_30	J48_31	145.00	250.0	125.0	0.0123	Open
P6781	J48_30	J49_30	145.00	100.0	125.0	0.0555	Open
P6782	J48_31	J48_32	145.00	500.0	125.0	0.0440	Open
P6783	J48_31	J49_31	145.00	500.0	130.0	0.0067	Open
P6784	J48_32	J48_33	145.00	150.0	125.0	0.0051	Open
P6785	J48_32	J49_32	145.00	200.0	135.0	0.0178	Open
P6786	J48_33	J48_34	145.00	200.0	140.0	0.1235	Open
P6787	J48_33	J49_33	145.00	150.0	140.0	0.0289	Open
P6788	J48_34	J48_35	145.00	300.0	130.0	0.0657	Open
P6789	J48_34	J49_34	145.00	200.0	125.0	0.1225	Open
P6790	J48_35	J48_36	145.00	150.0	140.0	0.1079	Open
P6791	J48_35	J49_35	145.00	100.0	125.0	0.0462	Open
P6792	J48_36	J48_37	145.00	200.0	125.0	0.1255	Open
P6793	J48_36	J49_36	145.00	150.0	140.0	0.1100	Open
P6794	J48_37	J48_38	145.00	200.0	140.0	0.0801	Open
P6795	J48_37	J49_37	145.00	200.0	130.0	0.0188	Open
P6796	J48_38	J48_39	145.00	250.0	140.0	0.1081	Open
P6797	J48_38	J49_38	145.00	250.0	130.0	0.0052	Open
P6798	J48_39	J48_40	145.00	150.0	130.0	0.0894	Open
P6799	J48_39	J49_39	145.00	100.0	140.0	0.0633	Open
P6800	J48_40	J48_41	145.00	250.0	135.0	0.1357	Open
P6801	J48_40	J49_40	145.00	300.0	135.0	0.0480	Open
P6802	J48_41	J48_42	145.00	350.0	130.0	0.0043	Open
P6803	J48_41	J49_41	145.00	350.0	120.0	0.0041	Open
P6804	J48_42	J48_43	145.00	200.0	135.0	0.0840	Open
P6805	J48_42	J49_42	145.00	300.0	135.0	0.0357	Open
P6806	J48_43	J48_44	145.00	100.0	130.0	0.1059	Open
P6807	J48_43	J49_43	145.00	100.0	140.0	0.0396	Open
P6808	J48_44	J48_45	145.00	100.0	135.0	0.0741	Open
P6809	J48_44	J49_44	145.00	200.0	140.0	0.0651	Open
P6810	J48_45	J48_46	145.00	250.0	135.0	0.1240	Open
P6811	J48_45	J49_45	145.00	150.0	130.0	0.1323	Open
P6812	J48_46	J48_47	145.00	100.0	135.0	0.1474	Open
P6813	J48_46	J49_46	145.00	200.0	135.0	0.0403	Open
P6814	J48_47	J48_48	145.00	100.0	125.0	0.0260	Open
P6815	J48_47	J49_47	145.00	250.0	130.0	0.0998	Open
P6816	J48_48	J48_49	145.00	300.0	130.0	0.0184	Open
P6817	J48_48	J49_48	145.00	300.0	140.0	0.0652	Open
P6818	J48_49	J48_50	145.00	200.0	130.0	0.1251	Open
P6819	J48_49	J49_49	145.00	100.0	125.0	0.0911	Open
P6820	J48_50	J48_51	145.00	250.0	130.0	0.1212	Open
P6821	J48_50	J49_50	145.00	200.0	125.0	0.0165	Open
P6822	J48_51	J48_52	145.00	600.0	120.0	0.0189	Open
P6823	J48_51	J49_51	145.00	350.0	120.0	0.0455	Open
P6824	J48_52	J48_53	145.00	250.0	140.0	0.0340	Open
P6825	J48_52	J49_52	145.00	300.0	135.0	0.0871	Open
P6826	J48_53	J48_54	145.00	200.0	125.0	0.0079	Open
P6827	J48_53	J49_53	145.00	300.0	130.0	0.0860	Open
P6828	J48_54	J48_55	145.00	200.0	130.0	0.0445	Open
P6829	J48_54	J49_54	145.00	300.0	135.0	0.0903	Open
P6830	J48_55	J48_56	145.00	300.0	130.0	0.0152	Open
P6831	J48_55	J49_55	145.00	300.0	125.0	0.1131	Open
P6832	J48_56	J48_57	145.00	200.0	125.0	0.0662	Open
P6833	J48_56	J49_56	145.00	250.0	140.0	0.0310	Open
P6834	J48_57	J48_58	145.00	300.0	125.0	0.0252	Open
P6835	J48_57	J49_57	145.00	300.0	140.0	0.0478	Open
P6836	J48_58	J48_59	145.00	300.0	135.0	0.0752	Open
P6837	J48_58	J49_58	145.00	300.0	125.0	0.0148	Open
P6838	J48_59	J48_60	145.00	250.0	130.0	0.1491	Open
P6839	J48_59	J49_59	145.00	100.0	140.0	0.0071	Open
P6840	J48_60	J48_61	145.00	100.0	135.0	0.0796	Open
P6841	J48_60	J49_60	145.00	200.0	125.0	0.1139	Open
P6842	J48_61	J48_62	145.00	300.0	125.0	0.0348	Open
P6843	J48_61	J49_61	145.00	600.0	125.0	0.0305	Open
P6844	J48_62	J48_63	145.00	150.0	125.0	0.0620	Open
P6845	J48_62	J49_62	145.00	250.0	140.0	0.1000	Open
P6846	J48_63	J48_64	145.00	300.0	135.0	0.1348	Open
P6847	J48_63	J49_63	145.00	300.0	130.0	0.1429	Open
P6848	J48_64	J48_65	145.00	250.0	135.0	0.1459	Open
P6849	J48_64	J49_64	145.00	200.0	125.0	0.0957	Open
P6850	J48_65	J48_66	145.00	250.0	140.0	0.1419	Open
P6851	J48_65	J49_65	145.00	100.0	140.0	0.0026	Open
P6852	J48_66	J48_67	145.00	250.0	135.0	0.0283	Open
P6853	J48_66	J49_66	145.00	250.0	140.0	0.0876	Open
P6854	J48_67	J48_68	145.00	300.0	135.0	0.0444	Open
P6855	J48_67	J49_67	145.00	300.0	135.0	0.0320	Open
P6856	J48_68	J48_69	145.00	300.0	140.0	0.0248	Open
P6857	J48_68	J49_68	145.00	200.0	135.0	0.0403	Open
P6858	J48_69	J48_70	145.00	200.0	140.0	0.1090	Open
P6859	J48_69	J49_69	145.00	150.0	140.0	0.1114	Open
P6860	J48_70	J48_71	145.00	100.0	135.0	0.1116	Open
P6861	J48_70	J49_70	145.00	100.0	125.0	0.0478	Open
P6862	J48_71	J48_72	145.00	600.0	130.0	0.0189	Open
P6863	J48_71	J49_71	145.00	300.0	120.0	0.0413	Open
P6864	J48_72	J49_72	145.00	100.0	135.0	0.0130	Open
P6865	J49_1	J49_2	145.00	400.0	130.0	0.0223	Open
P6866	J49_1	J50_1	145.00	600.0	125.0	0.0029	Open
P6867	J49_2	J49_3	145.00	300.0	130.0	0.0994	Open
P6868	J49_2	J50_2	145.00	100.0	135.0	0.0144	Open
P6869	J49_3	J49_4	145.00	250.0	130.0	0.1265	Open
P6870	J49_3	J50_3	145.00	250.0	130.0	0.0679	Open
P6871	J49_4	J49_5	145.00	150.0	135.0	0.1332	Open
P6872	J49_4	J50_4	145.00	150.0	130.0	0.1398	Open
P6873	J49_5	J49_6	145.00	100.0	135.0	0.0079	Open
P6874	J49_5	J50_5	145.00	200.0	135.0	0.1424	Open
P6875	J49_6	J49_7	145.00	100.0	140.0	0.1356	Open
P6876	J49_6	J50_6	145.00	250.0	130.0	0.0751	Open
P6877	J49_7	J49_8	145.00	200.0	135.0	0.0495	Open
P6878	J49_7	J50_7	145.00	100.0	135.0	0.0926	Open
P6879	J49_8	J49_9	145.00	250.0	130.0	0.1060	Open
P6880	J49_8	J50_8	145.00	100.0	140.0	0.0288	Open
P6881	J49_9	J49_10	145.00	300.0	135.0	0.1160	Open
P6882	J49_9	J50_9	145.00	300.0	125.0	0.0499	Open
P6883	J49_10	J49_11	145.00	100.0	135.0	0.0338	Open
P6884	J49_10	J50_10	145.00	250.0	135.0	0.0677	Open
P6885	J49_11	J49_12	145.00	600.0	130.0	0.0288	Open
P6886	J49_11	J50_11	145.00	300.0	125.0	0.0353	Open
P6887	J49_12	J49_13	145.00	100.0	125.0	0.0027	Open
P6888	J49_12	J50_12	145.00	100.0	125.0	0.0986	Open
P6889	J49_13	J49_14	145.00	200.0	130.0	0.1208	Open
P6890	J49_13	J50_13	145.00	150.0	135.0	0.1308	Open
P6891	J49_14	J49_15	145.00	100.0	130.0	0.1048	Open
P6892	J49_14	J50_14	145.00	250.0	125.0	0.1070	Open
P6893	J49_15	J49_16	145.00	100.0	135.0	0.0757	Open
P6894	J49_15	J50_15	145.00	300.0	130.0	0.1271	Open
P6895	J49_16	J49_17	145.00	200.0	130.0	0.1488	Open
P6896	J49_16	J50_16	145.00	100.0	125.0	0.0126	Open
P6897	J49_17	J49_18	145.00	150.0	135.0	0.0903	Open
P6898	J49_17	J50_17	145.00	250.0	125.0	0.1082	Open
P6899	J49_18	J49_19	145.00	300.0	135.0	0.0983	Open
P6900	J49_18	J50_18	145.00	100.0	135.0	0.0491	Open
P6901	J49_19	J49_20	145.00	300.0	125.0	0.1441	Open
P6902	J49_19	J50_19	145.00	200.0	125.0	0.1270	Open
P6903	J49_20	J49_21	145.00	150.0	140.0	0.1277	Open
P6904	J49_20	J50_20	145.00	150.0	125.0	0.1151	Open
P6905	J49_21	J49_22	145.00	600.0	120.0	0.0017	Open
P6906	J49_21	J50_21	145.00	500.0	120.0	0.0402	Open
P6907	J49_22	J49_23	145.00	250.0	130.0	0.0319	Open
P6908	J49_22	J50_22	145.00	150.0	135.0	0.0460	Open
P6909	J49_23	J49_24	145.00	250.0	125.0	0.0924	Open
P6910	J49_23	J50_23	145.00	300.0	135.0	0.1279	Open
P6911	J49_24	J49_25	145.00	150.0	135.0	0.1221	Open
P6912	J49_24	J50_24	145.00	300.0	130.0	0.0225	Open
P6913	J49_25	J49_26	145.00	150.0	135.0	0.0650	Open
P6914	J49_25	J50_25	145.00	300.0	125.0	0.0907	Open
P6915	J49_26	J49_27	145.00	250.0	130.0	0.0449	Open
P6916	J49_26	J50_26	145.00	100.0	130.0	0.0341	Open
P6917	J49_27	J49_28	145.00	250.0	125.0	0.1476	Open
P6918	J49_27	J50_27	145.00	150.0	130.0	0.0093	Open
P6919	J49_28	J49_29	145.00	100.0	125.0	0.0258	Open
P6920	J49_28	J50_28	145.00	300.0	125.0	0.1191	Open
P6921	J49_29	J49_30	145.00	200.0	140.0	0.0450	Open
P6922	J49_29	J50_29	145.00	300.0	125.0	0.0077	Open
P6923	J49_30	J49_31	145.00	200.0	135.0	0.0486	Open
P6924	J49_30	J50_30	145.00	150.0	130.0	0.0654	Open
P6925	J49_31	J49_32	145.00	350.0	130.0	0.0370	Open
P6926	J49_31	J50_31	145.00	450.0	125.0	0.0423	Open
P6927	J49_32	J49_33	145.00	250.0	125.0	0.0133	Open
P6928	J49_32	J50_32	145.00	250.0	130.0	0.0750	Open
P6929	J49_33	J49_34	145.00	300.0	125.0	0.0293	Open
P6930	J49_33	J50_33	145.00	300.0	135.0	0.1252	Open
P6931	J49_34	J49_35	145.00	300.0	125.0	0.1169	Open
P6932	J49_34	J50_34	145.00	150.0	125.0	0.1114	Open
P6933	J49_35	J49_36	145.00	200.0	140.0	0.0806	Open
P6934	J49_35	J50_35	145.00	250.0	140.0	0.0483	Open
P6935	J49_36	J49_37	145.00	200.0	130.0	0.0764	Open
P6936	J49_36	J50_36	145.00	200.0	130.0	0.0676	Open
P6937	J49_37	J49_38	145.00	200.0	125.0	0.1432	Open
P6938	J49_37	J50_37	145.00	150.0	130.0	0.0289	Open
P6939	J49_38	J49_39	145.00	100.0	140.0	0.0087	Open
P6940	J49_38	J50_38	145.00	250.0	135.0	0.1123	Open
P6941	J49_39	J49_40	145.00	150.0	130.0	0.1223	Open
P6942	J49_39	J50_39	145.00	200.0	125.0	0.1070	Open
P6943	J49_40	J49_41	145.00	250.0	125.0	0.0437	Open
P6944	J49_40	J50_40	145.00	150.0	135.0	0.0617	Open
P6945	J49_41	J49_42	145.00	350.0	120.0	0.0012	Open
P6946	J49_41	J50_41	145.00	450.0	120.0	0.0095	Open
P6947	J49_42	J49_43	145.00	150.0	135.0	0.0560	Open
P6948	J49_42	J50_42	145.00	150.0	135.0	0.1446	Open
P6949	J49_43	J49_44	145.00	150.0	140.0	0.1442	Open
P6950	J49_43	J50_43	145.00	300.0	140.0	0.0091	Open
P6951	J49_44	J49_45	145.00	250.0	125.0	0.0701	Open
P6952	J49_44	J50_44	145.00	150.0	140.0	0.1167	Open
P6953	J49_45	J49_46	145.00	100.0	140.0	0.0841	Open
P6954	J49_45	J50_45	145.00	250.0	135.0	0.0846	Open
P6955	J49_46	J49_47	145.00	250.0	130.0	0.1010	Open
P6956	J49_46	J50_46	145.00	200.0	140.0	0.1496	Open
P6957	J49_47	J49_48	145.00	150.0	130.0	0.0701	Open
P6958	J49_47	J50_47	145.00	250.0	135.0	0.0065	Open
P6959	J49_48	J49_49	145.00	100.0	135.0	0.1363	Open
P6960	J49_48	J50_48	145.00	200.0	130.0	0.0524	Open
P6961	J49_49	J49_50	145.00	250.0	135.0	0.1429	Open
P6962	J49_49	J50_49	145.00	100.0	130.0	0.0622	Open
P6963	J49_50	J49_51	145.00	300.0	140.0	0.0682	Open
P6964	J49_50	J50_50	145.00	100.0	135.0	0.0440	Open
P6965	J49_51	J49_52	145.00	450.0	120.0	0.0275	Open
P6966	J49_51	J50_51	145.00	600.0	130.0	0.0398	Open
P6967	J49_52	J49_53	145.00	100.0	135.0	0.0918	Open
P6968	J49_52	J50_52	145.00	200.0	140.0	0.0876	Open
P6969	J49_53	J49_54	145.00	100.0	130.0	0.1325	Open
P6970	J49_53	J50_53	145.00	200.0	135.0	0.0077	Open
P6971	J49_54	J49_55	145.00	100.0	125.0	0.0072	Open
P6972	J49_54	J50_54	145.00	300.0	125.0	0.1490	Open
P6973	J49_55	J49_56	145.00	150.0	125.0	0.0648	Open
P6974	J49_55	J50_55	145.00	200.0	125.0	0.0981	Open
P6975	J49_56	J49_57	145.00	300.0	125.0	0.1398	Open
P6976	J49_56	J50_56	145.00	150.0	130.0	0.0321	Open
P6977	J49_57	J49_58	145.00	200.0	125.0	0.1419	Open
P6978	J49_57	J50_57	145.00	300.0	125.0	0.0386	Open
P6979	J49_58	J49_59	145.00	150.0	140.0	0.0236	Open
P6980	J49_58	J50_58	145.00	150.0	125.0	0.0757	Open
P6981	J49_59	J49_60	145.00	200.0	140.0	0.0897	Open
P6982	J49_59	J50_59	145.00	200.0	140.0	0.0315	Open
P6983	J49_60	J49_61	145.00	100.0	125.0	0.0323	Open
P6984	J49_60	J50_60	145.00	250.0	125.0	0.0257	Open
P6985	J49_61	J49_62	145.00	400.0	130.0	0.0250	Open
P6986	J49_61	J50_61	145.00	500.0	120.0	0.0348	Open
P6987	J49_62	J49_63	145.00	100.0	135.0	0.0993	Open
P6988	J49_62	J50_62	145.00	300.0	130.0	0.1325	Open
P6989	J49_63	J49_64	145.00	250.0	130.0	0.1393	Open
P6990	J49_63	J50_63	145.00	100.0	130.0	0.0294	Open
P6991	J49_64	J49_65	145.00	300.0	135.0	0.0683	Open
P6992	J49_64	J50_64	145.00	150.0	125.0	0.0866	Open
P6993	J49_65	J49_66	145.00	150.0	140.0	0.0147	Open
P6994	J49_65	J50_65	145.00	100.0	130.0	0.0294	Open
P6995	J49_66	J49_67	145.00	250.0	125.0	0.1187	Open
P6996	J49_66	J50_66	145.00	300.0	125.0	0.0709	Open
P6997	J49_67	J49_68	145.00	250.0	140.0	0.0527	Open
P6998	J49_67	J50_67	145.00	150.0	140.0	0.0356	Open
P6999	J49_68	J49_69	145.00	100.0	125.0	0.0363	Open
P7000	J49_68	J50_68	145.00	100.0	130.0	0.1119	Open
P7001	J49_69	J49_70	145.00	250.0	125.0	0.0693	Open
P7002	J49_69	J50_69	145.00	200.0	135.0	0.0053	Open
P7003	J49_70	J49_71	145.00	250.0	135.0	0.1294	Open
P7004	J49_70	J50_70	145.00	200.0	140.0	0.0497	Open
P7005	J49_71	J49_72	145.00	350.0	125.0	0.0158	Open
P7006	J49_71	J50_71	145.00	450.0	125.0	0.0364	Open
P7007	J49_72	J50_72	145.00	150.0	140.0	0.0719	Open
P7008	J50_1	J50_2	145.00	450.0	130.0	0.0032	Open
P7009	J50_1	J51_1	145.00	350.0	130.0	0.0359	Open
P7010	J50_2	J50_3	145.00	300.0	140.0	0.0277	Open
P7011	J50_2	J51_2	145.00	150.0	140.0	0.0514	Open
P7012	J50_3	J50_4	145.00	150.0	135.0	0.1097	Open
P7013	J50_3	J51_3	145.00	250.0	125.0	0.0317	Open
P7014	J50_4	J50_5	145.00	150.0	135.0	0.0197	Open
P7015	J50_4	J51_4	145.00	100.0	140.0	0.0502	Open
P7016	J50_5	J50_6	145.00	200.0	135.0	0.0104	Open
P7017	J50_5	J51_5	145.00	200.0	140.0	0.0616	Open
P7018	J50_6	J50_7	145.00	300.0	140.0	0.0883	Open
P7019	J50_6	J51_6	145.00	200.0	125.0	0.1340	Open
P7020	J50_7	J50_8	145.00	200.0	125.0	0.1132	Open
P7021	J50_7	J51_7	145.00	100.0	130.0	0.0860	Open
P7022	J50_8	J50_9	145.00	150.0	140.0	0.1438	Open
P7023	J50_8	J51_8	145.00	300.0	130.0	0.1103	Open
P7024	J50_9	J50_10	145.00	100.0	130.0	0.0483	Open
P7025	J50_9	J51_9	145.00	300.0	135.0	0.1466	Open
P7026	J50_10	J50_11	145.00	100.0	125.0	0.0108	Open
P7027	J50_10	J51_10	145.00	200.0	135.0	0.0947	Open
P7028	J50_11	J50_12	145.00	500.0	130.0	0.0237	Open
P7029	J50_11	J51_11	145.00	500.0	125.0	0.0013	Open
P7030	J50_12	J50_13	145.00	100.0	125.0	0.1333	Open
P7031	J50_12	J51_12	145.00	300.0	130.0	0.1484	Open
P7032	J50_13	J50_14	145.00	100.0	135.0	0.0257	Open
P7033	J50_13	J51_13	145.00	100.0	125.0	0.1468	Open
P7034	J50_14	J50_15	145.00	250.0	135.0	0.0655	Open
P7035	J50_14	J51_14	145.00	200.0	135.0	0.1069	Open
P7036	J50_15	J50_16	145.00	300.0	135.0	0.1156	Open
P7037	J50_15	J51_15	145.00	250.0	130.0	0.0366	Open
P7038	J50_16	J50_17	145.00	100.0	140.0	0.0868	Open
P7039	J50_16	J51_16	145.00	150.0	135.0	0.0295	Open
P7040	J50_17	J50_18	145.00	150.0	135.0	0.1349	Open
P7041	J50_17	J51_17	145.00	150.0	135.0	0.0471	Open
P7042	J50_18	J50_19	145.00	100.0	140.0	0.0075	Open
P7043	J50_18	J51_18	145.00	100.0	140.0	0.0467	Open
P7044	J50_19	J50_20	145.00	300.0	140.0	0.0122	Open
P7045	J50_19	J51_19	145.00	150.0	130.0	0.1343	Open
P7046	J50_20	J50_21	145.00	100.0	125.0	0.0616	Open
P7047	J50_20	J51_20	145.00	150.0	135.0	0.1107	Open
P7048	J50_21	J50_22	145.00	600.0	130.0	0.0290	Open
P7049	J50_21	J51_21	145.00	350.0	125.0	0.0493	Open
P7050	J50_22	J50_23	145.00	300.0	125.0	0.0947	Open
P7051	J50_22	J51_22	145.00	150.0	125.0	0.0133	Open
P7052	J50_23	J50_24	145.00	300.0	130.0	0.1092	Open
P7053	J50_23	J51_23	145.00	300.0	140.0	0.1042	Open
P7054	J50_24	J50_25	145.00	250.0	130.0	0.1317	Open
P7055	J50_24	J51_24	145.00	300.0	135.0	0.0085	Open
P7056	J50_25	J50_26	145.00	300.0	135.0	0.0094	Open
P7057	J50_25	J51_25	145.00	300.0	130.0	0.0008	Open
P7058	J50_26	J50_27	145.00	250.0	125.0	0.1207	Open
P7059	J50_26	J51_26	145.00	150.0	125.0	0.1483	Open
P7060	J50_27	J50_28	145.00	150.0	140.0	0.0300	Open
P7061	J50_27	J51_27	145.00	250.0	140.0	0.0148	Open
P7062	J50_28	J50_29	145.00	150.0	130.0	0.1105	Open
P7063	J50_28	J51_28	145.00	150.0	125.0	0.0337	Open
P7064	J50_29	J50_30	145.00	200.0	130.0	0.0991	Open
P7065	J50_29	J51_29	145.00	100.0	135.0	0.0556	Open
P7066	J50_30	J50_31	145.00	200.0	130.0	0.0405	Open
P7067	J50_30	J51_30	145.00	250.0	125.0	0.1179	Open
P7068	J50_31	J50_32	145.00	400.0	120.0	0.0121	Open
P7069	J50_31	J51_31	145.00	500.0	130.0	0.0215	Open
P7070	J50_32	J50_33	145.00	100.0	140.0	0.1230	Open
P7071	J50_32	J51_32	145.00	200.0	140.0	0.0898	Open
P7072	J50_33	J50_34	145.00	100.0	125.0	0.1079	Open
P7073	J50_33	J51_33	145.00	200.0	125.0	0.1252	Open
P7074	J50_34	J50_35	145.00	300.0	130.0	0.0378	Open
P7075	J50_34	J51_34	145.00	250.0	140.0	0.1442	Open
P7076	J50_35	J50_36	145.00	300.0	125.0	0.0713	Open
P7077	J50_35	J51_35	145.00	100.0	130.0	0.1343	Open
P7078	J50_36	J50_37	145.00	100.0	125.0	0.0598	Open
P7079	J50_36	J51_36	145.00	100.0	135.0	0.0242	Open
P7080	J50_37	J50_38	145.00	200.0	140.0	0.1019	Open
P7081	J50_37	J51_37	145.00	200.0	130.0	0.1012	Open
P7082	J50_38	J50_39	145.00	100.0	135.0	0.0753	Open
P7083	J50_38	J51_38	145.00	300.0	135.0	0.0508	Open
P7084	J50_39	J50_40	145.00	150.0	140.0	0.1317	Open
P7085	J50_39	J51_39	145.00	250.0	135.0	0.0194	Open
P7086	J50_40	J50_41	145.00	200.0	130.0	0.1312	Open
P7087	J50_40	J51_40	145.00	100.0	130.0	0.1245	Open
P7088	J50_41	J50_42	145.00	300.0	130.0	0.0004	Open
P7089	J50_41	J51_41	145.00	500.0	125.0	0.0386	Open
P7090	J50_42	J50_43	145.00	250.0	135.0	0.0917	Open
P7091	J50_42	J51_42	145.00	250.0	135.0	0.1258	Open
P7092	J50_43	J50_44	145.00	150.0	135.0	0.0688	Open
P7093	J50_43	J51_43	145.00	200.0	140.0	0.0523	Open
P7094	J50_44	J50_45	145.00	100.0	125.0	0.0445	Open
P7095	J50_44	J51_44	145.00	200.0	140.0	0.0039	Open
P7096	J50_45	J50_46	145.00	250.0	135.0	0.0791	Open
P7097	J50_45	J51_45	145.00	300.0	125.0	0.0254	Open
P7098	J50_46	J50_47	145.00	250.0	130.0	0.0241	Open
P7099	J50_46	J51_46	145.00	200.0	130.0	0.0519	Open
P7100	J50_47	J50_48	145.00	300.0	135.0	0.0117	Open
P7101	J50_47	J51_47	145.00	100.0	130.0	0.1498	Open
P7102	J50_48	J50_49	145.00	300.0	135.0	0.0476	Open
P7103	J50_48	J51_48	145.00	200.0	140.0	0.0477	Open
P7104	J50_49	J50_50	145.00	200.0	140.0	0.0352	Open
P7105	J50_49	J51_49	145.00	150.0	140.0	0.0739	Open
P7106	J50_50	J50_51	145.00	300.0	140.0	0.1097	Open
P7107	J50_50	J51_50	145.00	100.0	140.0	0.0796	Open
P7108	J50_51	J50_52	145.00	600.0	120.0	0.0303	Open
P7109	J50_51	J51_51	145.00	500.0	120.0	0.0287	Open
P7110	J50_52	J50_53	145.00	150.0	140.0	0.0197	Open
P7111	J50_52	J51_52	145.00	300.0	140.0	0.0037	Open
P7112	J50_53	J50_54	145.00	200.0	140.0	0.1359	Open
P7113	J50_53	J51_53	145.00	200.0	125.0	0.0934	Open
P7114	J50_54	J50_55	145.00	250.0	130.0	0.1469	Open
P7115	J50_54	J51_54	145.00	250.0	135.0	0.0563	Open
P7116	J50_55	J50_56	145.00	200.0	125.0	0.0765	Open
P7117	J50_55	J51_55	145.00	200.0	135.0	0.0687	Open
P7118	J50_56	J50_57	145.00	100.0	125.0	0.0258	Open
P7119	J50_56	J51_56	145.00	100.0	130.0	0.0202	Open
P7120	J50_57	J50_58	145.00	150.0	140.0	0.0094	Open
P7121	J50_57	J51_57	145.00	300.0	140.0	0.0687	Open
P7122	J50_58	J50_59	145.00	100.0	130.0	0.0764	Open
P7123	J50_58	J51_58	145.00	100.0	130.0	0.1411	Open
P7124	J50_59	J50_60	145.00	100.0	140.0	0.0856	Open
P7125	J50_59	J51_59	145.00	200.0	135.0	0.0640	Open
P7126	J50_60	J50_61	145.00	250.0	130.0	0.0594	Open
P7127	J50_60	J51_60	145.00	300.0	135.0	0.0245	Open
P7128	J50_61	J50_62	145.00	400.0	130.0	0.0240	Open
P7129	J50_61	J51_61	145.00	500.0	130.0	0.0493	Open
P7130	J50_62	J50_63	145.00	150.0	135.0	0.0939	Open
P7131	J50_62	J51_62	145.00	300.0	135.0	0.0777	Open
P7132	J50_63	J50_64	145.00	200.0	135.0	0.0772	Open
P7133	J50_63	J51_63	145.00	200.0	140.0	0.1171	Open
P7134	J50_64	J50_65	145.00	200.0	135.0	0.0585	Open
P7135	J50_64	J51_64	145.00	300.0	130.0	0.0666	Open
P7136	J50_65	J50_66	145.00	150.0	135.0	0.1074	Open
P7137	J50_65	J51_65	145.00	300.0	140.0	0.0444	Open
P7138	J50_66	J50_67	145.00	200.0	135.0	0.0456	Open
P7139	J50_66	J51_66	145.00	100.0	140.0	0.0137	Open
P7140	J50_67	J50_68	145.00	150.0	130.0	0.0688	Open
P7141	J50_67	J51_67	145.00	100.0	130.0	0.1398	Open
P7142	J50_68	J50_69	145.00	300.0	130.0	0.0466	Open
P7143	J50_68	J51_68	145.00	100.0	135.0	0.1342	Open
P7144	J50_69	J50_70	145.00	100.0	125.0	0.0105	Open
P7145	J50_69	J51_69	145.00	250.0	135.0	0.1159	Open
P7146	J50_70	J50_71	145.00	200.0	125.0	0.1224	Open
P7147	J50_70	J51_70	145.00	150.0	135.0	0.1013	Open
P7148	J50_71	J50_72	145.00	600.0	120.0	0.0484	Open
P7149	J50_71	J51_71	145.00	300.0	125.0	0.0414	Open
P7150	J50_72	J51_72	145.00	300.0	130.0	0.0885	Open
P7151	J51_1	J51_2	145.00	600.0	120.0	0.0414	Open
P7152	J51_1	J52_1	145.00	300.0	120.0	0.0454	Open
P7153	J51_2	J51_3	145.00	350.0	125.0	0.0419	Open
P7154	J51_2	J52_2	145.00	600.0	130.0	0.0232	Open
P7155	J51_3	J51_4	145.00	450.0	130.0	0.0023	Open
P7156	J51_3	J52_3	145.00	600.0	120.0	0.0367	Open
P7157	J51_4	J51_5	145.00	500.0	125.0	0.0158	Open
P7158	J51_4	J52_4	145.00	350.0	125.0	0.0110	Open
P7159	J51_5	J51_6	145.00	500.0	125.0	0.0157	Open
P7160	J51_5	J52_5	145.00	450.0	125.0	0.0469	Open
P7161	J51_6	J51_7	145.00	600.0	125.0	0.0259	Open
P7162	J51_6	J52_6	145.00	300.0	125.0	0.0365	Open
P7163	J51_7	J51_8	145.00	400.0	120.0	0.0487	Open
P7164	J51_7	J52_7	145.00	600.0	130.0	0.0105	Open
P7165	J51_8	J51_9	145.00	500.0	125.0	0.0064	Open
P7166	J51_8	J52_8	145.00	500.0	120.0	0.0402	Open
P7167	J51_9	J51_10	145.00	300.0	130.0	0.0308	Open
P7168	J51_9	J52_9	145.00	400.0	130.0	0.0340	Open
P7169	J51_10	J51_11	145.00	350.0	120.0	0.0403	Open
P7170	J51_10	J52_10	145.00	400.0	125.0	0.0045	Open
P7171	J51_11	J51_12	145.00	400.0	120.0	0.0147	Open
P7172	J51_11	J52_11	145.00	450.0	120.0	0.0429	Open
P7173	J51_12	J51_13	145.00	500.0	125.0	0.0389	Open
P7174	J51_12	J52_12	145.00	400.0	120.0	0.0460	Open
P7175	J51_13	J51_14	145.00	500.0	125.0	0.0061	Open
P7176	J51_13	J52_13	145.00	500.0	120.0	0.0433	Open
P7177	J51_14	J51_15	145.00	500.0	130.0	0.0383	Open
P7178	J51_14	J52_14	145.00	400.0	125.0	0.0099	Open
P7179	J51_15	J51_16	145.00	400.0	130.0	0.0057	Open
P7180	J51_15	J52_15	145.00	450.0	120.0	0.0251	Open
P7181	J51_16	J51_17	145.00	600.0	120.0	0.0131	Open
P7182	J51_16	J52_16	145.00	350.0	130.0	0.0083	Open
P7183	J51_17	J51_18	145.00	400.0	120.0	0.0396	Open
P7184	J51_17	J52_17	145.00	450.0	130.0	0.0047	Open
P7185	J51_18	J51_19	145.00	400.0	120.0	0.0450	Open
P7186	J51_18	J52_18	145.00	500.0	130.0	0.0244	Open
P7187	J51_19	J51_20	145.00	500.0	130.0	0.0247	Open
P7188	J51_19	J52_19	145.00	400.0	125.0	0.0091	Open
P7189	J51_20	J51_21	145.00	350.0	125.0	0.0496	Open
P7190	J51_20	J52_20	145.00	600.0	125.0	0.0312	Open
P7191	J51_21	J51_22	145.00	450.0	125.0	0.0208	Open
P7192	J51_21	J52_21	145.00	300.0	125.0	0.0456	Open
P7193	J51_22	J51_23	145.00	600.0	130.0	0.0105	Open
P7194	J51_22	J52_22	145.00	400.0	120.0	0.0338	Open
P7195	J51_23	J51_24	145.00	400.0	130.0	0.0212	Open
P7196	J51_23	J52_23	145.00	500.0	120.0	0.0263	Open
P7197	J51_24	J51_25	145.00	450.0	120.0	0.0080	Open
P7198	J51_24	J52_24	145.00	600.0	130.0	0.0346	Open
P7199	J51_25	J51_26	145.00	300.0	125.0	0.0026	Open
P7200	J51_25	J52_25	145.00	350.0	125.0	0.0424	Open
P7201	J51_26	J51_27	145.00	600.0	125.0	0.0498	Open
P7202	J51_26	J52_26	145.00	450.0	120.0	0.0447	Open
P7203	J51_27	J51_28	145.00	300.0	120.0	0.0127	Open
P7204	J51_27	J52_27	145.00	500.0	125.0	0.0206	Open
P7205	J51_28	J51_29	145.00	350.0	125.0	0.0215	Open
P7206	J51_28	J52_28	145.00	450.0	120.0	0.0465	Open
P7207	J51_29	J51_30	145.00	400.0	130.0	0.0081	Open
P7208	J51_29	J52_29	145.00	600.0	125.0	0.0359	Open
P7209	J51_30	J51_31	145.00	300.0	125.0	0.0234	Open
P7210	J51_30	J52_30	145.00	300.0	130.0	0.0301	Open
P7211	J51_31	J51_32	145.00	450.0	125.0	0.0241	Open
P7212	J51_31	J52_31	145.00	450.0	120.0	0.0431	Open
P7213	J51_32	J51_33	145.00	400.0	120.0	0.0362	Open
P7214	J51_32	J52_32	145.00	600.0	125.0	0.0499	Open
P7215	J51_33	J51_34	145.00	400.0	120.0	0.0134	Open
P7216	J51_33	J52_33	145.00	350.0	125.0	0.0036	Open
P7217	J51_34	J51_35	145.00	300.0	125.0	0.0069	Open
P7218	J51_34	J52_34	145.00	350.0	130.0	0.0340	Open
P7219	J51_35	J51_36	145.00	400.0	120.0	0.0144	Open
P7220	J51_35	J52_35	145.00	500.0	125.0	0.0398	Open
P7221	J51_36	J51_37	145.00	500.0	120.0	0.0382	Open
P7222	J51_36	J52_36	145.00	450.0	125.0	0.0221	Open
P7223	J51_37	J51_38	145.00	300.0	125.0	0.0239	Open
P7224	J51_37	J52_37	145.00	500.0	120.0	0.0295	Open
P7225	J51_38	J51_39	145.00	500.0	120.0	0.0108	Open
P7226	J51_38	J52_38	145.00	500.0	125.0	0.0152	Open
P7227	J51_39	J51_40	145.00	600.0	130.0	0.0069	Open
P7228	J51_39	J52_39	145.00	350.0	130.0	0.0484	Open
P7229	J51_40	J51_41	145.00	300.0	125.0	0.0255	Open
P7230	J51_40	J52_40	145.00	300.0	130.0	0.0062	Open
P7231	J51_41	J51_42	145.00	450.0	130.0	0.0245	Open
P7232	J51_41	J52_41	145.00	400.0	120.0	0.0319	Open
P7233	J51_42	J51_43	145.00	400.0	130.0	0.0488	Open
P7234	J51_42	J52_42	145.00	400.0	130.0	0.0422	Open
P7235	J51_43	J51_44	145.00	350.0	125.0	0.0220	Open
P7236	J51_43	J52_43	145.00	350.0	130.0	0.0405	Open
P7237	J51_44	J51_45	145.00	350.0	130.0	0.0223	Open
P7238	J51_44	J52_44	145.00	600.0	125.0	0.0009	Open
P7239	J51_45	J51_46	145.00	500.0	130.0	0.0153	Open
P7240	J51_45	J52_45	145.00	350.0	120.0	0.0194	Open
P7241	J51_46	J51_47	145.00	500.0	120.0	0.0353	Open
P7242	J51_46	J52_46	145.00	300.0	120.0	0.0277	Open
P7243	J51_47	J51_48	145.00	350.0	130.0	0.0492	Open
P7244	J51_47	J52_47	145.00	400.0	130.0	0.0139	Open
P7245	J51_48	J51_49	145.00	300.0	130.0	0.0152	Open
P7246	J51_48	J52_48	145.00	350.0	130.0	0.0180	Open
P7247	J51_49	J51_50	145.00	300.0	130.0	0.0343	Open
P7248	J51_49	J52_49	145.00	500.0	120.0	0.0003	Open
P7249	J51_50	J51_51	145.00	400.0	120.0	0.0023	Open
P7250	J51_50	J52_50	145.00	500.0	125.0	0.0046	Open
P7251	J51_51	J51_52	145.00	300.0	130.0	0.0087	Open
P7252	J51_51	J52_51	145.00	450.0	120.0	0.0166	Open
P7253	J51_52	J51_53	145.00	300.0	130.0	0.0370	Open
P7254	J51_52	J52_52	145.00	350.0	130.0	0.0304	Open
P7255	J51_53	J51_54	145.00	400.0	125.0	0.0239	Open
P7256	J51_53	J52_53	145.00	400.0	120.0	0.0154	Open
P7257	J51_54	J51_55	145.00	400.0	125.0	0.0331	Open
P7258	J51_54	J52_54	145.00	600.0	130.0	0.0253	Open
P7259	J51_55	J51_56	145.00	300.0	120.0	0.0420	Open
P7260	J51_55	J52_55	145.00	600.0	125.0	0.0314	Open
P7261	J51_56	J51_57	145.00	600.0	130.0	0.0420	Open
P7262	J51_56	J52_56	145.00	350.0	125.0	0.0043	Open
P7263	J51_57	J51_58	145.00	400.0	125.0	0.0129	Open
P7264	J51_57	J52_57	145.00	300.0	120.0	0.0069	Open
P7265	J51_58	J51_59	145.00	600.0	130.0	0.0436	Open
P7266	J51_58	J52_58	145.00	600.0	130.0	0.0082	Open
P7267	J51_59	J51_60	145.00	600.0	130.0	0.0471	Open
P7268	J51_59	J52_59	145.00	300.0	125.0	0.0364	Open
P7269	J51_60	J51_61	145.00	300.0	130.0	0.0081	Open
P7270	J51_60	J52_60	145.00	450.0	130.0	0.0113	Open
P7271	J51_61	J51_62	145.00	350.0	120.0	0.0368	Open
P7272	J51_61	J52_61	145.00	450.0	125.0	0.0001	Open
P7273	J51_62	J51_63	145.00	400.0	120.0	0.0310	Open
P7274	J51_62	J52_62	145.00	300.0	130.0	0.0086	Open
P7275	J51_63	J51_64	145.00	350.0	125.0	0.0299	Open
P7276	J51_63	J52_63	145.00	400.0	120.0	0.0022	Open
P7277	J51_64	J51_65	145.00	300.0	125.0	0.0276	Open
P7278	J51_64	J52_64	145.00	600.0	125.0	0.0214	Open
P7279	J51_65	J51_66	145.00	300.0	120.0	0.0217	Open
P7280	J51_65	J52_65	145.00	300.0	120.0	0.0278	Open
P7281	J51_66	J51_67	145.00	600.0	125.0	0.0081	Open
P7282	J51_66	J52_66	145.00	450.0	130.0	0.0099	Open
P7283	J51_67	J51_68	145.00	450.0	130.0	0.0408	Open
P7284	J51_67	J52_67	145.00	350.0	125.0	0.0190	Open
P7285	J51_68	J51_69	145.00	500.0	130.0	0.0064	Open
P7286	J51_68	J52_68	145.00	500.0	125.0	0.0157	Open
P7287	J51_69	J51_70	145.00	350.0	125.0	0.0128	Open
P7288	J51_69	J52_69	145.00	500.0	120.0	0.0282	Open
P7289	J51_70	J51_71	145.00	400.0	120.0	0.0306	Open
P7290	J51_70	J52_70	145.00	400.0	120.0	0.0360	Open
P7291	J51_71	J51_72	145.00	400.0	130.0	0.0294	Open
P7292	J51_71	J52_71	145.00	350.0	120.0	0.0208	Open
P7293	J51_72	J52_72	145.00	400.0	125.0	0.0045	Open
P7294	J52_1	J52_2	145.00	600.0	125.0	0.0096	Open
P7295	J52_1	J53_1	145.00	600.0	125.0	0.0021	Open
P7296	J52_2	J52_3	145.00	250.0	135.0	0.1183	Open
P7297	J52_2	J53_2	145.00	200.0	125.0	0.1115	Open
P7298	J52_3	J52_4	145.00	150.0	125.0	0.1444	Open
P7299	J52_3	J53_3	145.00	200.0	130.0	0.0987	Open
P7300	J52_4	J52_5	145.00	100.0	140.0	0.0976	Open
P7301	J52_4	J53_4	145.00	100.0	125.0	0.0877	Open
P7302	J52_5	J52_6	145.00	100.0	130.0	0.0831	Open
P7303	J52_5	J53_5	145.00	300.0	140.0	0.1205	Open
P7304	J52_6	J52_7	145.00	200.0	125.0	0.0118	Open
P7305	J52_6	J53_6	145.00	200.0	135.0	0.0044	Open
P7306	J52_7	J52_8	145.00	150.0	140.0	0.1033	Open
P7307	J52_7	J53_7	145.00	300.0	130.0	0.0738	Open
P7308	J52_8	J52_9	145.00	300.0	140.0	0.0358	Open
P7309	J52_8	J53_8	145.00	100.0	125.0	0.0735	Open
P7310	J52_9	J52_10	145.00	250.0	130.0	0.0361	Open
P7311	J52_9	J53_9	145.00	200.0	140.0	0.0610	Open
P7312	J52_10	J52_11	145.00	300.0	130.0	0.0140	Open
P7313	J52_10	J53_10	145.00	100.0	135.0	0.0215	Open
P7314	J52_11	J52_12	145.00	350.0	130.0	0.0009	Open
P7315	J52_11	J53_11	145.00	300.0	120.0	0.0191	Open
P7316	J52_12	J52_13	145.00	250.0	140.0	0.1383	Open
P7317	J52_12	J53_12	145.00	200.0	140.0	0.1009	Open
P7318	J52_13	J52_14	145.00	300.0	140.0	0.1025	Open
P7319	J52_13	J53_13	145.00	200.0	125.0	0.1349	Open
P7320	J52_14	J52_15	145.00	150.0	140.0	0.0244	Open
P7321	J52_14	J53_14	145.00	200.0	140.0	0.0105	Open
P7322	J52_15	J52_16	145.00	100.0	125.0	0.1172	Open
P7323	J52_15	J53_15	145.00	300.0	130.0	0.1049	Open
P7324	J52_16	J52_17	145.00	250.0	140.0	0.0286	Open
P7325	J52_16	J53_16	145.00	250.0	130.0	0.0144	Open
P7326	J52_17	J52_18	145.00	150.0	135.0	0.0072	Open
P7327	J52_17	J53_17	145.00	250.0	125.0	0.0251	Open
P7328	J52_18	J52_19	145.00	150.0	125.0	0.0888	Open
P7329	J52_18	J53_18	145.00	200.0	130.0	0.1398	Open
P7330	J52_19	J52_20	145.00	200.0	135.0	0.1243	Open
P7331	J52_19	J53_19	145.00	150.0	130.0	0.0259	Open
P7332	J52_20	J52_21	145.00	300.0	125.0	0.1382	Open
P7333	J52_20	J53_20	145.00	200.0	125.0	0.1267	Open
P7334	J52_21	J52_22	145.00	300.0	120.0	0.0043	Open
P7335	J52_21	J53_21	145.00	450.0	130.0	0.0018	Open
P7336	J52_22	J52_23	145.00	300.0	130.0	0.0302	Open
P7337	J52_22	J53_22	145.00	250.0	130.0	0.0710	Open
P7338	J52_23	J52_24	145.00	250.0	140.0	0.1139	Open
P7339	J52_23	J53_23	145.00	150.0	140.0	0.0264	Open
P7340	J52_24	J52_25	145.00	200.0	140.0	0.1151	Open
P7341	J52_24	J53_24	145.00	100.0	140.0	0.0397	Open
P7342	J52_25	J52_26	145.00	150.0	130.0	0.1142	Open
P7343	J52_25	J53_25	145.00	150.0	135.0	0.0827	Open
P7344	J52_26	J52_27	145.00	250.0	140.0	0.1206	Open
P7345	J52_26	J53_26	145.00	100.0	130.0	0.0518	Open
P7346	J52_27	J52_28	145.00	150.0	135.0	0.0994	Open
P7347	J52_27	J53_27	145.00	100.0	125.0	0.0219	Open
P7348	J52_28	J52_29	145.00	150.0	140.0	0.1332	Open
P7349	J52_28	J53_28	145.00	300.0	140.0	0.1187	Open
P7350	J52_29	J52_30	145.00	100.0	140.0	0.1123	Open
P7351	J52_29	J53_29	145.00	150.0	130.0	0.1044	Open
P7352	J52_30	J52_31	145.00	300.0	130.0	0.0885	Open
P7353	J52_30	J53_30	145.00	300.0	125.0	0.1203	Open
P7354	J52_31	J52_32	145.00	500.0	120.0	0.0213	Open
P7355	J52_31	J53_31	145.00	300.0	130.0	0.0155	Open
P7356	J52_32	J52_33	145.00	300.0	135.0	0.1032	Open
P7357	J52_32	J53_32	145.00	100.0	140.0	0.0303	Open
P7358	J52_33	J52_34	145.00	100.0	130.0	0.0342	Open
P7359	J52_33	J53_33	145.00	100.0	130.0	0.0737	Open
P7360	J52_34	J52_35	145.00	300.0	125.0	0.0631	Open
P7361	J52_34	J53_34	145.00	100.0	140.0	0.0315	Open
P7362	J52_35	J52_36	145.00	150.0	135.0	0.0735	Open
P7363	J52_35	J53_35	145.00	150.0	140.0	0.1440	Open
P7364	J52_36	J52_37	145.00	250.0	130.0	0.1075	Open
P7365	J52_36	J53_36	145.00	300.0	135.0	0.0292	Open
P7366	J52_37	J52_38	145.00	300.0	125.0	0.0174	Open
P7367	J52_37	J53_37	145.00	150.0	130.0	0.1272	Open
P7368	J52_38	J52_39	145.00	300.0	125.0	0.0133	Open
P7369	J52_38	J53_38	145.00	250.0	125.0	0.0543	Open
P7370	J52_39	J52_40	145.00	250.0	140.0	0.1125	Open
P7371	J52_39	J53_39	145.00	250.0	125.0	0.0269	Open
P7372	J52_40	J52_41	145.00	200.0	130.0	0.0890	Open
P7373	J52_40	J53_40	145.00	300.0	125.0	0.0995	Open
P7374	J52_41	J52_42	145.00	500.0	125.0	0.0492	Open
P7375	J52_41	J53_41	145.00	500.0	125.0	0.0479	Open
P7376	J52_42	J52_43	145.00	200.0	130.0	0.1032	Open
P7377	J52_42	J53_42	145.00	200.0	135.0	0.1144	Open
P7378	J52_43	J52_44	145.00	300.0	140.0	0.0850	Open
P7379	J52_43	J53_43	145.00	150.0	125.0	0.0431	Open
P7380	J52_44	J52_45	145.00	200.0	130.0	0.0470	Open
P7381	J52_44	J53_44	145.00	250.0	140.0	0.1427	Open
P7382	J52_45	J52_46	145.00	150.0	125.0	0.0887	Open
P7383	J52_45	J53_45	145.00	200.0	125.0	0.0982	Open
P7384	J52_46	J52_47	145.00	200.0	135.0	0.0007	Open
P7385	J52_46	J53_46	145.00	300.0	135.0	0.0426	Open
P7386	J52_47	J52_48	145.00	300.0	130.0	0.0464	Open
P7387	J52_47	J53_47	145.00	200.0	125.0	0.1102	Open
P7388	J52_48	J52_49	145.00	100.0	130.0	0.1003	Open
P7389	J52_48	J53_48	145.00	250.0	125.0	0.0305	Open
P7390	J52_49	J52_50	145.00	300.0	130.0	0.0689	Open
P7391	J52_49	J53_49	145.00	250.0	130.0	0.0406	Open
P7392	J52_50	J52_51	145.00	200.0	125.0	0.0464	Open
P7393	J52_50	J53_50	145.00	250.0	125.0	0.1379	Open
P7394	J52_51	J52_52	145.00	450.0	130.0	0.0213	Open
P7395	J52_51	J53_51	145.00	300.0	125.0	0.0337	Open
P7396	J52_52	J52_53	145.00	150.0	130.0	0.0839	Open
P7397	J52_52	J53_52	145.00	250.0	130.0	0.0609	Open
P7398	J52_53	J52_54	145.00	300.0	130.0	0.1154	Open
P7399	J52_53	J53_53	145.00	300.0	130.0	0.0935	Open
P7400	J52_54	J52_55	145.00	200.0	135.0	0.0624	Open
P7401	J52_54	J53_54	145.00	200.0	125.0	0.1350	Open
P7402	J52_55	J52_56	145.00	300.0	130.0	0.0652	Open
P7403	J52_55	J53_55	145.00	150.0	130.0	0.1188	Open
P7404	J52_56	J52_57	145.00	300.0	140.0	0.0706	Open
P7405	J52_56	J53_56	145.00	250.0	125.0	0.1062	Open
P7406	J52_57	J52_58	145.00	150.0	125.0	0.1258	Open
P7407	J52_57	J53_57	145.00	150.0	140.0	0.0767	Open
P7408	J52_58	J52_59	145.00	150.0	140.0	0.1217	Open
P7409	J52_58	J53_58	145.00	300.0	130.0	0.1460	Open
P7410	J52_59	J52_60	145.00	300.0	140.0	0.0723	Open
P7411	J52_59	J53_59	145.00	300.0	125.0	0.0292	Open
P7412	J52_60	J52_61	145.00	100.0	140.0	0.1113	Open
P7413	J52_60	J53_60	145.00	300.0	130.0	0.0305	Open
P7414	J52_61	J52_62	145.00	600.0	120.0	0.0471	Open
P7415	J52_61	J53_61	145.00	350.0	120.0	0.0237	Open
P7416	J52_62	J52_63	145.00	100.0	135.0	0.0775	Open
P7417	J52_62	J53_62	145.00	100.0	135.0	0.0743	Open
P7418	J52_63	J52_64	145.00	150.0	140.0	0.1283	Open
P7419	J52_63	J53_63	145.00	100.0	130.0	0.0547	Open
P7420	J52_64	J52_65	145.00	100.0	130.0	0.0481	Open
P7421	J52_64	J53_64	145.00	300.0	130.0	0.0710	Open
P7422	J52_65	J52_66	145.00	100.0	140.0	0.1039	Open
P7423	J52_65	J53_65	145.00	300.0	140.0	0.1282	Open
P7424	J52_66	J52_67	145.00	100.0	140.0	0.0444	Open
P7425	J52_66	J53_66	145.00	250.0	140.0	0.1435	Open
P7426	J52_67	J52_68	145.00	100.0	130.0	0.1068	Open
P7427	J52_67	J53_67	145.00	300.0	135.0	0.0092	Open
P7428	J52_68	J52_69	145.00	300.0	140.0	0.0853	Open
P7429	J52_68	J53_68	145.00	150.0	125.0	0.1349	Open
P7430	J52_69	J52_70	145.00	200.0	140.0	0.0848	Open
P7431	J52_69	J53_69	145.00	200.0	130.0	0.1213	Open
P7432	J52_70	J52_71	145.00	200.0	135.0	0.0034	Open
P7433	J52_70	J53_70	145.00	200.0	125.0	0.1182	Open
P7434	J52_71	J52_72	145.00	500.0	130.0	0.0018	Open
P7435	J52_71	J53_71	145.00	600.0	130.0	0.0247	Open
P7436	J52_72	J53_72	145.00	300.0	135.0	0.1080	Open
P7437	J53_1	J53_2	145.00	600.0	125.0	0.0194	Open
P7438	J53_1	J54_1	145.00	400.0	125.0	0.0330	Open
P7439	J53_2	J53_3	145.00	250.0	135.0	0.1458	Open
P7440	J53_2	J54_2	145.00	250.0	125.0	0.0473	Open
P7441	J53_3	J53_4	145.00	150.0	125.0	0.0124	Open
P7442	J53_3	J54_3	145.00	300.0	140.0	0.0625	Open
P7443	J53_4	J53_5	145.00	100.0	130.0	0.0481	Open
P7444	J53_4	J54_4	145.00	200.0	140.0	0.0503	Open
P7445	J53_5	J53_6	145.00	250.0	125.0	0.0981	Open
P7446	J53_5	J54_5	145.00	100.0	125.0	0.0822	Open
P7447	J53_6	J53_7	145.00	150.0	130.0	0.1226	Open
P7448	J53_6	J54_6	145.00	300.0	140.0	0.0823	Open
P7449	J53_7	J53_8	145.00	200.0	125.0	0.1028	Open
P7450	J53_7	J54_7	145.00	100.0	140.0	0.0768	Open
P7451	J53_8	J53_9	145.00	100.0	130.0	0.0099	Open
P7452	J53_8	J54_8	145.00	300.0	125.0	0.1371	Open
P7453	J53_9	J53_10	145.00	150.0	135.0	0.0981	Open
P7454	J53_9	J54_9	145.00	300.0	130.0	0.0176	Open
P7455	J53_10	J53_11	145.00	250.0	130.0	0.0120	Open
P7456	J53_10	J54_10	145.00	100.0	135.0	0.0713	Open
P7457	J53_11	J53_12	145.00	350.0	130.0	0.0477	Open
P7458	J53_11	J54_11	145.00	450.0	120.0	0.0051	Open
P7459	J53_12	J53_13	145.00	100.0	125.0	0.0274	Open
P7460	J53_12	J54_12	145.00	300.0	135.0	0.1107	Open
P7461	J53_13	J53_14	145.00	100.0	135.0	0.0533	Open
P7462	J53_13	J54_13	145.00	200.0	140.0	0.1467	Open
P7463	J53_14	J53_15	145.00	250.0	125.0	0.0299	Open
P7464	J53_14	J54_14	145.00	200.0	135.0	0.0544	Open
P7465	J53_15	J53_16	145.00	200.0	130.0	0.1117	Open
P7466	J53_15	J54_15	145.00	100.0	125.0	0.0793	Open
P7467	J53_16	J53_17	145.00	150.0	130.0	0.0482	Open
P7468	J53_16	J54_16	145.00	100.0	130.0	0.0171	Open
P7469	J53_17	J53_18	145.00	200.0	130.0	0.1194	Open
P7470	J53_17	J54_17	145.00	100.0	125.0	0.1236	Open
P7471	J53_18	J53_19	145.00	200.0	130.0	0.1445	Open
P7472	J53_18	J54_18	145.00	250.0	140.0	0.1370	Open
P7473	J53_19	J53_20	145.00	200.0	140.0	0.0358	Open
P7474	J53_19	J54_19	145.00	150.0	130.0	0.0949	Open
P7475	J53_20	J53_21	145.00	250.0	140.0	0.0255	Open
P7476	J53_20	J54_20	145.00	300.0	125.0	0.1008	Open
P7477	J53_21	J53_22	145.00	400.0	120.0	0.0281	Open
P7478	J53_21	J54_21	145.00	500.0	120.0	0.0256	Open
P7479	J53_22	J53_23	145.00	150.0	135.0	0.0675	Open
P7480	J53_22	J54_22	145.00	100.0	130.0	0.0721	Open
P7481	J53_23	J53_24	145.00	100.0	130.0	0.0683	Open
P7482	J53_23	J54_23	145.00	150.0	140.0	0.0380	Open
P7483	J53_24	J53_25	145.00	100.0	135.0	0.0793	Open
P7484	J53_24	J54_24	145.00	150.0	125.0	0.0810	Open
P7485	J53_25	J53_26	145.00	200.0	140.0	0.0487	Open
P7486	J53_25	J54_25	145.00	250.0	140.0	0.1322	Open
P7487	J53_26	J53_27	145.00	100.0	130.0	0.0040	Open
P7488	J53_26	J54_26	145.00	250.0	140.0	0.0230	Open
P7489	J53_27	J53_28	145.00	200.0	125.0	0.0109	Open
P7490	J53_27	J54_27	145.00	100.0	135.0	0.0016	Open
P7491	J53_28	J53_29	145.00	250.0	140.0	0.0873	Open
P7492	J53_28	J54_28	145.00	250.0	125.0	0.1059	Open
P7493	J53_29	J53_30	145.00	250.0	125.0	0.0219	Open
P7494	J53_29	J54_29	145.00	300.0	125.0	0.1164	Open
P7495	J53_30	J53_31	145.00	150.0	135.0	0.0847	Open
P7496	J53_30	J54_30	145.00	300.0	135.0	0.0345	Open
P7497	J53_31	J53_32	145.00	450.0	120.0	0.0242	Open
P7498	J53_31	J54_31	145.00	350.0	120.0	0.0278	Open
P7499	J53_32	J53_33	145.00	100.0	130.0	0.0220	Open
P7500	J53_32	J54_32	145.00	200.0	140.0	0.1316	Open
P7501	J53_33	J53_34	145.00	300.0	140.0	0.0583	Open
P7502	J53_33	J54_33	145.00	250.0	125.0	0.1204	Open
P7503	J53_34	J53_35	145.00	300.0	125.0	0.1277	Open
P7504	J53_34	J54_34	145.00	100.0	135.0	0.0360	Open
P7505	J53_35	J53_36	145.00	250.0	125.0	0.1155	Open
P7506	J53_35	J54_35	145.00	200.0	140.0	0.0102	Open
P7507	J53_36	J53_37	145.00	300.0	125.0	0.0342	Open
P7508	J53_36	J54_36	145.00	200.0	130.0	0.0980	Open
P7509	J53_37	J53_38	145.00	150.0	125.0	0.1480	Open
P7510	J53_37	J54_37	145.00	150.0	130.0	0.0262	Open
P7511	J53_38	J53_39	145.00	250.0	125.0	0.0173	Open
P7512	J53_38	J54_38	145.00	150.0	135.0	0.0227	Open
P7513	J53_39	J53_40	145.00	300.0	130.0	0.0638	Open
P7514	J53_39	J54_39	145.00	250.0	125.0	0.0064	Open
P7515	J53_40	J53_41	145.00	250.0	125.0	0.0431	Open
P7516	J53_40	J54_40	145.00	250.0	135.0	0.0984	Open
P7517	J53_41	J53_42	145.00	500.0	125.0	0.0244	Open
P7518	J53_41	J54_41	145.00	300.0	130.0	0.0100	Open
P7519	J53_42	J53_43	145.00	250.0	135.0	0.0755	Open
P7520	J53_42	J54_42	145.00	100.0	125.0	0.1307	Open
P7521	J53_43	J53_44	145.00	200.0	130.0	0.0015	Open
P7522	J53_43	J54_43	145.00	300.0	140.0	0.0863	Open
P7523	J53_44	J53_45	145.00	250.0	135.0	0.1188	Open
P7524	J53_44	J54_44	145.00	300.0	130.0	0.0509	Open
P7525	J53_45	J53_46	145.00	200.0	140.0	0.0753	Open
P7526	J53_45	J54_45	145.00	250.0	135.0	0.1393	Open
P7527	J53_46	J53_47	145.00	150.0	135.0	0.0961	Open
P7528	J53_46	J54_46	145.00	300.0	130.0	0.0909	Open
P7529	J53_47	J53_48	145.00	250.0	140.0	0.0735	Open
P7530	J53_47	J54_47	145.00	300.0	135.0	0.0353	Open
P7531	J53_48	J53_49	145.00	200.0	140.0	0.1325	Open
P7532	J53_48	J54_48	145.00	300.0	125.0	0.0163	Open
P7533	J53_49	J53_50	145.00	300.0	135.0	0.0026	Open
P7534	J53_49	J54_49	145.00	150.0	130.0	0.0856	Open
P7535	J53_50	J53_51	145.00	100.0	140.0	0.1023	Open
P7536	J53_50	J54_50	145.00	100.0	140.0	0.0193	Open
P7537	J53_51	J53_52	145.00	400.0	120.0	0.0167	Open
P7538	J53_51	J54_51	145.00	300.0	120.0	0.0379	Open
P7539	J53_52	J53_53	145.00	100.0	125.0	0.0738	Open
P7540	J53_52	J54_52	145.00	200.0	135.0	0.0090	Open
P7541	J53_53	J53_54	145.00	250.0	140.0	0.0020	Open
P7542	J53_53	J54_53	145.00	200.0	135.0	0.0992	Open
P7543	J53_54	J53_55	145.00	300.0	140.0	0.1477	Open
P7544	J53_54	J54_54	145.00	250.0	125.0	0.1090	Open
P7545	J53_55	J53_56	145.00	100.0	125.0	0.0797	Open
P7546	J53_55	J54_55	145.00	150.0	135.0	0.0471	Open
P7547	J53_56	J53_57	145.00	300.0	140.0	0.0846	Open
P7548	J53_56	J54_56	145.00	250.0	125.0	0.0962	Open
P7549	J53_57	J53_58	145.00	100.0	130.0	0.0116	Open
P7550	J53_57	J54_57	145.00	250.0	125.0	0.1372	Open
P7551	J53_58	J53_59	145.00	100.0	135.0	0.0278	Open
P7552	J53_58	J54_58	145.00	250.0	125.0	0.0218	Open
P7553	J53_59	J53_60	145.00	250.0	130.0	0.0381	Open
P7554	J53_59	J54_59	145.00	200.0	130.0	0.0912	Open
P7555	J53_60	J53_61	145.00	250.0	140.0	0.1367	Open
P7556	J53_60	J54_60	145.00	150.0	140.0	0.0857	Open
P7557	J53_61	J53_62	145.00	600.0	120.0	0.0401	Open
P7558	J53_61	J54_61	145.00	600.0	130.0	0.0181	Open
P7559	J53_62	J53_63	145.00	250.0	130.0	0.0865	Open
P7560	J53_62	J54_62	145.00	100.0	140.0	0.0135	Open
P7561	J53_63	J53_64	145.00	100.0	135.0	0.0347	Open
P7562	J53_63	J54_63	145.00	200.0	140.0	0.0256	Open
P7563	J53_64	J53_65	145.00	150.0	125.0	0.0602	Open
P7564	J53_64	J54_64	145.00	150.0	130.0	0.0154	Open
P7565	J53_65	J53_66	145.00	100.0	135.0	0.1059	Open
P7566	J53_65	J54_65	145.00	150.0	130.0	0.0410	Open
P7567	J53_66	J53_67	145.00	150.0	140.0	0.0248	Open
P7568	J53_66	J54_66	145.00	150.0	125.0	0.0564	Open
P7569	J53_67	J53_68	145.00	250.0	130.0	0.0434	Open
P7570	J53_67	J54_67	145.00	200.0	135.0	0.0086	Open
P7571	J53_68	J53_69	145.00	100.0	135.0	0.0795	Open
P7572	J53_68	J54_68	145.00	250.0	135.0	0.0961	Open
P7573	J53_69	J53_70	145.00	100.0	125.0	0.0470	Open
P7574	J53_69	J54_69	145.00	100.0	130.0	0.1107	Open
P7575	J53_70	J53_71	145.00	300.0	140.0	0.0950	Open
P7576	J53_70	J54_70	145.00	150.0	140.0	0.0032	Open
P7577	J53_71	J53_72	145.00	400.0	120.0	0.0174	Open
P7578	J53_71	J54_71	145.00	350.0	130.0	0.0368	Open
P7579	J53_72	J54_72	145.00	200.0	130.0	0.1214	Open
P7580	J54_1	J54_2	145.00	600.0	120.0	0.0284	Open
P7581	J54_1	J55_1	145.00	350.0	125.0	0.0422	Open
P7582	J54_2	J54_3	145.00	150.0	140.0	0.1248	Open
P7583	J54_2	J55_2	145.00	150.0	130.0	0.0497	Open
P7584	J54_3	J54_4	145.00	200.0	130.0	0.0006	Open
P7585	J54_3	J55_3	145.00	150.0	140.0	0.0684	Open
P7586	J54_4	J54_5	145.00	200.0	140.0	0.0396	Open
P7587	J54_4	J55_4	145.00	150.0	135.0	0.0409	Open
P7588	J54_5	J54_6	145.00	250.0	125.0	0.0141	Open
P7589	J54_5	J55_5	145.00	150.0	135.0	0.0564	Open
P7590	J54_6	J54_7	145.00	100.0	140.0	0.0052	Open
P7591	J54_6	J55_6	145.00	100.0	135.0	0.0080	Open
P7592	J54_7	J54_8	145.00	200.0	130.0	0.1175	Open
P7593	J54_7	J55_7	145.00	300.0	125.0	0.1354	Open
P7594	J54_8	J54_9	145.00	200.0	125.0	0.0817	Open
P7595	J54_8	J55_8	145.00	250.0	140.0	0.1486	Open
P7596	J54_9	J54_10	145.00	300.0	130.0	0.0382	Open
P7597	J54_9	J55_9	145.00	150.0	130.0	0.0379	Open
P7598	J54_10	J54_11	145.00	150.0	130.0	0.0951	Open
P7599	J54_10	J55_10	145.00	150.0	135.0	0.0819	Open
P7600	J54_11	J54_12	145.00	500.0	130.0	0.0446	Open
P7601	J54_11	J55_11	145.00	400.0	120.0	0.0419	Open
P7602	J54_12	J54_13	145.00	300.0	130.0	0.0847	Open
P7603	J54_12	J55_12	145.00	250.0	135.0	0.0754	Open
P7604	J54_13	J54_14	145.00	100.0	140.0	0.1216	Open
P7605	J54_13	J55_13	145.00	300.0	130.0	0.0152	Open
P7606	J54_14	J54_15	145.00	250.0	140.0	0.1111	Open
P7607	J54_14	J55_14	145.00	200.0	130.0	0.1279	Open
P7608	J54_15	J54_16	145.00	100.0	125.0	0.0935	Open
P7609	J54_15	J55_15	145.00	200.0	140.0	0.0991	Open
P7610	J54_16	J54_17	145.00	150.0	130.0	0.0580	Open
P7611	J54_16	J55_16	145.00	100.0	125.0	0.0111	Open
P7612	J54_17	J54_18	145.00	250.0	140.0	0.0317	Open
P7613	J54_17	J55_17	145.00	200.0	130.0	0.0411	Open
P7614	J54_18	J54_19	145.00	150.0	125.0	0.1086	Open
P7615	J54_18	J55_18	145.00	200.0	130.0	0.0063	Open
P7616	J54_19	J54_20	145.00	100.0	135.0	0.0733	Open
P7617	J54_19	J55_19	145.00	250.0	140.0	0.0066	Open
P7618	J54_20	J54_21	145.00	250.0	125.0	0.0737	Open
P7619	J54_20	J55_20	145.00	200.0	140.0	0.0529	Open
P7620	J54_21	J54_22	145.00	300.0	125.0	0.0246	Open
P7621	J54_21	J55_21	145.00	450.0	130.0	0.0247	Open
P7622	J54_22	J54_23	145.00	300.0	125.0	0.0475	Open
P7623	J54_22	J55_22	145.00	100.0	135.0	0.1182	Open
P7624	J54_23	J54_24	145.00	300.0	140.0	0.0040	Open
P7625	J54_23	J55_23	145.00	250.0	140.0	0.1118	Open
P7626	J54_24	J54_25	145.00	200.0	140.0	0.0527	Open
P7627	J54_24	J55_24	145.00	100.0	125.0	0.0089	Open
P7628	J54_25	J54_26	145.00	100.0	140.0	0.0862	Open
P7629	J54_25	J55_25	145.00	150.0	135.0	0.0887	Open
P7630	J54_26	J54_27	145.00	100.0	135.0	0.0965	Open
P7631	J54_26	J55_26	145.00	300.0	130.0	0.0008	Open
P7632	J54_27	J54_28	145.00	250.0	125.0	0.0248	Open
P7633	J54_27	J55_27	145.00	300.0	140.0	0.0372	Open
P7634	J54_28	J54_29	145.00	150.0	130.0	0.1265	Open
P7635	J54_28	J55_28	145.00	250.0	135.0	0.0891	Open
P7636	J54_29	J54_30	145.00	300.0	135.0	0.0169	Open
P7637	J54_29	J55_29	145.00	250.0	125.0	0.0394	Open
P7638	J54_30	J54_31	145.00	150.0	140.0	0.0551	Open
P7639	J54_30	J55_30	145.00	200.0	130.0	0.1196	Open
P7640	J54_31	J54_32	145.00	300.0	125.0	0.0287	Open
P7641	J54_31	J55_31	145.00	600.0	125.0	0.0392	Open
P7642	J54_32	J54_33	145.00	250.0	125.0	0.0271	Open
P7643	J54_32	J55_32	145.00	150.0	130.0	0.0399	Open
P7644	J54_33	J54_34	145.00	150.0	130.0	0.0727	Open
P7645	J54_33	J55_33	145.00	150.0	135.0	0.0659	Open
P7646	J54_34	J54_35	145.00	100.0	135.0	0.0731	Open
P7647	J54_34	J55_34	145.00	100.0	135.0	0.0147	Open
P7648	J54_35	J54_36	145.00	250.0	130.0	0.0201	Open
P7649	J54_35	J55_35	145.00	300.0	130.0	0.1383	Open
P7650	J54_36	J54_37	145.00	200.0	130.0	0.0240	Open
P7651	J54_36	J55_36	145.00	300.0	135.0	0.1399	Open
P7652	J54_37	J54_38	145.00	100.0	140.0	0.0002	Open
P7653	J54_37	J55_37	145.00	200.0	140.0	0.0002	Open
P7654	J54_38	J54_39	145.00	100.0	130.0	0.1328	Open
P7655	J54_38	J55_38	145.00	100.0	135.0	0.0482	Open
P7656	J54_39	J54_40	145.00	100.0	125.0	0.1405	Open
P7657	J54_39	J55_39	145.00	150.0	130.0	0.0933	Open
P7658	J54_40	J54_41	145.00	100.0	140.0	0.1144	Open
P7659	J54_40	J55_40	145.00	150.0	125.0	0.1498	Open
P7660	J54_41	J54_42	145.00	300.0	120.0	0.0429	Open
P7661	J54_41	J55_41	145.00	300.0	130.0	0.0428	Open
P7662	J54_42	J54_43	145.00	250.0	125.0	0.0653	Open
P7663	J54_42	J55_42	145.00	200.0	135.0	0.1364	Open
P7664	J54_43	J54_44	145.00	250.0	130.0	0.1231	Open
P7665	J54_43	J55_43	145.00	300.0	125.0	0.0533	Open
P7666	J54_44	J54_45	145.00	150.0	140.0	0.0363	Open
P7667	J54_44	J55_44	145.00	200.0	135.0	0.0867	Open
P7668	J54_45	J54_46	145.00	100.0	140.0	0.1105	Open
P7669	J54_45	J55_45	145.00	300.0	135.0	0.0949	Open
P7670	J54_46	J54_47	145.00	200.0	130.0	0.1027	Open
P7671	J54_46	J55_46	145.00	150.0	130.0	0.0213	Open
P7672	J54_47	J54_48	145.00	150.0	135.0	0.0324	Open
P7673	J54_47	J55_47	145.00	100.0	135.0	0.1153	Open
P7674	J54_48	J54_49	145.00	200.0	130.0	0.0840	Open
P7675	J54_48	J55_48	145.00	100.0	135.0	0.0382	Open
P7676	J54_49	J54_50	145.00	200.0	140.0	0.0949	Open
P7677	J54_49	J55_49	145.00	300.0	125.0	0.0960	Open
P7678	J54_50	J54_51	145.00	200.0	130.0	0.1181	Open
P7679	J54_50	J55_50	145.00	250.0	140.0	0.0059	Open
P7680	J54_51	J54_52	145.00	600.0	120.0	0.0363	Open
P7681	J54_51	J55_51	145.00	400.0	120.0	0.0278	Open
P7682	J54_52	J54_53	145.00	150.0	125.0	0.1425	Open
P7683	J54_52	J55_52	145.00	300.0	130.0	0.0039	Open
P7684	J54_53	J54_54	145.00	300.0	130.0	0.0479	Open
P7685	J54_53	J55_53	145.00	300.0	140.0	0.0759	Open
P7686	J54_54	J54_55	145.00	250.0	140.0	0.0973	Open
P7687	J54_54	J55_54	145.00	150.0	130.0	0.1273	Open
P7688	J54_55	J54_56	145.00	200.0	125.0	0.1157	Open
P7689	J54_55	J55_55	145.00	200.0	135.0	0.0136	Open
P7690	J54_56	J54_57	145.00	150.0	130.0	0.1215	Open
P7691	J54_56	J55_56	145.00	300.0	125.0	0.1033	Open
P7692	J54_57	J54_58	145.00	200.0	125.0	0.0366	Open
P7693	J54_57	J55_57	145.00	250.0	130.0	0.1375	Open
P7694	J54_58	J54_59	145.00	300.0	130.0	0.0180	Open
P7695	J54_58	J55_58	145.00	300.0	125.0	0.1132	Open
P7696	J54_59	J54_60	145.00	100.0	130.0	0.0487	Open
P7697	J54_59	J55_59	145.00	250.0	125.0	0.0551	Open
P7698	J54_60	J54_61	145.00	300.0	125.0	0.0084	Open
P7699	J54_60	J55_60	145.00	100.0	130.0	0.0018	Open
P7700	J54_61	J54_62	145.00	350.0	125.0	0.0182	Open
P7701	J54_61	J55_61	145.00	450.0	120.0	0.0416	Open
P7702	J54_62	J54_63	145.00	300.0	130.0	0.0058	Open
P7703	J54_62	J55_62	145.00	300.0	140.0	0.0773	Open
P7704	J54_63	J54_64	145.00	200.0	140.0	0.0630	Open
P7705	J54_63	J55_63	145.00	300.0	135.0	0.0692	Open
P7706	J54_64	J54_65	145.00	250.0	135.0	0.0657	Open
P7707	J54_64	J55_64	145.00	250.0	125.0	0.0724	Open
P7708	J54_65	J54_66	145.00	100.0	135.0	0.0647	Open
P7709	J54_65	J55_65	145.00	100.0	125.0	0.0614	Open
P7710	J54_66	J54_67	145.00	150.0	140.0	0.1427	Open
P7711	J54_66	J55_66	145.00	200.0	135.0	0.1071	Open
P7712	J54_67	J54_68	145.00	200.0	135.0	0.0747	Open
P7713	J54_67	J55_67	145.00	100.0	135.0	0.1450	Open
P7714	J54_68	J54_69	145.00	150.0	140.0	0.0385	Open
P7715	J54_68	J55_68	145.00	250.0	135.0	0.0616	Open
P7716	J54_69	J54_70	145.00	250.0	140.0	0.0042	Open
P7717	J54_69	J55_69	145.00	200.0	130.0	0.1462	Open
P7718	J54_70	J54_71	145.00	100.0	130.0	0.0941	Open
P7719	J54_70	J55_70	145.00	150.0	130.0	0.0608	Open
P7720	J54_71	J54_72	145.00	450.0	130.0	0.0019	Open
P7721	J54_71	J55_71	145.00	500.0	120.0	0.0236	Open
P7722	J54_72	J55_72	145.00	250.0	130.0	0.1256	Open
P7723	J55_1	J55_2	145.00	300.0	130.0	0.0465	Open
P7724	J55_1	J56_1	145.00	300.0	130.0	0.0456	Open
P7725	J55_2	J55_3	145.00	100.0	125.0	0.0627	Open
P7726	J55_2	J56_2	145.00	150.0	130.0	0.1232	Open
P7727	J55_3	J55_4	145.00	150.0	135.0	0.1412	Open
P7728	J55_3	J56_3	145.00	300.0	125.0	0.0290	Open
P7729	J55_4	J55_5	145.00	150.0	135.0	0.0457	Open
P7730	J55_4	J56_4	145.00	250.0	140.0	0.0144	Open
P7731	J55_5	J55_6	145.00	250.0	130.0	0.0796	Open
P7732	J55_5	J56_5	145.00	300.0	140.0	0.1145	Open
P7733	J55_6	J55_7	145.00	250.0	125.0	0.1410	Open
P7734	J55_6	J56_6	145.00	200.0	125.0	0.1072	Open
P7735	J55_7	J55_8	145.00	200.0	140.0	0.0290	Open
P7736	J55_7	J56_7	145.00	250.0	125.0	0.1156	Open
P7737	J55_8	J55_9	145.00	100.0	140.0	0.1031	Open
P7738	J55_8	J56_8	145.00	150.0	135.0	0.0556	Open
P7739	J55_9	J55_10	145.00	300.0	125.0	0.0393	Open
P7740	J55_9	J56_9	145.00	300.0	135.0	0.1443	Open
P7741	J55_10	J55_11	145.00	250.0	135.0	0.1060	Open
P7742	J55_10	J56_10	145.00	100.0	135.0	0.0921	Open
P7743	J55_11	J55_12	145.00	400.0	125.0	0.0370	Open
P7744	J55_11	J56_11	145.00	600.0	120.0	0.0200	Open
P7745	J55_12	J55_13	145.00	300.0	125.0	0.1052	Open
P7746	J55_12	J56_12	145.00	150.0	140.0	0.0028	Open
P7747	J55_13	J55_14	145.00	100.0	125.0	0.0522	Open
P7748	J55_13	J56_13	145.00	200.0	140.0	0.0030	Open
P7749	J55_14	J55_15	145.00	150.0	135.0	0.0244	Open
P7750	J55_14	J56_14	145.00	250.0	130.0	0.1128	Open
P7751	J55_15	J55_16	145.00	150.0	130.0	0.0563	Open
P7752	J55_15	J56_15	145.00	250.0	125.0	0.0423	Open
P7753	J55_16	J55_17	145.00	150.0	130.0	0.0615	Open
P7754	J55_16	J56_16	145.00	100.0	130.0	0.0281	Open
P7755	J55_17	J55_18	145.00	300.0	130.0	0.0339	Open
P7756	J55_17	J56_17	145.00	300.0	130.0	0.0092	Open
P7757	J55_18	J55_19	145.00	150.0	140.0	0.0059	Open
P7758	J55_18	J56_18	145.00	250.0	125.0	0.1122	Open
P7759	J55_19	J55_20	145.00	300.0	125.0	0.0988	Open
P7760	J55_19	J56_19	145.00	150.0	125.0	0.0522	Open
P7761	J55_20	J55_21	145.00	200.0	130.0	0.0727	Open
P7762	J55_20	J56_20	145.00	100.0	130.0	0.0755	Open
P7763	J55_21	J55_22	145.00	500.0	130.0	0.0289	Open
P7764	J55_21	J56_21	145.00	400.0	120.0	0.0247	Open
P7765	J55_22	J55_23	145.00	300.0	135.0	0.0182	Open
P7766	J55_22	J56_22	145.00	300.0	135.0	0.1256	Open
P7767	J55_23	J55_24	145.00	300.0	140.0	0.1350	Open
P7768	J55_23	J56_23	145.00	150.0	130.0	0.0749	Open
P7769	J55_24	J55_25	145.00	300.0	125.0	0.0803	Open
P7770	J55_24	J56_24	145.00	100.0	130.0	0.1176	Open
P7771	J55_25	J55_26	145.00	150.0	125.0	0.0856	Open
P7772	J55_25	J56_25	145.00	300.0	125.0	0.0608	Open
P7773	J55_26	J55_27	145.00	100.0	135.0	0.0386	Open
P7774	J55_26	J56_26	145.00	200.0	135.0	0.0505	Open
P7775	J55_27	J55_28	145.00	100.0	125.0	0.0589	Open
P7776	J55_27	J56_27	145.00	150.0	135.0	0.0953	Open
P7777	J55_28	J55_29	145.00	100.0	135.0	0.0903	Open
P7778	J55_28	J56_28	145.00	100.0	140.0	0.1456	Open
P7779	J55_29	J55_30	145.00	300.0	125.0	0.0560	Open
P7780	J55_29	J56_29	145.00	250.0	130.0	0.1108	Open
P7781	J55_30	J55_31	145.00	100.0	130.0	0.1108	Open
P7782	J55_30	J56_30	145.00	300.0	140.0	0.0111	Open
P7783	J55_31	J55_32	145.00	300.0	130.0	0.0213	Open
P7784	J55_31	J56_31	145.00	500.0	125.0	0.0043	Open
P7785	J55_32	J55_33	145.00	150.0	125.0	0.0523	Open
P7786	J55_32	J56_32	145.00	150.0	125.0	0.0449	Open
P7787	J55_33	J55_34	145.00	300.0	125.0	0.1346	Open
P7788	J55_33	J56_33	145.00	300.0	140.0	0.1186	Open
P7789	J55_34	J55_35	145.00	200.0	130.0	0.0343	Open
P7790	J55_34	J56_34	145.00	150.0	140.0	0.0843	Open
P7791	J55_35	J55_36	145.00	200.0	140.0	0.1306	Open
P7792	J55_35	J56_35	145.00	150.0	135.0	0.0115	Open
P7793	J55_36	J55_37	145.00	250.0	140.0	0.0077	Open
P7794	J55_36	J56_36	145.00	200.0	130.0	0.0441	Open
P7795	J55_37	J55_38	145.00	100.0	125.0	0.0689	Open
P7796	J55_37	J56_37	145.00	100.0	130.0	0.0914	Open
P7797	J55_38	J55_39	145.00	100.0	135.0	0.0335	Open
P7798	J55_38	J56_38	145.00	300.0	140.0	0.1102	Open
P7799	J55_39	J55_40	145.00	200.0	125.0	0.1153	Open
P7800	J55_39	J56_39	145.00	150.0	130.0	0.0644	Open
P7801	J55_40	J55_41	145.00	150.0	125.0	0.0789	Open
P7802	J55_40	J56_40	145.00	250.0	140.0	0.1290	Open
P7803	J55_41	J55_42	145.00	350.0	120.0	0.0490	Open
P7804	J55_41	J56_41	145.00	450.0	120.0	0.0453	Open
P7805	J55_42	J55_43	145.00	300.0	125.0	0.0084	Open
P7806	J55_42	J56_42	145.00	300.0	125.0	0.0953	Open
P7807	J55_43	J55_44	145.00	250.0	125.0	0.0812	Open
P7808	J55_43	J56_43	145.00	250.0	135.0	0.1102	Open
P7809	J55_44	J55_45	145.00	200.0	135.0	0.1291	Open
P7810	J55_44	J56_44	145.00	250.0	125.0	0.0697	Open
P7811	J55_45	J55_46	145.00	300.0	130.0	0.0099	Open
P7812	J55_45	J56_45	145.00	150.0	130.0	0.1186	Open
P7813	J55_46	J55_47	145.00	200.0	130.0	0.0205	Open
P7814	J55_46	J56_46	145.00	100.0	130.0	0.0671	Open
P7815	J55_47	J55_48	145.00	300.0	125.0	0.0821	Open
P7816	J55_47	J56_47	145.00	300.0	140.0	0.1217	Open
P7817	J55_48	J55_49	145.00	100.0	135.0	0.0753	Open
P7818	J55_48	J56_48	145.00	200.0	125.0	0.0768	Open
P7819	J55_49	J55_50	145.00	300.0	140.0	0.0814	Open
P7820	J55_49	J56_49	145.00	100.0	125.0	0.0872	Open
P7821	J55_50	J55_51	145.00	250.0	140.0	0.0065	Open
P7822	J55_50	J56_50	145.00	200.0	135.0	0.1303	Open
P7823	J55_51	J55_52	145.00	400.0	125.0	0.0213	Open
P7824	J55_51	J56_51	145.00	400.0	120.0	0.0413	Open
P7825	J55_52	J55_53	145.00	200.0	135.0	0.0471	Open
P7826	J55_52	J56_52	145.00	300.0	140.0	0.0366	Open
P7827	J55_53	J55_54	145.00	100.0	140.0	0.0592	Open
P7828	J55_53	J56_53	145.00	200.0	135.0	0.0545	Open
P7829	J55_54	J55_55	145.00	200.0	130.0	0.1274	Open
P7830	J55_54	J56_54	145.00	150.0	140.0	0.1204	Open
P7831	J55_55	J55_56	145.00	100.0	135.0	0.1108	Open
P7832	J55_55	J56_55	145.00	100.0	130.0	0.1141	Open
P7833	J55_56	J55_57	145.00	300.0	130.0	0.0119	Open
P7834	J55_56	J56_56	145.00	300.0	130.0	0.0808	Open
P7835	J55_57	J55_58	145.00	250.0	130.0	0.0750	Open
P7836	J55_57	J56_57	145.00	150.0	125.0	0.0138	Open
P7837	J55_58	J55_59	145.00	300.0	125.0	0.0170	Open
P7838	J55_58	J56_58	145.00	300.0	125.0	0.0897	Open
P7839	J55_59	J55_60	145.00	100.0	130.0	0.0985	Open
P7840	J55_59	J56_59	145.00	100.0	140.0	0.0255	Open
P7841	J55_60	J55_61	145.00	200.0	130.0	0.0756	Open
P7842	J55_60	J56_60	145.00	200.0	125.0	0.0342	Open
P7843	J55_61	J55_62	145.00	600.0	120.0	0.0226	Open
P7844	J55_61	J56_61	145.00	450.0	130.0	0.0438	Open
P7845	J55_62	J55_63	145.00	300.0	125.0	0.0745	Open
P7846	J55_62	J56_62	145.00	200.0	125.0	0.1056	Open
P7847	J55_63	J55_64	145.00	100.0	125.0	0.0191	Open
P7848	J55_63	J56_63	145.00	150.0	125.0	0.0816	Open
P7849	J55_64	J55_65	145.00	100.0	135.0	0.0854	Open
P7850	J55_64	J56_64	145.00	300.0	130.0	0.0842	Open
P7851	J55_65	J55_66	145.00	250.0	125.0	0.1084	Open
P7852	J55_65	J56_65	145.00	150.0	140.0	0.0062	Open
P7853	J55_66	J55_67	145.00	100.0	135.0	0.1059	Open
P7854	J55_66	J56_66	145.00	250.0	130.0	0.0950	Open
P7855	J55_67	J55_68	145.00	300.0	130.0	0.0799	Open
P7856	J55_67	J56_67	145.00	300.0	135.0	0.0773	Open
P7857	J55_68	J55_69	145.00	100.0	130.0	0.1117	Open
P7858	J55_68	J56_68	145.00	100.0	135.0	0.0219	Open
P7859	J55_69	J55_70	145.00	150.0	125.0	0.0696	Open
P7860	J55_69	J56_69	145.00	300.0	140.0	0.0131	Open
P7861	J55_70	J55_71	145.00	150.0	130.0	0.0332	Open
P7862	J55_70	J56_70	145.00	100.0	140.0	0.1074	Open
P7863	J55_71	J55_72	145.00	500.0	130.0	0.0040	Open
P7864	J55_71	J56_71	145.00	600.0	120.0	0.0025	Open
P7865	J55_72	J56_72	145.00	300.0	140.0	0.0191	Open
P7866	J56_1	J56_2	145.00	600.0	130.0	0.0403	Open
P7867	J56_1	J57_1	145.00	450.0	125.0	0.0479	Open
P7868	J56_2	J56_3	145.00	300.0	125.0	0.0993	Open
P7869	J56_2	J57_2	145.00	200.0	135.0	0.1316	Open
P7870	J56_3	J56_4	145.00	250.0	125.0	0.1495	Open
P7871	J56_3	J57_3	145.00	200.0	140.0	0.0518	Open
P7872	J56_4	J56_5	145.00	100.0	130.0	0.1269	Open
P7873	J56_4	J57_4	145.00	100.0	140.0	0.0749	Open
P7874	J56_5	J56_6	145.00	250.0	125.0	0.0460	Open
P7875	J56_5	J57_5	145.00	300.0	130.0	0.1105	Open
P7876	J56_6	J56_7	145.00	100.0	140.0	0.0123	Open
P7877	J56_6	J57_6	145.00	100.0	140.0	0.0692	Open
P7878	J56_7	J56_8	145.00	200.0	135.0	0.0280	Open
P7879	J56_7	J57_7	145.00	150.0	125.0	0.0939	Open
P7880	J56_8	J56_9	145.00	150.0	130.0	0.0643	Open
P7881	J56_8	J57_8	145.00	250.0	135.0	0.0421	Open
P7882	J56_9	J56_10	145.00	100.0	135.0	0.0220	Open
P7883	J56_9	J57_9	145.00	100.0	140.0	0.0059	Open
P7884	J56_10	J56_11	145.00	200.0	140.0	0.0609	Open
P7885	J56_10	J57_10	145.00	150.0	130.0	0.1243	Open
P7886	J56_11	J56_12	145.00	350.0	120.0	0.0337	Open
P7887	J56_11	J57_11	145.00	450.0	120.0	0.0056	Open
P7888	J56_12	J56_13	145.00	250.0	125.0	0.0797	Open
P7889	J56_12	J57_12	145.00	300.0	140.0	0.0492	Open
P7890	J56_13	J56_14	145.00	300.0	135.0	0.1147	Open
P7891	J56_13	J57_13	145.00	100.0	140.0	0.0120	Open
P7892	J56_14	J56_15	145.00	150.0	135.0	0.0297	Open
P7893	J56_14	J57_14	145.00	100.0	140.0	0.0528	Open
P7894	J56_15	J56_16	145.00	300.0	135.0	0.0402	Open
P7895	J56_15	J57_15	145.00	250.0	140.0	0.0752	Open
P7896	J56_16	J56_17	145.00	200.0	130.0	0.0556	Open
P7897	J56_16	J57_16	145.00	250.0	125.0	0.0185	Open
P7898	J56_17	J56_18	145.00	200.0	125.0	0.1338	Open
P7899	J56_17	J57_17	145.00	100.0	130.0	0.0714	Open
P7900	J56_18	J56_19	145.00	150.0	125.0	0.0647	Open
P7901	J56_18	J57_18	145.00	100.0	130.0	0.0513	Open
P7902	J56_19	J56_20	145.00	100.0	140.0	0.0783	Open
P7903	J56_19	J57_19	145.00	200.0	140.0	0.0657	Open
P7904	J56_20	J56_21	145.00	250.0	125.0	0.1429	Open
P7905	J56_20	J57_20	145.00	200.0	130.0	0.1080	Open
P7906	J56_21	J56_22	145.00	500.0	125.0	0.0083	Open
P7907	J56_21	J57_21	145.00	600.0	125.0	0.0104	Open
P7908	J56_22	J56_23	145.00	250.0	125.0	0.1008	Open
P7909	J56_22	J57_22	145.00	200.0	125.0	0.1206	Open
P7910	J56_23	J56_24	145.00	100.0	140.0	0.0255	Open
P7911	J56_23	J57_23	145.00	300.0	130.0	0.0463	Open
P7912	J56_24	J56_25	145.00	300.0	135.0	0.0942	Open
P7913	J56_24	J57_24	145.00	200.0	130.0	0.0748	Open
P7914	J56_25	J56_26	145.00	250.0	135.0	0.1161	Open
P7915	J56_25	J57_25	145.00	150.0	140.0	0.0895	Open
P7916	J56_26	J56_27	145.00	250.0	125.0	0.0483	Open
P7917	J56_26	J57_26	145.00	100.0	125.0	0.0154	Open
P7918	J56_27	J56_28	145.00	200.0	125.0	0.0127	Open
P7919	J56_27	J57_27	145.00	200.0	130.0	0.1106	Open
P7920	J56_28	J56_29	145.00	150.0	130.0	0.0991	Open
P7921	J56_28	J57_28	145.00	200.0	135.0	0.0139	Open
P7922	J56_29	J56_30	145.00	100.0	140.0	0.0270	Open
P7923	J56_29	J57_29	145.00	300.0	140.0	0.1097	Open
P7924	J56_30	J56_31	145.00	100.0	140.0	0.0677	Open
P7925	J56_30	J57_30	145.00	100.0	125.0	0.0022	Open
P7926	J56_31	J56_32	145.00	500.0	125.0	0.0498	Open
P7927	J56_31	J57_31	145.00	450.0	125.0	0.0482	Open
P7928	J56_32	J56_33	145.00	150.0	125.0	0.1072	Open
P7929	J56_32	J57_32	145.00	150.0	125.0	0.0778	Open
P7930	J56_33	J56_34	145.00	300.0	125.0	0.1055	Open
P7931	J56_33	J57_33	145.00	300.0	130.0	0.0366	Open
P7932	J56_34	J56_35	145.00	250.0	135.0	0.0186	Open
P7933	J56_34	J57_34	145.00	300.0	135.0	0.0440	Open
P7934	J56_35	J56_36	145.00	300.0	135.0	0.1233	Open
P7935	J56_35	J57_35	145.00	100.0	140.0	0.1296	Open
P7936	J56_36	J56_37	145.00	250.0	130.0	0.0531	Open
P7937	J56_36	J57_36	145.00	150.0	130.0	0.1338	Open
P7938	J56_37	J56_38	145.00	300.0	125.0	0.0398	Open
P7939	J56_37	J57_37	145.00	300.0	140.0	0.0329	Open
P7940	J56_38	J56_39	145.00	100.0	130.0	0.0213	Open
P7941	J56_38	J57_38	145.00	100.0	125.0	0.1137	Open
P7942	J56_39	J56_40	145.00	100.0	135.0	0.0305	Open
P7943	J56_39	J57_39	145.00	200.0	125.0	0.0735	Open
P7944	J56_40	J56_41	145.00	250.0	125.0	0.0931	Open
P7945	J56_40	J57_40	145.00	150.0	130.0	0.0017	Open
P7946	J56_41	J56_42	145.00	450.0	125.0	0.0273	Open
P7947	J56_41	J57_41	145.00	300.0	120.0	0.0172	Open
P7948	J56_42	J56_43	145.00	150.0	140.0	0.0198	Open
P7949	J56_42	J57_42	145.00	200.0	135.0	0.0538	Open
P7950	J56_43	J56_44	145.00	300.0	125.0	0.1176	Open
P7951	J56_43	J57_43	145.00	100.0	125.0	0.0369	Open
P7952	J56_44	J56_45	145.00	100.0	135.0	0.0807	Open
P7953	J56_44	J57_44	145.00	100.0	130.0	0.0207	Open
P7954	J56_45	J56_46	145.00	100.0	140.0	0.1423	Open
P7955	J56_45	J57_45	145.00	300.0	125.0	0.0300	Open
P7956	J56_46	J56_47	145.00	100.0	140.0	0.0988	Open
P7957	J56_46	J57_46	145.00	300.0	125.0	0.0638	Open
P7958	J56_47	J56_48	145.00	200.0	125.0	0.1040	Open
P7959	J56_47	J57_47	145.00	100.0	130.0	0.1295	Open
P7960	J56_48	J56_49	145.00	250.0	140.0	0.0494	Open
P7961	J56_48	J57_48	145.00	200.0	135.0	0.0823	Open
P7962	J56_49	J56_50	145.00	100.0	125.0	0.0845	Open
P7963	J56_49	J57_49	145.00	250.0	125.0	0.0226	Open
P7964	J56_50	J56_51	145.00	150.0	140.0	0.0211	Open
P7965	J56_50	J57_50	145.00	300.0	130.0	0.0455	Open
P7966	J56_51	J56_52	145.00	350.0	125.0	0.0314	Open
P7967	J56_51	J57_51	145.00	600.0	130.0	0.0124	Open
P7968	J56_52	J56_53	145.00	100.0	125.0	0.1151	Open
P7969	J56_52	J57_52	145.00	250.0	125.0	0.1431	Open
P7970	J56_53	J56_54	145.00	200.0	140.0	0.0767	Open
P7971	J56_53	J57_53	145.00	150.0	140.0	0.0069	Open
P7972	J56_54	J56_55	145.00	200.0	125.0	0.0201	Open
P7973	J56_54	J57_54	145.00	250.0	135.0	0.1215	Open
P7974	J56_55	J56_56	145.00	250.0	125.0	0.0295	Open
P7975	J56_55	J57_55	145.00	100.0	125.0	0.0730	Open
P7976	J56_56	J56_57	145.00	100.0	125.0	0.0176	Open
P7977	J56_56	J57_56	145.00	200.0	140.0	0.0539	Open
P7978	J56_57	J56_58	145.00	300.0	140.0	0.1292	Open
P7979	J56_57	J57_57	145.00	200.0	135.0	0.1218	Open
P7980	J56_58	J56_59	145.00	150.0	130.0	0.0184	Open
P7981	J56_58	J57_58	145.00	100.0	130.0	0.1044	Open
P7982	J56_59	J56_60	145.00	200.0	125.0	0.1486	Open
P7983	J56_59	J57_59	145.00	150.0	125.0	0.0120	Open
P7984	J56_60	J56_61	145.00	150.0	130.0	0.1494	Open
P7985	J56_60	J57_60	145.00	100.0	130.0	0.0872	Open
P7986	J56_61	J56_62	145.00	400.0	120.0	0.0040	Open
P7987	J56_61	J57_61	145.00	350.0	130.0	0.0114	Open
P7988	J56_62	J56_63	145.00	150.0	130.0	0.0808	Open
P7989	J56_62	J57_62	145.00	100.0	135.0	0.0687	Open
P7990	J56_63	J56_64	145.00	250.0	135.0	0.1181	Open
P7991	J56_63	J57_63	145.00	200.0	140.0	0.1323	Open
P7992	J56_64	J56_65	145.00	200.0	130.0	0.1437	Open
P7993	J56_64	J57_64	145.00	200.0	140.0	0.0527	Open
P7994	J56_65	J56_66	145.00	150.0	135.0	0.0217	Open
P7995	J56_65	J57_65	145.00	150.0	135.0	0.1147	Open
P7996	J56_66	J56_67	145.00	300.0	135.0	0.0715	Open
P7997	J56_66	J57_66	145.00	200.0	135.0	0.0286	Open
P7998	J56_67	J56_68	145.00	300.0	140.0	0.0142	Open
P7999	J56_67	J57_67	145.00	300.0	130.0	0.0844	Open
P8000	J56_68	J56_69	145.00	200.0	125.0	0.0807	Open
P8001	J56_68	J57_68	145.00	150.0	135.0	0.0409	Open
P8002	J56_69	J56_70	145.00	200.0	130.0	0.0580	Open
P8003	J56_69	J57_69	145.00	200.0	140.0	0.0102	Open
P8004	J56_70	J56_71	145.00	150.0	125.0	0.1076	Open
P8005	J56_70	J57_70	145.00	300.0	130.0	0.1162	Open
P8006	J56_71	J56_72	145.00	300.0	130.0	0.0491	Open
P8007	J56_71	J57_71	145.00	350.0	120.0	0.0418	Open
P8008	J56_72	J57_72	145.00	250.0	140.0	0.0130	Open
P8009	J57_1	J57_2	145.00	450.0	120.0	0.0409	Open
P8010	J57_1	J58_1	145.00	500.0	125.0	0.0299	Open
P8011	J57_2	J57_3	145.00	300.0	140.0	0.0021	Open
P8012	J57_2	J58_2	145.00	150.0	125.0	0.1241	Open
P8013	J57_3	J57_4	145.00	300.0	135.0	0.1119	Open
P8014	J57_3	J58_3	145.00	250.0	125.0	0.1388	Open
P8015	J57_4	J57_5	145.00	250.0	125.0	0.0358	Open
P8016	J57_4	J58_4	145.00	100.0	130.0	0.0878	Open
P8017	J57_5	J57_6	145.00	200.0	125.0	0.1154	Open
P8018	J57_5	J58_5	145.00	200.0	130.0	0.0999	Open
P8019	J57_6	J57_7	145.00	100.0	135.0	0.0544	Open
P8020	J57_6	J58_6	145.00	250.0	125.0	0.0072	Open
P8021	J57_7	J57_8	145.00	250.0	125.0	0.1358	Open
P8022	J57_7	J58_7	145.00	100.0	135.0	0.0844	Open
P8023	J57_8	J57_9	145.00	200.0	135.0	0.0561	Open
P8024	J57_8	J58_8	145.00	100.0	125.0	0.0090	Open
P8025	J57_9	J57_10	145.00	250.0	135.0	0.0817	Open
P8026	J57_9	J58_9	145.00	300.0	130.0	0.0125	Open
P8027	J57_10	J57_11	145.00	100.0	125.0	0.0204	Open
P8028	J57_10	J58_10	145.00	200.0	125.0	0.0876	Open
P8029	J57_11	J57_12	145.00	500.0	125.0	0.0241	Open
P8030	J57_11	J58_11	145.00	600.0	125.0	0.0065	Open
P8031	J57_12	J57_13	145.00	250.0	130.0	0.0652	Open
P8032	J57_12	J58_12	145.00	200.0	135.0	0.0249	Open
P8033	J57_13	J57_14	145.00	200.0	140.0	0.0823	Open
P8034	J57_13	J58_13	145.00	200.0	140.0	0.0318	Open
P8035	J57_14	J57_15	145.00	250.0	130.0	0.1465	Open
P8036	J57_14	J58_14	145.00	300.0	140.0	0.0116	Open
P8037	J57_15	J57_16	145.00	200.0	135.0	0.1234	Open
P8038	J57_15	J58_15	145.00	250.0	125.0	0.1419	Open
P8039	J57_16	J57_17	145.00	100.0	140.0	0.0640	Open
P8040	J57_16	J58_16	145.00	300.0	130.0	0.0167	Open
P8041	J57_17	J57_18	145.00	200.0	140.0	0.0242	Open
P8042	J57_17	J58_17	145.00	200.0	135.0	0.1360	Open
P8043	J57_18	J57_19	145.00	200.0	135.0	0.0328	Open
P8044	J57_18	J58_18	145.00	200.0	140.0	0.1109	Open
P8045	J57_19	J57_20	145.00	300.0	130.0	0.0132	Open
P8046	J57_19	J58_19	145.00	200.0	125.0	0.1195	Open
P8047	J57_20	J57_21	145.00	250.0	140.0	0.0072	Open
P8048	J57_20	J58_20	145.00	150.0	140.0	0.0816	Open
P8049	J57_21	J57_22	145.00	450.0	130.0	0.0056	Open
P8050	J57_21	J58_21	145.00	350.0	130.0	0.0048	Open
P8051	J57_22	J57_23	145.00	300.0	140.0	0.0878	Open
P8052	J57_22	J58_22	145.00	200.0	140.0	0.0741	Open
P8053	J57_23	J57_24	145.00	100.0	140.0	0.0048	Open
P8054	J57_23	J58_23	145.00	150.0	140.0	0.0166	Open
P8055	J57_24	J57_25	145.00	100.0	125.0	0.1241	Open
P8056	J57_24	J58_24	145.00	100.0	130.0	0.1256	Open
P8057	J57_25	J57_26	145.00	150.0	135.0	0.0634	Open
P8058	J57_25	J58_25	145.00	250.0	130.0	0.0503	Open
P8059	J57_26	J57_27	145.00	150.0	140.0	0.1418	Open
P8060	J57_26	J58_26	145.00	300.0	125.0	0.1372	Open
P8061	J57_27	J57_28	145.00	100.0	125.0	0.0772	Open
P8062	J57_27	J58_27	145.00	150.0	135.0	0.0664	Open
P8063	J57_28	J57_29	145.00	100.0	130.0	0.1224	Open
P8064	J57_28	J58_28	145.00	100.0	135.0	0.0932	Open
P8065	J57_29	J57_30	145.00	200.0	130.0	0.0187	Open
P8066	J57_29	J58_29	145.00	100.0	125.0	0.0083	Open
P8067	J57_30	J57_31	145.00	250.0	125.0	0.1361	Open
P8068	J57_30	J58_30	145.00	100.0	125.0	0.1473	Open
P8069	J57_31	J57_32	145.00	350.0	130.0	0.0463	Open
P8070	J57_31	J58_31	145.00	350.0	130.0	0.0363	Open
P8071	J57_32	J57_33	145.00	100.0	140.0	0.0802	Open
P8072	J57_32	J58_32	145.00	300.0	140.0	0.1268	Open
P8073	J57_33	J57_34	145.00	150.0	130.0	0.0092	Open
P8074	J57_33	J58_33	145.00	200.0	140.0	0.0159	Open
P8075	J57_34	J57_35	145.00	100.0	140.0	0.0533	Open
P8076	J57_34	J58_34	145.00	100.0	125.0	0.0982	Open
P8077	J57_35	J57_36	145.00	250.0	125.0	0.0052	Open
P8078	J57_35	J58_35	145.00	250.0	140.0	0.1036	Open
P8079	J57_36	J57_37	145.00	150.0	140.0	0.0255	Open
P8080	J57_36	J58_36	145.00	250.0	140.0	0.1262	Open
P8081	J57_37	J57_38	145.00	100.0	140.0	0.1339	Open
P8082	J57_37	J58_37	145.00	150.0	125.0	0.0203	Open
P8083	J57_38	J57_39	145.00	200.0	140.0	0.1102	Open
P8084	J57_38	J58_38	145.00	100.0	125.0	0.1224	Open
P8085	J57_39	J57_40	145.00	300.0	125.0	0.0364	Open
P8086	J57_39	J58_39	145.00	100.0	125.0	0.0073	Open
P8087	J57_40	J57_41	145.00	250.0	130.0	0.0980	Open
P8088	J57_40	J58_40	145.00	300.0	140.0	0.1351	Open
P8089	J57_41	J57_42	145.00	600.0	120.0	0.0495	Open
P8090	J57_41	J58_41	145.00	600.0	130.0	0.0084	Open
P8091	J57_42	J57_43	145.00	300.0	125.0	0.0284	Open
P8092	J57_42	J58_42	145.00	200.0	130.0	0.0280	Open
P8093	J57_43	J57_44	145.00	250.0	140.0	0.0044	Open
P8094	J57_43	J58_43	145.00	200.0	130.0	0.0581	Open
P8095	J57_44	J57_45	145.00	100.0	125.0	0.0611	Open
P8096	J57_44	J58_44	145.00	200.0	135.0	0.0556	Open
P8097	J57_45	J57_46	145.00	300.0	125.0	0.0635	Open
P8098	J57_45	J58_45	145.00	300.0	140.0	0.0266	Open
P8099	J57_46	J57_47	145.00	200.0	130.0	0.1319	Open
P8100	J57_46	J58_46	145.00	100.0	140.0	0.0300	Open
P8101	J57_47	J57_48	145.00	100.0	125.0	0.1476	Open
P8102	J57_47	J58_47	145.00	250.0	130.0	0.0387	Open
P8103	J57_48	J57_49	145.00	100.0	140.0	0.0674	Open
P8104	J57_48	J58_48	145.00	250.0	140.0	0.0222	Open
P8105	J57_49	J57_50	145.00	300.0	130.0	0.0029	Open
P8106	J57_49	J58_49	145.00	250.0	125.0	0.1258	Open
P8107	J57_50	J57_51	145.00	200.0	130.0	0.0746	Open
P8108	J57_50	J58_50	145.00	250.0	130.0	0.0509	Open
P8109	J57_51	J57_52	145.00	500.0	120.0	0.0355	Open
P8110	J57_51	J58_51	145.00	450.0	130.0	0.0363	Open
P8111	J57_52	J57_53	145.00	300.0	125.0	0.0213	Open
P8112	J57_52	J58_52	145.00	200.0	125.0	0.0190	Open
P8113	J57_53	J57_54	145.00	200.0	130.0	0.0733	Open
P8114	J57_53	J58_53	145.00	200.0	135.0	0.0015	Open
P8115	J57_54	J57_55	145.00	250.0	135.0	0.0358	Open
P8116	J57_54	J58_54	145.00	250.0	135.0	0.0338	Open
P8117	J57_55	J57_56	145.00	300.0	125.0	0.0879	Open
P8118	J57_55	J58_55	145.00	300.0	130.0	0.1407	Open
P8119	J57_56	J57_57	145.00	100.0	135.0	0.0479	Open
P8120	J57_56	J58_56	145.00	200.0	140.0	0.1056	Open
P8121	J57_57	J57_58	145.00	100.0	135.0	0.1444	Open
P8122	J57_57	J58_57	145.00	250.0	140.0	0.1472	Open
P8123	J57_58	J57_59	145.00	300.0	140.0	0.0266	Open
P8124	J57_58	J58_58	145.00	150.0	135.0	0.0321	Open
P8125	J57_59	J57_60	145.00	150.0	130.0	0.0054	Open
P8126	J57_59	J58_59	145.00	250.0	130.0	0.0128	Open
P8127	J57_60	J57_61	145.00	150.0	140.0	0.0703	Open
P8128	J57_60	J58_60	145.00	150.0	125.0	0.0942	Open
P8129	J57_61	J57_62	145.00	400.0	120.0	0.0175	Open
P8130	J57_61	J58_61	145.00	600.0	125.0	0.0018	Open
P8131	J57_62	J57_63	145.00	100.0	130.0	0.1499	Open
P8132	J57_62	J58_62	145.00	200.0	140.0	0.0346	Open
P8133	J57_63	J57_64	145.00	150.0	125.0	0.0987	Open
P8134	J57_63	J58_63	145.00	100.0	130.0	0.1297	Open
P8135	J57_64	J57_65	145.00	200.0	140.0	0.0635	Open
P8136	J57_64	J58_64	145.00	300.0	130.0	0.0828	Open
P8137	J57_65	J57_66	145.00	300.0	130.0	0.0136	Open
P8138	J57_65	J58_65	145.00	250.0	130.0	0.0398	Open
P8139	J57_66	J57_67	145.00	200.0	125.0	0.1018	Open
P8140	J57_66	J58_66	145.00	150.0	140.0	0.0428	Open
P8141	J57_67	J57_68	145.00	150.0	135.0	0.0446	Open
P8142	J57_67	J58_67	145.00	100.0	140.0	0.0030	Open
P8143	J57_68	J57_69	145.00	100.0	140.0	0.0488	Open
P8144	J57_68	J58_68	145.00	250.0	130.0	0.0742	Open
P8145	J57_69	J57_70	145.00	300.0	135.0	0.0895	Open
P8146	J57_69	J58_69	145.00	250.0	130.0	0.1336	Open
P8147	J57_70	J57_71	145.00	300.0	135.0	0.0029	Open
P8148	J57_70	J58_70	145.00	100.0	135.0	0.0824	Open
P8149	J57_71	J57_72	145.00	350.0	125.0	0.0303	Open
P8150	J57_71	J58_71	145.00	400.0	120.0	0.0206	Open
P8151	J57_72	J58_72	145.00	150.0	130.0	0.1027	Open
P8152	J58_1	J58_2	145.00	300.0	125.0	0.0483	Open
P8153	J58_1	J59_1	145.00	500.0	125.0	0.0336	Open
P8154	J58_2	J58_3	145.00	100.0	130.0	0.0865	Open
P8155	J58_2	J59_2	145.00	100.0	135.0	0.0557	Open
P8156	J58_3	J58_4	145.00	200.0	140.0	0.0000	Open
P8157	J58_3	J59_3	145.00	100.0	130.0	0.0190	Open
P8158	J58_4	J58_5	145.00	250.0	125.0	0.0000	Open
P8159	J58_4	J59_4	145.00	150.0	140.0	0.0191	Open
P8160	J58_5	J58_6	145.00	150.0	130.0	0.0758	Open
P8161	J58_5	J59_5	145.00	100.0	130.0	0.0912	Open
P8162	J58_6	J58_7	145.00	250.0	140.0	0.0787	Open
P8163	J58_6	J59_6	145.00	150.0	140.0	0.0889	Open
P8164	J58_7	J58_8	145.00	300.0	130.0	0.0070	Open
P8165	J58_7	J59_7	145.00	300.0	125.0	0.1111	Open
P8166	J58_8	J58_9	145.00	200.0	125.0	0.0792	Open
P8167	J58_8	J59_8	145.00	300.0	130.0	0.0828	Open
P8168	J58_9	J58_10	145.00	300.0	140.0	0.0287	Open
P8169	J58_9	J59_9	145.00	100.0	135.0	0.0672	Open
P8170	J58_10	J58_11	145.00	150.0	140.0	0.0013	Open
P8171	J58_10	J59_10	145.00	150.0	135.0	0.0214	Open
P8172	J58_11	J58_12	145.00	600.0	125.0	0.0377	Open
P8173	J58_11	J59_11	145.00	600.0	120.0	0.0439	Open
P8174	J58_12	J58_13	145.00	100.0	135.0	0.0323	Open
P8175	J58_12	J59_12	145.00	200.0	135.0	0.0765	Open
P8176	J58_13	J58_14	145.00	300.0	125.0	0.0069	Open
P8177	J58_13	J59_13	145.00	250.0	140.0	0.1262	Open
P8178	J58_14	J58_15	145.00	100.0	135.0	0.1440	Open
P8179	J58_14	J59_14	145.00	250.0	130.0	0.0818	Open
P8180	J58_15	J58_16	145.00	150.0	125.0	0.0183	Open
P8181	J58_15	J59_15	145.00	100.0	130.0	0.0252	Open
P8182	J58_16	J58_17	145.00	150.0	130.0	0.1407	Open
P8183	J58_16	J59_16	145.00	250.0	135.0	0.1083	Open
P8184	J58_17	J58_18	145.00	300.0	130.0	0.0723	Open
P8185	J58_17	J59_17	145.00	150.0	130.0	0.1226	Open
P8186	J58_18	J58_19	145.00	200.0	135.0	0.1163	Open
P8187	J58_18	J59_18	145.00	300.0	140.0	0.1365	Open
P8188	J58_19	J58_20	145.00	150.0	135.0	0.0505	Open
P8189	J58_19	J59_19	145.00	150.0	140.0	0.0418	Open
P8190	J58_20	J58_21	145.00	200.0	140.0	0.1105	Open
P8191	J58_20	J59_20	145.00	150.0	130.0	0.0965	Open
P8192	J58_21	J58_22	145.00	350.0	125.0	0.0159	Open
P8193	J58_21	J59_21	145.00	500.0	125.0	0.0369	Open
P8194	J58_22	J58_23	145.00	150.0	135.0	0.0347	Open
P8195	J58_22	J59_22	145.00	150.0	125.0	0.1047	Open
P8196	J58_23	J58_24	145.00	300.0	140.0	0.0755	Open
P8197	J58_23	J59_23	145.00	100.0	140.0	0.0036	Open
P8198	J58_24	J58_25	145.00	150.0	135.0	0.0323	Open
P8199	J58_24	J59_24	145.00	150.0	125.0	0.0484	Open
P8200	J58_25	J58_26	145.00	300.0	130.0	0.1346	Open
P8201	J58_25	J59_25	145.00	250.0	125.0	0.0125	Open
P8202	J58_26	J58_27	145.00	250.0	135.0	0.0387	Open
P8203	J58_26	J59_26	145.00	200.0	135.0	0.0921	Open
P8204	J58_27	J58_28	145.00	200.0	130.0	0.0131	Open
P8205	J58_27	J59_27	145.00	200.0	125.0	0.0582	Open
P8206	J58_28	J58_29	145.00	150.0	125.0	0.1085	Open
P8207	J58_28	J59_28	145.00	200.0	130.0	0.0423	Open
P8208	J58_29	J58_30	145.00	150.0	130.0	0.1499	Open
P8209	J58_29	J59_29	145.00	200.0	140.0	0.0162	Open
P8210	J58_30	J58_31	145.00	100.0	135.0	0.0788	Open
P8211	J58_30	J59_30	145.00	300.0	140.0	0.1466	Open
P8212	J58_31	J58_32	145.00	350.0	120.0	0.0372	Open
P8213	J58_31	J59_31	145.00	350.0	130.0	0.0211	Open
P8214	J58_32	J58_33	145.00	250.0	130.0	0.1351	Open
P8215	J58_32	J59_32	145.00	150.0	135.0	0.0284	Open
P8216	J58_33	J58_34	145.00	300.0	135.0	0.1269	Open
P8217	J58_33	J59_33	145.00	100.0	125.0	0.0241	Open
P8218	J58_34	J58_35	145.00	150.0	125.0	0.0204	Open
P8219	J58_34	J59_34	145.00	300.0	130.0	0.0132	Open
P8220	J58_35	J58_36	145.00	300.0	130.0	0.0830	Open
P8221	J58_35	J59_35	145.00	300.0	130.0	0.0906	Open
P8222	J58_36	J58_37	145.00	100.0	125.0	0.0239	Open
P8223	J58_36	J59_36	145.00	150.0	130.0	0.1037	Open
P8224	J58_37	J58_38	145.00	100.0	125.0	0.1442	Open
P8225	J58_37	J59_37	145.00	100.0	125.0	0.0567	Open
P8226	J58_38	J58_39	145.00	150.0	125.0	0.0625	Open
P8227	J58_38	J59_38	145.00	250.0	130.0	0.1012	Open
P8228	J58_39	J58_40	145.00	200.0	125.0	0.0995	Open
P8229	J58_39	J59_39	145.00	150.0	140.0	0.1019	Open
P8230	J58_40	J58_41	145.00	250.0	130.0	0.0590	Open
P8231	J58_40	J59_40	145.00	100.0	135.0	0.0684	Open
P8232	J58_41	J58_42	145.00	600.0	125.0	0.0379	Open
P8233	J58_41	J59_41	145.00	500.0	130.0	0.0356	Open
P8234	J58_42	J58_43	145.00	100.0	125.0	0.0354	Open
P8235	J58_42	J59_42	145.00	150.0	125.0	0.0977	Open
P8236	J58_43	J58_44	145.00	300.0	140.0	0.1188	Open
P8237	J58_43	J59_43	145.00	300.0	130.0	0.1484	Open
P8238	J58_44	J58_45	145.00	250.0	130.0	0.0339	Open
P8239	J58_44	J59_44	145.00	100.0	140.0	0.0259	Open
P8240	J58_45	J58_46	145.00	250.0	130.0	0.1025	Open
P8241	J58_45	J59_45	145.00	250.0	130.0	0.1140	Open
P8242	J58_46	J58_47	145.00	100.0	140.0	0.1435	Open
P8243	J58_46	J59_46	145.00	200.0	130.0	0.1470	Open
P8244	J58_47	J58_48	145.00	250.0	140.0	0.0605	Open
P8245	J58_47	J59_47	145.00	200.0	135.0	0.0000	Open
P8246	J58_48	J58_49	145.00	100.0	135.0	0.1355	Open
P8247	J58_48	J59_48	145.00	250.0	135.0	0.1092	Open
P8248	J58_49	J58_50	145.00	100.0	140.0	0.0518	Open
P8249	J58_49	J59_49	145.00	100.0	125.0	0.0497	Open
P8250	J58_50	J58_51	145.00	200.0	135.0	0.0811	Open
P8251	J58_50	J59_50	145.00	150.0	125.0	0.1443	Open
P8252	J58_51	J58_52	145.00	350.0	130.0	0.0261	Open
P8253	J58_51	J59_51	145.00	400.0	125.0	0.0190	Open
P8254	J58_52	J58_53	145.00	300.0	130.0	0.1015	Open
P8255	J58_52	J59_52	145.00	300.0	130.0	0.0167	Open
P8256	J58_53	J58_54	145.00	250.0	140.0	0.1144	Open
P8257	J58_53	J59_53	145.00	250.0	140.0	0.1458	Open
P8258	J58_54	J58_55	145.00	200.0	130.0	0.0116	Open
P8259	J58_54	J59_54	145.00	200.0	130.0	0.1336	Open
P8260	J58_55	J58_56	145.00	250.0	125.0	0.0677	Open
P8261	J58_55	J59_55	145.00	150.0	135.0	0.0570	Open
P8262	J58_56	J58_57	145.00	100.0	135.0	0.0137	Open
P8263	J58_56	J59_56	145.00	150.0	130.0	0.0497	Open
P8264	J58_57	J58_58	145.00	250.0	130.0	0.1073	Open
P8265	J58_57	J59_57	145.00	300.0	130.0	0.1021	Open
P8266	J58_58	J58_59	145.00	200.0	125.0	0.0240	Open
P8267	J58_58	J59_58	145.00	100.0	140.0	0.0172	Open
P8268	J58_59	J58_60	145.00	100.0	125.0	0.0283	Open
P8269	J58_59	J59_59	145.00	100.0	125.0	0.0877	Open
P8270	J58_60	J58_61	145.00	250.0	130.0	0.0201	Open
P8271	J58_60	J59_60	145.00	150.0	135.0	0.0836	Open
P8272	J58_61	J58_62	145.00	600.0	120.0	0.0202	Open
P8273	J58_61	J59_61	145.00	400.0	130.0	0.0183	Open
P8274	J58_62	J58_63	145.00	150.0	130.0	0.0051	Open
P8275	J58_62	J59_62	145.00	200.0	135.0	0.0857	Open
P8276	J58_63	J58_64	145.00	300.0	130.0	0.0067	Open
P8277	J58_63	J59_63	145.00	300.0	125.0	0.0937	Open
P8278	J58_64	J58_65	145.00	200.0	125.0	0.0896	Open
P8279	J58_64	J59_64	145.00	150.0	125.0	0.0136	Open
P8280	J58_65	J58_66	145.00	150.0	140.0	0.0819	Open
P8281	J58_65	J59_65	145.00	200.0	125.0	0.0170	Open
P8282	J58_66	J58_67	145.00	100.0	140.0	0.1047	Open
P8283	J58_66	J59_66	145.00	300.0	140.0	0.0089	Open
P8284	J58_67	J58_68	145.00	300.0	125.0	0.0460	Open
P8285	J58_67	J59_67	145.00	200.0	135.0	0.1398	Open
P8286	J58_68	J58_69	145.00	200.0	125.0	0.0275	Open
P8287	J58_68	J59_68	145.00	300.0	140.0	0.0780	Open
P8288	J58_69	J58_70	145.00	100.0	140.0	0.0280	Open
P8289	J58_69	J59_69	145.00	250.0	135.0	0.0103	Open
P8290	J58_70	J58_71	145.00	250.0	135.0	0.1139	Open
P8291	J58_70	J59_70	145.00	250.0	125.0	0.0354	Open
P8292	J58_71	J58_72	145.00	300.0	125.0	0.0285	Open
P8293	J58_71	J59_71	145.00	600.0	125.0	0.0204	Open
P8294	J58_72	J59_72	145.00	100.0	135.0	0.0098	Open
P8295	J59_1	J59_2	145.00	600.0	120.0	0.0474	Open
P8296	J59_1	J60_1	145.00	500.0	130.0	0.0277	Open
P8297	J59_2	J59_3	145.00	250.0	140.0	0.0903	Open
P8298	J59_2	J60_2	145.00	200.0	135.0	0.0132	Open
P8299	J59_3	J59_4	145.00	300.0	135.0	0.0647	Open
P8300	J59_3	J60_3	145.00	150.0	130.0	0.1137	Open
P8301	J59_4	J59_5	145.00	150.0	130.0	0.1037	Open
P8302	J59_4	J60_4	145.00	200.0	125.0	0.0496	Open
P8303	J59_5	J59_6	145.00	150.0	130.0	0.0602	Open
P8304	J59_5	J60_5	145.00	150.0	125.0	0.0891	Open
P8305	J59_6	J59_7	145.00	300.0	135.0	0.0619	Open
P8306	J59_6	J60_6	145.00	100.0	140.0	0.0194	Open
P8307	J59_7	J59_8	145.00	200.0	130.0	0.1336	Open
P8308	J59_7	J60_7	145.00	250.0	130.0	0.0693	Open
P8309	J59_8	J59_9	145.00	200.0	135.0	0.0910	Open
P8310	J59_8	J60_8	145.00	200.0	130.0	0.0057	Open
P8311	J59_9	J59_10	145.00	250.0	125.0	0.0718	Open
P8312	J59_9	J60_9	145.00	200.0	135.0	0.0158	Open
P8313	J59_10	J59_11	145.00	200.0	140.0	0.1011	Open
P8314	J59_10	J60_10	145.00	100.0	130.0	0.1054	Open
P8315	J59_11	J59_12	145.00	300.0	125.0	0.0059	Open
P8316	J59_11	J60_11	145.00	600.0	125.0	0.0277	Open
P8317	J59_12	J59_13	145.00	150.0	140.0	0.1094	Open
P8318	J59_12	J60_12	145.00	300.0	130.0	0.0028	Open
P8319	J59_13	J59_14	145.00	300.0	135.0	0.1428	Open
P8320	J59_13	J60_13	145.00	150.0	130.0	0.0606	Open
P8321	J59_14	J59_15	145.00	250.0	135.0	0.0176	Open
P8322	J59_14	J60_14	145.00	200.0	125.0	0.1211	Open
P8323	J59_15	J59_16	145.00	200.0	135.0	0.0820	Open
P8324	J59_15	J60_15	145.00	250.0	135.0	0.1262	Open
P8325	J59_16	J59_17	145.00	200.0	125.0	0.0592	Open
P8326	J59_16	J60_16	145.00	100.0	135.0	0.0063	Open
P8327	J59_17	J59_18	145.00	100.0	135.0	0.1270	Open
P8328	J59_17	J60_17	145.00	200.0	125.0	0.1065	Open
P8329	J59_18	J59_19	145.00	300.0	140.0	0.1475	Open
P8330	J59_18	J60_18	145.00	200.0	130.0	0.1203	Open
P8331	J59_19	J59_20	145.00	100.0	125.0	0.1419	Open
P8332	J59_19	J60_19	145.00	100.0	140.0	0.1330	Open
P8333	J59_20	J59_21	145.00	300.0	125.0	0.0608	Open
P8334	J59_20	J60_20	145.00	200.0	140.0	0.1121	Open
P8335	J59_21	J59_22	145.00	450.0	120.0	0.0105	Open
P8336	J59_21	J60_21	145.00	400.0	130.0	0.0446	Open
P8337	J59_22	J59_23	145.00	300.0	135.0	0.0057	Open
P8338	J59_22	J60_22	145.00	200.0	130.0	0.0379	Open
P8339	J59_23	J59_24	145.00	150.0	140.0	0.0925	Open
P8340	J59_23	J60_23	145.00	250.0	125.0	0.0167	Open
P8341	J59_24	J59_25	145.00	150.0	140.0	0.0993	Open
P8342	J59_24	J60_24	145.00	100.0	135.0	0.0818	Open
P8343	J59_25	J59_26	145.00	150.0	125.0	0.0357	Open
P8344	J59_25	J60_25	145.00	200.0	130.0	0.0170	Open
P8345	J59_26	J59_27	145.00	200.0	130.0	0.1293	Open
P8346	J59_26	J60_26	145.00	250.0	130.0	0.0463	Open
P8347	J59_27	J59_28	145.00	250.0	135.0	0.0269	Open
P8348	J59_27	J60_27	145.00	300.0	125.0	0.0572	Open
P8349	J59_28	J59_29	145.00	100.0	140.0	0.1392	Open
P8350	J59_28	J60_28	145.00	150.0	130.0	0.0946	Open
P8351	J59_29	J59_30	145.00	100.0	135.0	0.0397	Open
P8352	J59_29	J60_29	145.00	150.0	135.0	0.0126	Open
P8353	J59_30	J59_31	145.00	100.0	140.0	0.0844	Open
P8354	J59_30	J60_30	145.00	100.0	140.0	0.0889	Open
P8355	J59_31	J59_32	145.00	400.0	120.0	0.0123	Open
P8356	J59_31	J60_31	145.00	500.0	125.0	0.0375	Open
P8357	J59_32	J59_33	145.00	300.0	125.0	0.0967	Open
P8358	J59_32	J60_32	145.00	150.0	125.0	0.0431	Open
P8359	J59_33	J59_34	145.00	200.0	135.0	0.0893	Open
P8360	J59_33	J60_33	145.00	250.0	135.0	0.1298	Open
P8361	J59_34	J59_35	145.00	200.0	125.0	0.0452	Open
P8362	J59_34	J60_34	145.00	300.0	135.0	0.1137	Open
P8363	J59_35	J59_36	145.00	150.0	135.0	0.0816	Open
P8364	J59_35	J60_35	145.00	200.0	135.0	0.0427	Open
P8365	J59_36	J59_37	145.00	200.0	140.0	0.0380	Open
P8366	J59_36	J60_36	145.00	250.0	130.0	0.0641	Open
P8367	J59_37	J59_38	145.00	300.0	140.0	0.0532	Open
P8368	J59_37	J60_37	145.00	300.0	130.0	0.0124	Open
P8369	J59_38	J59_39	145.00	150.0	130.0	0.0603	Open
P8370	J59_38	J60_38	145.00	100.0	140.0	0.0200	Open
P8371	J59_39	J59_40	145.00	300.0	130.0	0.0525	Open
P8372	J59_39	J60_39	145.00	150.0	130.0	0.0498	Open
P8373	J59_40	J59_41	145.00	150.0	125.0	0.0066	Open
P8374	J59_40	J60_40	145.00	100.0	140.0	0.0850	Open
P8375	J59_41	J59_42	145.00	500.0	130.0	0.0015	Open
P8376	J59_41	J60_41	145.00	500.0	130.0	0.0438	Open
P8377	J59_42	J59_43	145.00	250.0	130.0	0.0339	Open
P8378	J59_42	J60_42	145.00	200.0	140.0	0.1191	Open
P8379	J59_43	J59_44	145.00	150.0	130.0	0.0803	Open
P8380	J59_43	J60_43	145.00	250.0	140.0	0.0238	Open
P8381	J59_44	J59_45	145.00	100.0	125.0	0.0408	Open
P8382	J59_44	J60_44	145.00	100.0	140.0	0.0414	Open
P8383	J59_45	J59_46	145.00	250.0	135.0	0.0898	Open
P8384	J59_45	J60_45	145.00	250.0	140.0	0.0980	Open
P8385	J59_46	J59_47	145.00	250.0	135.0	0.0534	Open
P8386	J59_46	J60_46	145.00	200.0	135.0	0.0461	Open
P8387	J59_47	J59_48	145.00	100.0	125.0	0.1343	Open
P8388	J59_47	J60_47	145.00	150.0	135.0	0.0136	Open
P8389	J59_48	J59_49	145.00	200.0	140.0	0.0310	Open
P8390	J59_48	J60_48	145.00	300.0	140.0	0.0192	Open
P8391	J59_49	J59_50	145.00	100.0	125.0	0.1440	Open
P8392	J59_49	J60_49	145.00	200.0	140.0	0.0777	Open
P8393	J59_50	J59_51	145.00	200.0	140.0	0.0683	Open
P8394	J59_50	J60_50	145.00	200.0	130.0	0.0491	Open
P8395	J59_51	J59_52	145.00	300.0	120.0	0.0061	Open
P8396	J59_51	J60_51	145.00	350.0	130.0	0.0017	Open
P8397	J59_52	J59_53	145.00	150.0	130.0	0.1418	Open
P8398	J59_52	J60_52	145.00	300.0	140.0	0.0042	Open
P8399	J59_53	J59_54	145.00	300.0	135.0	0.0545	Open
P8400	J59_53	J60_53	145.00	150.0	140.0	0.0339	Open
P8401	J59_54	J59_55	145.00	150.0	130.0	0.0061	Open
P8402	J59_54	J60_54	145.00	150.0	130.0	0.0555	Open
P8403	J59_55	J59_56	145.00	250.0	125.0	0.1129	Open
P8404	J59_55	J60_55	145.00	100.0	135.0	0.0266	Open
P8405	J59_56	J59_57	145.00	200.0	130.0	0.0066	Open
P8406	J59_56	J60_56	145.00	100.0	125.0	0.1037	Open
P8407	J59_57	J59_58	145.00	150.0	130.0	0.1395	Open
P8408	J59_57	J60_57	145.00	150.0	130.0	0.0211	Open
P8409	J59_58	J59_59	145.00	200.0	135.0	0.0199	Open
P8410	J59_58	J60_58	145.00	300.0	140.0	0.1097	Open
P8411	J59_59	J59_60	145.00	100.0	135.0	0.0150	Open
P8412	J59_59	J60_59	145.00	200.0	130.0	0.0078	Open
P8413	J59_60	J59_61	145.00	200.0	130.0	0.1129	Open
P8414	J59_60	J60_60	145.00	250.0	130.0	0.0896	Open
P8415	J59_61	J59_62	145.00	600.0	120.0	0.0011	Open
P8416	J59_61	J60_61	145.00	600.0	120.0	0.0264	Open
P8417	J59_62	J59_63	145.00	250.0	125.0	0.0897	Open
P8418	J59_62	J60_62	145.00	100.0	130.0	0.0411	Open
P8419	J59_63	J59_64	145.00	250.0	125.0	0.0647	Open
P8420	J59_63	J60_63	145.00	300.0	140.0	0.0386	Open
P8421	J59_64	J59_65	145.00	200.0	130.0	0.1423	Open
P8422	J59_64	J60_64	145.00	300.0	125.0	0.0530	Open
P8423	J59_65	J59_66	145.00	250.0	135.0	0.1344	Open
P8424	J59_65	J60_65	145.00	300.0	125.0	0.0433	Open
P8425	J59_66	J59_67	145.00	250.0	125.0	0.1028	Open
P8426	J59_66	J60_66	145.00	100.0	135.0	0.0835	Open
P8427	J59_67	J59_68	145.00	300.0	135.0	0.0475	Open
P8428	J59_67	J60_67	145.00	300.0	140.0	0.1033	Open
P8429	J59_68	J59_69	145.00	100.0	130.0	0.0104	Open
P8430	J59_68	J60_68	145.00	150.0	135.0	0.0633	Open
P8431	J59_69	J59_70	145.00	250.0	125.0	0.0600	Open
P8432	J59_69	J60_69	145.00	100.0	140.0	0.0929	Open
P8433	J59_70	J59_71	145.00	100.0	135.0	0.0301	Open
P8434	J59_70	J60_70	145.00	300.0	130.0	0.1118	Open
P8435	J59_71	J59_72	145.00	400.0	125.0	0.0200	Open
P8436	J59_71	J60_71	145.00	300.0	120.0	0.0014	Open
P8437	J59_72	J60_72	145.00	200.0	130.0	0.0640	Open
P8438	J60_1	J60_2	145.00	450.0	120.0	0.0462	Open
P8439	J60_1	J61_1	145.00	450.0	120.0	0.0244	Open
P8440	J60_2	J60_3	145.00	100.0	140.0	0.0589	Open
P8441	J60_2	J61_2	145.00	100.0	135.0	0.1314	Open
P8442	J60_3	J60_4	145.00	200.0	130.0	0.0621	Open
P8443	J60_3	J61_3	145.00	100.0	125.0	0.0535	Open
P8444	J60_4	J60_5	145.00	150.0	135.0	0.0176	Open
P8445	J60_4	J61_4	145.00	150.0	135.0	0.0672	Open
P8446	J60_5	J60_6	145.00	200.0	125.0	0.0366	Open
P8447	J60_5	J61_5	145.00	100.0	140.0	0.0665	Open
P8448	J60_6	J60_7	145.00	150.0	140.0	0.0104	Open
P8449	J60_6	J61_6	145.00	300.0	135.0	0.0955	Open
P8450	J60_7	J60_8	145.00	200.0	135.0	0.0755	Open
P8451	J60_7	J61_7	145.00	150.0	125.0	0.0464	Open
P8452	J60_8	J60_9	145.00	100.0	140.0	0.0227	Open
P8453	J60_8	J61_8	145.00	100.0	130.0	0.0226	Open
P8454	J60_9	J60_10	145.00	150.0	135.0	0.1327	Open
P8455	J60_9	J61_9	145.00	100.0	135.0	0.0866	Open
P8456	J60_10	J60_11	145.00	150.0	140.0	0.0869	Open
P8457	J60_10	J61_10	145.00	300.0	125.0	0.0344	Open
P8458	J60_11	J60_12	145.00	450.0	125.0	0.0161	Open
P8459	J60_11	J61_11	145.00	500.0	130.0	0.0207	Open
P8460	J60_12	J60_13	145.00	300.0	140.0	0.0396	Open
P8461	J60_12	J61_12	145.00	100.0	140.0	0.1294	Open
P8462	J60_13	J60_14	145.00	100.0	140.0	0.0493	Open
P8463	J60_13	J61_13	145.00	150.0	140.0	0.0481	Open
P8464	J60_14	J60_15	145.00	100.0	130.0	0.0645	Open
P8465	J60_14	J61_14	145.00	250.0	140.0	0.0826	Open
P8466	J60_15	J60_16	145.00	250.0	125.0	0.1292	Open
P8467	J60_15	J61_15	145.00	250.0	135.0	0.1132	Open
P8468	J60_16	J60_17	145.00	250.0	140.0	0.1188	Open
P8469	J60_16	J61_16	145.00	100.0	135.0	0.1347	Open
P8470	J60_17	J60_18	145.00	150.0	125.0	0.0554	Open
P8471	J60_17	J61_17	145.00	250.0	135.0	0.0256	Open
P8472	J60_18	J60_19	145.00	250.0	130.0	0.0217	Open
P8473	J60_18	J61_18	145.00	300.0	125.0	0.0443	Open
P8474	J60_19	J60_20	145.00	150.0	140.0	0.0400	Open
P8475	J60_19	J61_19	145.00	250.0	135.0	0.0397	Open
P8476	J60_20	J60_21	145.00	300.0	130.0	0.0879	Open
P8477	J60_20	J61_20	145.00	100.0	125.0	0.0263	Open
P8478	J60_21	J60_22	145.00	300.0	120.0	0.0443	Open
P8479	J60_21	J61_21	145.00	400.0	130.0	0.0091	Open
P8480	J60_22	J60_23	145.00	300.0	130.0	0.0334	Open
P8481	J60_22	J61_22	145.00	200.0	135.0	0.0545	Open
P8482	J60_23	J60_24	145.00	200.0	135.0	0.0910	Open
P8483	J60_23	J61_23	145.00	200.0	135.0	0.0339	Open
P8484	J60_24	J60_25	145.00	300.0	135.0	0.0682	Open
P8485	J60_24	J61_24	145.00	150.0	125.0	0.0078	Open
P8486	J60_25	J60_26	145.00	300.0	130.0	0.0559	Open
P8487	J60_25	J61_25	145.00	100.0	135.0	0.0247	Open
P8488	J60_26	J60_27	145.00	250.0	135.0	0.0764	Open
P8489	J60_26	J61_26	145.00	200.0	130.0	0.1361	Open
P8490	J60_27	J60_28	145.00	250.0	130.0	0.0954	Open
P8491	J60_27	J61_27	145.00	200.0	140.0	0.0624	Open
P8492	J60_28	J60_29	145.00	100.0	130.0	0.0912	Open
P8493	J60_28	J61_28	145.00	250.0	130.0	0.0104	Open
P8494	J60_29	J60_30	145.00	300.0	125.0	0.0805	Open
P8495	J60_29	J61_29	145.00	100.0	140.0	0.1130	Open
P8496	J60_30	J60_31	145.00	100.0	125.0	0.1152	Open
P8497	J60_30	J61_30	145.00	150.0	125.0	0.1481	Open
P8498	J60_31	J60_32	145.00	400.0	125.0	0.0206	Open
P8499	J60_31	J61_31	145.00	300.0	120.0	0.0168	Open
P8500	J60_32	J60_33	145.00	100.0	140.0	0.0468	Open
P8501	J60_32	J61_32	145.00	100.0	135.0	0.1363	Open
P8502	J60_33	J60_34	145.00	200.0	140.0	0.0444	Open
P8503	J60_33	J61_33	145.00	100.0	130.0	0.0335	Open
P8504	J60_34	J60_35	145.00	150.0	140.0	0.1307	Open
P8505	J60_34	J61_34	145.00	100.0	135.0	0.0857	Open
P8506	J60_35	J60_36	145.00	300.0	125.0	0.1338	Open
P8507	J60_35	J61_35	145.00	100.0	135.0	0.0517	Open
P8508	J60_36	J60_37	145.00	200.0	140.0	0.0160	Open
P8509	J60_36	J61_36	145.00	300.0	125.0	0.0564	Open
P8510	J60_37	J60_38	145.00	250.0	140.0	0.0785	Open
P8511	J60_37	J61_37	145.00	100.0	135.0	0.1260	Open
P8512	J60_38	J60_39	145.00	250.0	125.0	0.0634	Open
P8513	J60_38	J61_38	145.00	150.0	135.0	0.0831	Open
P8514	J60_39	J60_40	145.00	150.0	125.0	0.0840	Open
P8515	J60_39	J61_39	145.00	300.0	130.0	0.0013	Open
P8516	J60_40	J60_41	145.00	300.0	140.0	0.0974	Open
P8517	J60_40	J61_40	145.00	100.0	130.0	0.1261	Open
P8518	J60_41	J60_42	145.00	450.0	120.0	0.0136	Open
P8519	J60_41	J61_41	145.00	450.0	125.0	0.0159	Open
P8520	J60_42	J60_43	145.00	200.0	130.0	0.0713	Open
P8521	J60_42	J61_42	145.00	250.0	125.0	0.0551	Open
P8522	J60_43	J60_44	145.00	200.0	135.0	0.0967	Open
P8523	J60_43	J61_43	145.00	300.0	135.0	0.0347	Open
P8524	J60_44	J60_45	145.00	300.0	135.0	0.0410	Open
P8525	J60_44	J61_44	145.00	300.0	130.0	0.1301	Open
P8526	J60_45	J60_46	145.00	250.0	135.0	0.0722	Open
P8527	J60_45	J61_45	145.00	250.0	130.0	0.0769	Open
P8528	J60_46	J60_47	145.00	150.0	125.0	0.0299	Open
P8529	J60_46	J61_46	145.00	100.0	135.0	0.1076	Open
P8530	J60_47	J60_48	145.00	150.0	130.0	0.0442	Open
P8531	J60_47	J61_47	145.00	200.0	125.0	0.1322	Open
P8532	J60_48	J60_49	145.00	300.0	130.0	0.0023	Open
P8533	J60_48	J61_48	145.00	200.0	135.0	0.1029	Open
P8534	J60_49	J60_50	145.00	200.0	135.0	0.0394	Open
P8535	J60_49	J61_49	145.00	300.0	140.0	0.0223	Open
P8536	J60_50	J60_51	145.00	100.0	140.0	0.0668	Open
P8537	J60_50	J61_50	145.00	250.0	125.0	0.1017	Open
P8538	J60_51	J60_52	145.00	600.0	120.0	0.0047	Open
P8539	J60_51	J61_51	145.00	600.0	120.0	0.0287	Open
P8540	J60_52	J60_53	145.00	150.0	140.0	0.1499	Open
P8541	J60_52	J61_52	145.00	300.0	140.0	0.0853	Open
P8542	J60_53	J60_54	145.00	150.0	125.0	0.1414	Open
P8543	J60_53	J61_53	145.00	100.0	130.0	0.1195	Open
P8544	J60_54	J60_55	145.00	100.0	125.0	0.0196	Open
P8545	J60_54	J61_54	145.00	250.0	135.0	0.0456	Open
P8546	J60_55	J60_56	145.00	200.0	130.0	0.0420	Open
P8547	J60_55	J61_55	145.00	250.0	125.0	0.0614	Open
P8548	J60_56	J60_57	145.00	100.0	135.0	0.1060	Open
P8549	J60_56	J61_56	145.00	100.0	130.0	0.0695	Open
P8550	J60_57	J60_58	145.00	300.0	135.0	0.0929	Open
P8551	J60_57	J61_57	145.00	300.0	135.0	0.1079	Open
P8552	J60_58	J60_59	145.00	100.0	140.0	0.1176	Open
P8553	J60_58	J61_58	145.00	300.0	140.0	0.0367	Open
P8554	J60_59	J60_60	145.00	250.0	130.0	0.0548	Open
P8555	J60_59	J61_59	145.00	250.0	125.0	0.0491	Open
P8556	J60_60	J60_61	145.00	200.0	125.0	0.0721	Open
P8557	J60_60	J61_60	145.00	250.0	135.0	0.0859	Open
P8558	J60_61	J60_62	145.00	300.0	130.0	0.0214	Open
P8559	J60_61	J61_61	145.00	500.0	130.0	0.0009	Open
P8560	J60_62	J60_63	145.00	150.0	130.0	0.0042	Open
P8561	J60_62	J61_62	145.00	250.0	130.0	0.1460	Open
P8562	J60_63	J60_64	145.00	150.0	125.0	0.0445	Open
P8563	J60_63	J61_63	145.00	250.0	130.0	0.1186	Open
P8564	J60_64	J60_65	145.00	250.0	130.0	0.0483	Open
P8565	J60_64	J61_64	145.00	150.0	135.0	0.0150	Open
P8566	J60_65	J60_66	145.00	250.0	130.0	0.1479	Open
P8567	J60_65	J61_65	145.00	100.0	135.0	0.0649	Open
P8568	J60_66	J60_67	145.00	250.0	130.0	0.1216	Open
P8569	J60_66	J61_66	145.00	100.0	130.0	0.0178	Open
P8570	J60_67	J60_68	145.00	200.0	140.0	0.0354	Open
P8571	J60_67	J61_67	145.00	100.0	135.0	0.1445	Open
P8572	J60_68	J60_69	145.00	300.0	125.0	0.0813	Open
P8573	J60_68	J61_68	145.00	150.0	140.0	0.0475	Open
P8574	J60_69	J60_70	145.00	100.0	125.0	0.0759	Open
P8575	J60_69	J61_69	145.00	300.0	125.0	0.1253	Open
P8576	J60_70	J60_71	145.00	100.0	125.0	0.0090	Open
P8577	J60_70	J61_70	145.00	100.0	140.0	0.0889	Open
P8578	J60_71	J60_72	145.00	300.0	120.0	0.0406	Open
P8579	J60_71	J61_71	145.00	300.0	120.0	0.0065	Open
P8580	J60_72	J61_72	145.00	200.0	140.0	0.0204	Open
P8581	J61_1	J61_2	145.00	400.0	125.0	0.0234	Open
P8582	J61_1	J62_1	145.00	400.0	125.0	0.0388	Open
P8583	J61_2	J61_3	145.00	300.0	125.0	0.0139	Open
P8584	J61_2	J62_2	145.00	500.0	125.0	0.0241	Open
P8585	J61_3	J61_4	145.00	500.0	120.0	0.0233	Open
P8586	J61_3	J62_3	145.00	350.0	130.0	0.0299	Open
P8587	J61_4	J61_5	145.00	300.0	125.0	0.0172	Open
P8588	J61_4	J62_4	145.00	300.0	130.0	0.0048	Open
P8589	J61_5	J61_6	145.00	400.0	120.0	0.0344	Open
P8590	J61_5	J62_5	145.00	600.0	130.0	0.0463	Open
P8591	J61_6	J61_7	145.00	300.0	125.0	0.0143	Open
P8592	J61_6	J62_6	145.00	350.0	130.0	0.0320	Open
P8593	J61_7	J61_8	145.00	350.0	125.0	0.0093	Open
P8594	J61_7	J62_7	145.00	350.0	120.0	0.0090	Open
P8595	J61_8	J61_9	145.00	600.0	125.0	0.0123	Open
P8596	J61_8	J62_8	145.00	400.0	125.0	0.0056	Open
P8597	J61_9	J61_10	145.00	300.0	120.0	0.0289	Open
P8598	J61_9	J62_9	145.00	400.0	125.0	0.0472	Open
P8599	J61_10	J61_11	145.00	450.0	125.0	0.0222	Open
P8600	J61_10	J62_10	145.00	350.0	130.0	0.0491	Open
P8601	J61_11	J61_12	145.00	300.0	130.0	0.0179	Open
P8602	J61_11	J62_11	145.00	450.0	120.0	0.0459	Open
P8603	J61_12	J61_13	145.00	500.0	130.0	0.0377	Open
P8604	J61_12	J62_12	145.00	300.0	120.0	0.0066	Open
P8605	J61_13	J61_14	145.00	300.0	125.0	0.0322	Open
P8606	J61_13	J62_13	145.00	450.0	130.0	0.0374	Open
P8607	J61_14	J61_15	145.00	600.0	125.0	0.0118	Open
P8608	J61_14	J62_14	145.00	450.0	125.0	0.0368	Open
P8609	J61_15	J61_16	145.00	300.0	125.0	0.0380	Open
P8610	J61_15	J62_15	145.00	350.0	120.0	0.0370	Open
P8611	J61_16	J61_17	145.00	400.0	125.0	0.0348	Open
P8612	J61_16	J62_16	145.00	300.0	130.0	0.0411	Open
P8613	J61_17	J61_18	145.00	450.0	130.0	0.0136	Open
P8614	J61_17	J62_17	145.00	500.0	120.0	0.0016	Open
P8615	J61_18	J61_19	145.00	450.0	130.0	0.0163	Open
P8616	J61_18	J62_18	145.00	500.0	125.0	0.0242	Open
P8617	J61_19	J61_20	145.00	300.0	130.0	0.0003	Open
P8618	J61_19	J62_19	145.00	300.0	130.0	0.0223	Open
P8619	J61_20	J61_21	145.00	350.0	125.0	0.0266	Open
P8620	J61_20	J62_20	145.00	600.0	130.0	0.0028	Open
P8621	J61_21	J61_22	145.00	450.0	125.0	0.0295	Open
P8622	J61_21	J62_21	145.00	300.0	130.0	0.0442	Open
P8623	J61_22	J61_23	145.00	300.0	125.0	0.0176	Open
P8624	J61_22	J62_22	145.00	500.0	120.0	0.0373	Open
P8625	J61_23	J61_24	145.00	300.0	125.0	0.0437	Open
P8626	J61_23	J62_23	145.00	350.0	125.0	0.0020	Open
P8627	J61_24	J61_25	145.00	300.0	120.0	0.0040	Open
P8628	J61_24	J62_24	145.00	350.0	130.0	0.0067	Open
P8629	J61_25	J61_26	145.00	600.0	130.0	0.0118	Open
P8630	J61_25	J62_25	145.00	400.0	130.0	0.0165	Open
P8631	J61_26	J61_27	145.00	300.0	120.0	0.0340	Open
P8632	J61_26	J62_26	145.00	350.0	125.0	0.0003	Open
P8633	J61_27	J61_28	145.00	450.0	120.0	0.0330	Open
P8634	J61_27	J62_27	145.00	300.0	120.0	0.0452	Open
P8635	J61_28	J61_29	145.00	600.0	130.0	0.0383	Open
P8636	J61_28	J62_28	145.00	600.0	125.0	0.0437	Open
P8637	J61_29	J61_30	145.00	300.0	130.0	0.0489	Open
P8638	J61_29	J62_29	145.00	300.0	120.0	0.0202	Open
P8639	J61_30	J61_31	145.00	300.0	130.0	0.0263	Open
P8640	J61_30	J62_30	145.00	450.0	130.0	0.0256	Open
P8641	J61_31	J61_32	145.00	450.0	125.0	0.0341	Open
P8642	J61_31	J62_31	145.00	350.0	125.0	0.0410	Open
P8643	J61_32	J61_33	145.00	400.0	130.0	0.0095	Open
P8644	J61_32	J62_32	145.00	450.0	120.0	0.0088	Open
P8645	J61_33	J61_34	145.00	600.0	130.0	0.0050	Open
P8646	J61_33	J62_33	145.00	450.0	130.0	0.0081	Open
P8647	J61_34	J61_35	145.00	600.0	130.0	0.0333	Open
P8648	J61_34	J62_34	145.00	350.0	120.0	0.0027	Open
P8649	J61_35	J61_36	145.00	450.0	130.0	0.0467	Open
P8650	J61_35	J62_35	145.00	300.0	125.0	0.0327	Open
P8651	J61_36	J61_37	145.00	350.0	130.0	0.0448	Open
P8652	J61_36	J62_36	145.00	350.0	125.0	0.0031	Open
P8653	J61_37	J61_38	145.00	300.0	125.0	0.0294	Open
P8654	J61_37	J62_37	145.00	450.0	130.0	0.0048	Open
P8655	J61_38	J61_39	145.00	400.0	120.0	0.0089	Open
P8656	J61_38	J62_38	145.00	300.0	125.0	0.0216	Open
P8657	J61_39	J61_40	145.00	450.0	120.0	0.0277	Open
P8658	J61_39	J62_39	145.00	400.0	125.0	0.0436	Open
P8659	J61_40	J61_41	145.00	400.0	130.0	0.0201	Open
P8660	J61_40	J62_40	145.00	300.0	130.0	0.0454	Open
P8661	J61_41	J61_42	145.00	500.0	125.0	0.0132	Open
P8662	J61_41	J62_41	145.00	350.0	130.0	0.0439	Open
P8663	J61_42	J61_43	145.00	600.0	130.0	0.0127	Open
P8664	J61_42	J62_42	145.00	300.0	130.0	0.0352	Open
P8665	J61_43	J61_44	145.00	350.0	125.0	0.0351	Open
P8666	J61_43	J62_43	145.00	500.0	120.0	0.0133	Open
P8667	J61_44	J61_45	145.00	400.0	120.0	0.0116	Open
P8668	J61_44	J62_44	145.00	350.0	120.0	0.0239	Open
P8669	J61_45	J61_46	145.00	600.0	125.0	0.0393	Open
P8670	J61_45	J62_45	145.00	300.0	125.0	0.0316	Open
P8671	J61_46	J61_47	145.00	600.0	125.0	0.0171	Open
P8672	J61_46	J62_46	145.00	500.0	125.0	0.0400	Open
P8673	J61_47	J61_48	145.00	600.0	120.0	0.0255	Open
P8674	J61_47	J62_47	145.00	400.0	120.0	0.0122	Open
P8675	J61_48	J61_49	145.00	300.0	125.0	0.0003	Open
P8676	J61_48	J62_48	145.00	500.0	120.0	0.0131	Open
P8677	J61_49	J61_50	145.00	300.0	120.0	0.0315	Open
P8678	J61_49	J62_49	145.00	350.0	120.0	0.0009	Open
P8679	J61_50	J61_51	145.00	600.0	120.0	0.0227	Open
P8680	J61_50	J62_50	145.00	450.0	120.0	0.0020	Open
P8681	J61_51	J61_52	145.00	450.0	130.0	0.0422	Open
P8682	J61_51	J62_51	145.00	600.0	130.0	0.0454	Open
P8683	J61_52	J61_53	145.00	300.0	130.0	0.0103	Open
P8684	J61_52	J62_52	145.00	350.0	125.0	0.0048	Open
P8685	J61_53	J61_54	145.00	350.0	130.0	0.0225	Open
P8686	J61_53	J62_53	145.00	400.0	125.0	0.0137	Open
P8687	J61_54	J61_55	145.00	350.0	120.0	0.0305	Open
P8688	J61_54	J62_54	145.00	500.0	120.0	0.0066	Open
P8689	J61_55	J61_56	145.00	500.0	130.0	0.0433	Open
P8690	J61_55	J62_55	145.00	500.0	125.0	0.0149	Open
P8691	J61_56	J61_57	145.00	500.0	125.0	0.0235	Open
P8692	J61_56	J62_56	145.00	400.0	130.0	0.0383	Open
P8693	J61_57	J61_58	145.00	300.0	125.0	0.0467	Open
P8694	J61_57	J62_57	145.00	450.0	125.0	0.0214	Open
P8695	J61_58	J61_59	145.00	450.0	125.0	0.0428	Open
P8696	J61_58	J62_58	145.00	350.0	130.0	0.0321	Open
P8697	J61_59	J61_60	145.00	450.0	130.0	0.0423	Open
P8698	J61_59	J62_59	145.00	350.0	130.0	0.0222	Open
P8699	J61_60	J61_61	145.00	400.0	125.0	0.0404	Open
P8700	J61_60	J62_60	145.00	600.0	120.0	0.0244	Open
P8701	J61_61	J61_62	145.00	500.0	125.0	0.0257	Open
P8702	J61_61	J62_61	145.00	600.0	125.0	0.0455	Open
P8703	J61_62	J61_63	145.00	450.0	120.0	0.0309	Open
P8704	J61_62	J62_62	145.00	500.0	130.0	0.0197	Open
P8705	J61_63	J61_64	145.00	450.0	130.0	0.0221	Open
P8706	J61_63	J62_63	145.00	500.0	120.0	0.0491	Open
P8707	J61_64	J61_65	145.00	300.0	120.0	0.0442	Open
P8708	J61_64	J62_64	145.00	300.0	120.0	0.0451	Open
P8709	J61_65	J61_66	145.00	400.0	125.0	0.0256	Open
P8710	J61_65	J62_65	145.00	300.0	130.0	0.0043	Open
P8711	J61_66	J61_67	145.00	400.0	120.0	0.0207	Open
P8712	J61_66	J62_66	145.00	350.0	120.0	0.0130	Open
P8713	J61_67	J61_68	145.00	350.0	130.0	0.0257	Open
P8714	J61_67	J62_67	145.00	300.0	125.0	0.0393	Open
P8715	J61_68	J61_69	145.00	400.0	120.0	0.0276	Open
P8716	J61_68	J62_68	145.00	600.0	120.0	0.0216	Open
P8717	J61_69	J61_70	145.00	300.0	130.0	0.0119	Open
P8718	J61_69	J62_69	145.00	500.0	120.0	0.0137	Open
P8719	J61_70	J61_71	145.00	600.0	120.0	0.0404	Open
P8720	J61_70	J62_70	145.00	400.0	130.0	0.0375	Open
P8721	J61_71	J61_72	145.00	350.0	125.0	0.0005	Open
P8722	J61_71	J62_71	145.00	300.0	130.0	0.0232	Open
P8723	J61_72	J62_72	145.00	600.0	125.0	0.0499	Open
P8724	J62_1	J62_2	145.00	300.0	120.0	0.0082	Open
P8725	J62_1	J63_1	145.00	600.0	125.0	0.0130	Open
P8726	J62_2	J62_3	145.00	250.0	130.0	0.1156	Open
P8727	J62_2	J63_2	145.00	200.0	140.0	0.0821	Open
P8728	J62_3	J62_4	145.00	150.0	130.0	0.1141	Open
P8729	J62_3	J63_3	145.00	300.0	140.0	0.0479	Open
P8730	J62_4	J62_5	145.00	300.0	130.0	0.0642	Open
P8731	J62_4	J63_4	145.00	200.0	125.0	0.1236	Open
P8732	J62_5	J62_6	145.00	250.0	125.0	0.0275	Open
P8733	J62_5	J63_5	145.00	100.0	130.0	0.0667	Open
P8734	J62_6	J62_7	145.00	250.0	135.0	0.0538	Open
P8735	J62_6	J63_6	145.00	100.0	135.0	0.0514	Open
P8736	J62_7	J62_8	145.00	300.0	135.0	0.1200	Open
P8737	J62_7	J63_7	145.00	250.0	140.0	0.0653	Open
P8738	J62_8	J62_9	145.00	250.0	140.0	0.0900	Open
P8739	J62_8	J63_8	145.00	200.0	130.0	0.0660	Open
P8740	J62_9	J62_10	145.00	250.0	135.0	0.0045	Open
P8741	J62_9	J63_9	145.00	100.0	140.0	0.0403	Open
P8742	J62_10	J62_11	145.00	150.0	125.0	0.1290	Open
P8743	J62_10	J63_10	145.00	300.0	140.0	0.0460	Open
P8744	J62_11	J62_12	145.00	400.0	120.0	0.0435	Open
P8745	J62_11	J63_11	145.00	600.0	130.0	0.0076	Open
P8746	J62_12	J62_13	145.00	150.0	140.0	0.0143	Open
P8747	J62_12	J63_12	145.00	150.0	140.0	0.1224	Open
P8748	J62_13	J62_14	145.00	250.0	140.0	0.0227	Open
P8749	J62_13	J63_13	145.00	250.0	125.0	0.1012	Open
P8750	J62_14	J62_15	145.00	100.0	135.0	0.0352	Open
P8751	J62_14	J63_14	145.00	250.0	140.0	0.1102	Open
P8752	J62_15	J62_16	145.00	150.0	135.0	0.1413	Open
P8753	J62_15	J63_15	145.00	150.0	130.0	0.0585	Open
P8754	J62_16	J62_17	145.00	250.0	130.0	0.0320	Open
P8755	J62_16	J63_16	145.00	200.0	135.0	0.1021	Open
P8756	J62_17	J62_18	145.00	100.0	130.0	0.1124	Open
P8757	J62_17	J63_17	145.00	300.0	125.0	0.0695	Open
P8758	J62_18	J62_19	145.00	250.0	140.0	0.1103	Open
P8759	J62_18	J63_18	145.00	250.0	125.0	0.0826	Open
P8760	J62_19	J62_20	145.00	200.0	140.0	0.0416	Open
P8761	J62_19	J63_19	145.00	150.0	125.0	0.0445	Open
P8762	J62_20	J62_21	145.00	300.0	135.0	0.0965	Open
P8763	J62_20	J63_20	145.00	150.0	135.0	0.0148	Open
P8764	J62_21	J62_22	145.00	400.0	125.0	0.0370	Open
P8765	J62_21	J63_21	145.00	300.0	130.0	0.0460	Open
P8766	J62_22	J62_23	145.00	200.0	125.0	0.1191	Open
P8767	J62_22	J63_22	145.00	300.0	140.0	0.0026	Open
P8768	J62_23	J62_24	145.00	250.0	125.0	0.0817	Open
P8769	J62_23	J63_23	145.00	200.0	130.0	0.1322	Open
P8770	J62_24	J62_25	145.00	150.0	130.0	0.1443	Open
P8771	J62_24	J63_24	145.00	200.0	125.0	0.0978	Open
P8772	J62_25	J62_26	145.00	300.0	130.0	0.0467	Open
P8773	J62_25	J63_25	145.00	100.0	130.0	0.1463	Open
P8774	J62_26	J62_27	145.00	250.0	125.0	0.1016	Open
P8775	J62_26	J63_26	145.00	250.0	125.0	0.0405	Open
P8776	J62_27	J62_28	145.00	150.0	130.0	0.1230	Open
P8777	J62_27	J63_27	145.00	300.0	130.0	0.0524	Open
P8778	J62_28	J62_29	145.00	250.0	140.0	0.1270	Open
P8779	J62_28	J63_28	145.00	250.0	135.0	0.1242	Open
P8780	J62_29	J62_30	145.00	100.0	140.0	0.0573	Open
P8781	J62_29	J63_29	145.00	250.0	130.0	0.1115	Open
P8782	J62_30	J62_31	145.00	150.0	140.0	0.0520	Open
P8783	J62_30	J63_30	145.00	300.0	125.0	0.0861	Open
P8784	J62_31	J62_32	145.00	500.0	130.0	0.0382	Open
P8785	J62_31	J63_31	145.00	600.0	125.0	0.0354	Open
P8786	J62_32	J62_33	145.00	200.0	140.0	0.0011	Open
P8787	J62_32	J63_32	145.00	100.0	125.0	0.1348	Open
P8788	J62_33	J62_34	145.00	150.0	140.0	0.1219	Open
P8789	J62_33	J63_33	145.00	150.0	135.0	0.0085	Open
P8790	J62_34	J62_35	145.00	150.0	135.0	0.1364	Open
P8791	J62_34	J63_34	145.00	150.0	130.0	0.1110	Open
P8792	J62_35	J62_36	145.00	250.0	135.0	0.0379	Open
P8793	J62_35	J63_35	145.00	300.0	125.0	0.1162	Open
P8794	J62_36	J62_37	145.00	100.0	125.0	0.1273	Open
P8795	J62_36	J63_36	145.00	150.0	140.0	0.1006	Open
P8796	J62_37	J62_38	145.00	100.0	125.0	0.0994	Open
P8797	J62_37	J63_37	145.00	200.0	125.0	0.0960	Open
P8798	J62_38	J62_39	145.00	100.0	135.0	0.0525	Open
P8799	J62_38	J63_38	145.00	150.0	130.0	0.0098	Open
P8800	J62_39	J62_40	145.00	100.0	125.0	0.1191	Open
P8801	J62_39	J63_39	145.00	300.0	130.0	0.1364	Open
P8802	J62_40	J62_41	145.00	300.0	130.0	0.0260	Open
P8803	J62_40	J63_40	145.00	300.0	125.0	0.0617	Open
P8804	J62_41	J62_42	145.00	350.0	120.0	0.0143	Open
P8805	J62_41	J63_41	145.00	400.0	120.0	0.0405	Open
P8806	J62_42	J62_43	145.00	150.0	135.0	0.0985	Open
P8807	J62_42	J63_42	145.00	300.0	140.0	0.1016	Open
P8808	J62_43	J62_44	145.00	150.0	140.0	0.0299	Open
P8809	J62_43	J63_43	145.00	250.0	135.0	0.1436	Open
P8810	J62_44	J62_45	145.00	100.0	140.0	0.0744	Open
P8811	J62_44	J63_44	145.00	200.0	135.0	0.1445	Open
P8812	J62_45	J62_46	145.00	100.0	135.0	0.1406	Open
P8813	J62_45	J63_45	145.00	100.0	125.0	0.0326	Open
P8814	J62_46	J62_47	145.00	250.0	125.0	0.0267	Open
P8815	J62_46	J63_46	145.00	100.0	140.0	0.1487	Open
P8816	J62_47	J62_48	145.00	150.0	125.0	0.0490	Open
P8817	J62_47	J63_47	145.00	250.0	125.0	0.0578	Open
P8818	J62_48	J62_49	145.00	250.0	130.0	0.0016	Open
P8819	J62_48	J63_48	145.00	100.0	130.0	0.0736	Open
P8820	J62_49	J62_50	145.00	100.0	125.0	0.1224	Open
P8821	J62_49	J63_49	145.00	250.0	140.0	0.0448	Open
P8822	J62_50	J62_51	145.00	300.0	130.0	0.1120	Open
P8823	J62_50	J63_50	145.00	200.0	125.0	0.0168	Open
P8824	J62_51	J62_52	145.00	350.0	120.0	0.0454	Open
P8825	J62_51	J63_51	145.00	400.0	125.0	0.0219	Open
P8826	J62_52	J62_53	145.00	200.0	140.0	0.0423	Open
P8827	J62_52	J63_52	145.00	300.0	130.0	0.0416	Open
P8828	J62_53	J62_54	145.00	250.0	125.0	0.0859	Open
P8829	J62_53	J63_53	145.00	200.0	125.0	0.0901	Open
P8830	J62_54	J62_55	145.00	100.0	125.0	0.1123	Open
P8831	J62_54	J63_54	145.00	150.0	130.0	0.1462	Open
P8832	J62_55	J62_56	145.00	300.0	135.0	0.0294	Open
P8833	J62_55	J63_55	145.00	100.0	140.0	0.0718	Open
P8834	J62_56	J62_57	145.00	250.0	140.0	0.1153	Open
P8835	J62_56	J63_56	145.00	100.0	130.0	0.1179	Open
P8836	J62_57	J62_58	145.00	250.0	130.0	0.1107	Open
P8837	J62_57	J63_57	145.00	100.0	140.0	0.1213	Open
P8838	J62_58	J62_59	145.00	200.0	130.0	0.0104	Open
P8839	J62_58	J63_58	145.00	300.0	140.0	0.0346	Open
P8840	J62_59	J62_60	145.00	150.0	130.0	0.1339	Open
P8841	J62_59	J63_59	145.00	200.0	140.0	0.1453	Open
P8842	J62_60	J62_61	145.00	300.0	130.0	0.0458	Open
P8843	J62_60	J63_60	145.00	150.0	140.0	0.0879	Open
P8844	J62_61	J62_62	145.00	400.0	130.0	0.0374	Open
P8845	J62_61	J63_61	145.00	500.0	120.0	0.0231	Open
P8846	J62_62	J62_63	145.00	250.0	135.0	0.0757	Open
P8847	J62_62	J63_62	145.00	150.0	130.0	0.0942	Open
P8848	J62_63	J62_64	145.00	300.0	135.0	0.0204	Open
P8849	J62_63	J63_63	145.00	250.0	140.0	0.1309	Open
P8850	J62_64	J62_65	145.00	250.0	135.0	0.0550	Open
P8851	J62_64	J63_64	145.00	100.0	130.0	0.0545	Open
P8852	J62_65	J62_66	145.00	200.0	140.0	0.1349	Open
P8853	J62_65	J63_65	145.00	250.0	140.0	0.0765	Open
P8854	J62_66	J62_67	145.00	100.0	125.0	0.0577	Open
P8855	J62_66	J63_66	145.00	250.0	125.0	0.0205	Open
P8856	J62_67	J62_68	145.00	100.0	140.0	0.0344	Open
P8857	J62_67	J63_67	145.00	250.0	140.0	0.1002	Open
P8858	J62_68	J62_69	145.00	300.0	140.0	0.0917	Open
P8859	J62_68	J63_68	145.00	300.0	125.0	0.0404	Open
P8860	J62_69	J62_70	145.00	300.0	135.0	0.1417	Open
P8861	J62_69	J63_69	145.00	300.0	125.0	0.0434	Open
P8862	J62_70	J62_71	145.00	100.0	130.0	0.0202	Open
P8863	J62_70	J63_70	145.00	300.0	140.0	0.0655	Open
P8864	J62_71	J62_72	145.00	400.0	130.0	0.0031	Open
P8865	J62_71	J63_71	145.00	600.0	125.0	0.0113	Open
P8866	J62_72	J63_72	145.00	250.0	125.0	0.0020	Open
P8867	J63_1	J63_2	145.00	450.0	125.0	0.0285	Open
P8868	J63_1	J64_1	145.00	600.0	125.0	0.0220	Open
P8869	J63_2	J63_3	145.00	150.0	130.0	0.0259	Open
P8870	J63_2	J64_2	145.00	300.0	125.0	0.1122	Open
P8871	J63_3	J63_4	145.00	200.0	135.0	0.0852	Open
P8872	J63_3	J64_3	145.00	300.0	140.0	0.0659	Open
P8873	J63_4	J63_5	145.00	250.0	130.0	0.0609	Open
P8874	J63_4	J64_4	145.00	100.0	140.0	0.0464	Open
P8875	J63_5	J63_6	145.00	150.0	130.0	0.0407	Open
P8876	J63_5	J64_5	145.00	100.0	135.0	0.0035	Open
P8877	J63_6	J63_7	145.00	300.0	125.0	0.0471	Open
P8878	J63_6	J64_6	145.00	200.0	135.0	0.0732	Open
P8879	J63_7	J63_8	145.00	250.0	135.0	0.0798	Open
P8880	J63_7	J64_7	145.00	250.0	140.0	0.0256	Open
P8881	J63_8	J63_9	145.00	200.0	140.0	0.1471	Open
P8882	J63_8	J64_8	145.00	200.0	135.0	0.0488	Open
P8883	J63_9	J63_10	145.00	250.0	140.0	0.1015	Open
P8884	J63_9	J64_9	145.00	300.0	130.0	0.1080	Open
P8885	J63_10	J63_11	145.00	200.0	125.0	0.1265	Open
P8886	J63_10	J64_10	145.00	100.0	125.0	0.0086	Open
P8887	J63_11	J63_12	145.00	450.0	130.0	0.0332	Open
P8888	J63_11	J64_11	145.00	300.0	120.0	0.0463	Open
P8889	J63_12	J63_13	145.00	200.0	135.0	0.0003	Open
P8890	J63_12	J64_12	145.00	300.0	135.0	0.0620	Open
P8891	J63_13	J63_14	145.00	200.0	130.0	0.1218	Open
P8892	J63_13	J64_13	145.00	300.0	125.0	0.0102	Open
P8893	J63_14	J63_15	145.00	300.0	125.0	0.1328	Open
P8894	J63_14	J64_14	145.00	150.0	135.0	0.0595	Open
P8895	J63_15	J63_16	145.00	150.0	140.0	0.0048	Open
P8896	J63_15	J64_15	145.00	200.0	130.0	0.0876	Open
P8897	J63_16	J63_17	145.00	150.0	125.0	0.1352	Open
P8898	J63_16	J64_16	145.00	150.0	135.0	0.0556	Open
P8899	J63_17	J63_18	145.00	250.0	130.0	0.0207	Open
P8900	J63_17	J64_17	145.00	150.0	135.0	0.0620	Open
P8901	J63_18	J63_19	145.00	100.0	140.0	0.1412	Open
P8902	J63_18	J64_18	145.00	300.0	125.0	0.1036	Open
P8903	J63_19	J63_20	145.00	300.0	130.0	0.0594	Open
P8904	J63_19	J64_19	145.00	100.0	140.0	0.1029	Open
P8905	J63_20	J63_21	145.00	300.0	140.0	0.0509	Open
P8906	J63_20	J64_20	145.00	300.0	130.0	0.0311	Open
P8907	J63_21	J63_22	145.00	600.0	120.0	0.0420	Open
P8908	J63_21	J64_21	145.00	450.0	125.0	0.0025	Open
P8909	J63_22	J63_23	145.00	200.0	140.0	0.1231	Open
P8910	J63_22	J64_22	145.00	150.0	140.0	0.0129	Open
P8911	J63_23	J63_24	145.00	300.0	125.0	0.0268	Open
P8912	J63_23	J64_23	145.00	250.0	135.0	0.1350	Open
P8913	J63_24	J63_25	145.00	100.0	135.0	0.0638	Open
P8914	J63_24	J64_24	145.00	100.0	130.0	0.1193	Open
P8915	J63_25	J63_26	145.00	250.0	125.0	0.0721	Open
P8916	J63_25	J64_25	145.00	250.0	140.0	0.0090	Open
P8917	J63_26	J63_27	145.00	100.0	140.0	0.0576	Open
P8918	J63_26	J64_26	145.00	150.0	135.0	0.0309	Open
P8919	J63_27	J63_28	145.00	100.0	135.0	0.1080	Open
P8920	J63_27	J64_27	145.00	250.0	130.0	0.0988	Open
P8921	J63_28	J63_29	145.00	250.0	125.0	0.0196	Open
P8922	J63_28	J64_28	145.00	250.0	140.0	0.1189	Open
P8923	J63_29	J63_30	145.00	200.0	140.0	0.0946	Open
P8924	J63_29	J64_29	145.00	250.0	130.0	0.0619	Open
P8925	J63_30	J63_31	145.00	300.0	135.0	0.1298	Open
P8926	J63_30	J64_30	145.00	300.0	130.0	0.0961	Open
P8927	J63_31	J63_32	145.00	400.0	120.0	0.0073	Open
P8928	J63_31	J64_31	145.00	350.0	120.0	0.0139	Open
P8929	J63_32	J63_33	145.00	150.0	130.0	0.0730	Open
P8930	J63_32	J64_32	145.00	150.0	135.0	0.1049	Open
P8931	J63_33	J63_34	145.00	150.0	140.0	0.0114	Open
P8932	J63_33	J64_33	145.00	200.0	140.0	0.1395	Open
P8933	J63_34	J63_35	145.00	250.0	130.0	0.1454	Open
P8934	J63_34	J64_34	145.00	100.0	140.0	0.1097	Open
P8935	J63_35	J63_36	145.00	300.0	140.0	0.0443	Open
P8936	J63_35	J64_35	145.00	100.0	135.0	0.0039	Open
P8937	J63_36	J63_37	145.00	200.0	135.0	0.0892	Open
P8938	J63_36	J64_36	145.00	150.0	130.0	0.0639	Open
P8939	J63_37	J63_38	145.00	150.0	140.0	0.0127	Open
P8940	J63_37	J64_37	145.00	250.0	140.0	0.0722	Open
P8941	J63_38	J63_39	145.00	150.0	135.0	0.1308	Open
P8942	J63_38	J64_38	145.00	200.0	140.0	0.1129	Open
P8943	J63_39	J63_40	145.00	200.0	125.0	0.0108	Open
P8944	J63_39	J64_39	145.00	150.0	130.0	0.0126	Open
P8945	J63_40	J63_41	145.00	100.0	135.0	0.0766	Open
P8946	J63_40	J64_40	145.00	200.0	125.0	0.0398	Open
P8947	J63_41	J63_42	145.00	600.0	120.0	0.0110	Open
P8948	J63_41	J64_41	145.00	400.0	125.0	0.0078	Open
P8949	J63_42	J63_43	145.00	150.0	135.0	0.1463	Open
P8950	J63_42	J64_42	145.00	300.0	125.0	0.0802	Open
P8951	J63_43	J63_44	145.00	250.0	140.0	0.0784	Open
P8952	J63_43	J64_43	145.00	300.0	135.0	0.0627	Open
P8953	J63_44	J63_45	145.00	250.0	135.0	0.1202	Open
P8954	J63_44	J64_44	145.00	100.0	135.0	0.1043	Open
P8955	J63_45	J63_46	145.00	100.0	125.0	0.1471	Open
P8956	J63_45	J64_45	145.00	100.0	125.0	0.0826	Open
P8957	J63_46	J63_47	145.00	250.0	125.0	0.0079	Open
P8958	J63_46	J64_46	145.00	200.0	135.0	0.0262	Open
P8959	J63_47	J63_48	145.00	200.0	130.0	0.0200	Open
P8960	J63_47	J64_47	145.00	200.0	135.0	0.0281	Open
P8961	J63_48	J63_49	145.00	150.0	130.0	0.1004	Open
P8962	J63_48	J64_48	145.00	150.0	140.0	0.0554	Open
P8963	J63_49	J63_50	145.00	200.0	135.0	0.0338	Open
P8964	J63_49	J64_49	145.00	200.0	135.0	0.1264	Open
P8965	J63_50	J63_51	145.00	150.0	140.0	0.0607	Open
P8966	J63_50	J64_50	145.00	250.0	135.0	0.1060	Open
P8967	J63_51	J63_52	145.00	500.0	125.0	0.0186	Open
P8968	J63_51	J64_51	145.00	350.0	125.0	0.0265	Open
P8969	J63_52	J63_53	145.00	100.0	125.0	0.0377	Open
P8970	J63_52	J64_52	145.00	200.0	135.0	0.0894	Open
P8971	J63_53	J63_54	145.00	100.0	130.0	0.0834	Open
P8972	J63_53	J64_53	145.00	200.0	135.0	0.0049	Open
P8973	J63_54	J63_55	145.00	200.0	125.0	0.0794	Open
P8974	J63_54	J64_54	145.00	200.0	140.0	0.0732	Open
P8975	J63_55	J63_56	145.00	200.0	140.0	0.0573	Open
P8976	J63_55	J64_55	145.00	100.0	130.0	0.0743	Open
P8977	J63_56	J63_57	145.00	200.0	140.0	0.0349	Open
P8978	J63_56	J64_56	145.00	300.0	125.0	0.0553	Open
P8979	J63_57	J63_58	145.00	300.0	125.0	0.1436	Open
P8980	J63_57	J64_57	145.00	100.0	135.0	0.0702	Open
P8981	J63_58	J63_59	145.00	300.0	140.0	0.0017	Open
P8982	J63_58	J64_58	145.00	150.0	130.0	0.0001	Open
P8983	J63_59	J63_60	145.00	100.0	140.0	0.0047	Open
P8984	J63_59	J64_59	145.00	300.0	125.0	0.1252	Open
P8985	J63_60	J63_61	145.00	200.0	135.0	0.0514	Open
P8986	J63_60	J64_60	145.00	200.0	125.0	0.0980	Open
P8987	J63_61	J63_62	145.00	350.0	125.0	0.0074	Open
P8988	J63_61	J64_61	145.00	500.0	120.0	0.0198	Open
P8989	J63_62	J63_63	145.00	300.0	135.0	0.0301	Open
P8990	J63_62	J64_62	145.00	300.0	140.0	0.0495	Open
P8991	J63_63	J63_64	145.00	300.0	130.0	0.0263	Open
P8992	J63_63	J64_63	145.00	150.0	130.0	0.0536	Open
P8993	J63_64	J63_65	145.00	300.0	140.0	0.0882	Open
P8994	J63_64	J64_64	145.00	250.0	140.0	0.0508	Open
P8995	J63_65	J63_66	145.00	200.0	135.0	0.0671	Open
P8996	J63_65	J64_65	145.00	150.0	125.0	0.1306	Open
P8997	J63_66	J63_67	145.00	250.0	130.0	0.0487	Open
P8998	J63_66	J64_66	145.00	250.0	135.0	0.0808	Open
P8999	J63_67	J63_68	145.00	100.0	135.0	0.1100	Open
P9000	J63_67	J64_67	145.00	200.0	125.0	0.1084	Open
P9001	J63_68	J63_69	145.00	300.0	140.0	0.1265	Open
P9002	J63_68	J64_68	145.00	150.0	140.0	0.1270	Open
P9003	J63_69	J63_70	145.00	300.0	135.0	0.0835	Open
P9004	J63_69	J64_69	145.00	200.0	135.0	0.0337	Open
P9005	J63_70	J63_71	145.00	150.0	140.0	0.1035	Open
P9006	J63_70	J64_70	145.00	100.0	135.0	0.0260	Open
P9007	J63_71	J63_72	145.00	600.0	120.0	0.0484	Open
P9008	J63_71	J64_71	145.00	600.0	130.0	0.0115	Open
P9009	J63_72	J64_72	145.00	100.0	135.0	0.1056	Open
P9010	J64_1	J64_2	145.00	300.0	125.0	0.0480	Open
P9011	J64_1	J65_1	145.00	350.0	125.0	0.0473	Open
P9012	J64_2	J64_3	145.00	150.0	130.0	0.0896	Open
P9013	J64_2	J65_2	145.00	150.0	135.0	0.0751	Open
P9014	J64_3	J64_4	145.00	100.0	135.0	0.1392	Open
P9015	J64_3	J65_3	145.00	150.0	135.0	0.0386	Open
P9016	J64_4	J64_5	145.00	300.0	130.0	0.1393	Open
P9017	J64_4	J65_4	145.00	300.0	135.0	0.1328	Open
P9018	J64_5	J64_6	145.00	250.0	140.0	0.0450	Open
P9019	J64_5	J65_5	145.00	150.0	130.0	0.0266	Open
P9020	J64_6	J64_7	145.00	150.0	130.0	0.0821	Open
P9021	J64_6	J65_6	145.00	300.0	140.0	0.1149	Open
P9022	J64_7	J64_8	145.00	300.0	140.0	0.1253	Open
P9023	J64_7	J65_7	145.00	200.0	125.0	0.1047	Open
P9024	J64_8	J64_9	145.00	200.0	140.0	0.0239	Open
P9025	J64_8	J65_8	145.00	150.0	130.0	0.0139	Open
P9026	J64_9	J64_10	145.00	250.0	130.0	0.0608	Open
P9027	J64_9	J65_9	145.00	300.0	125.0	0.0415	Open
P9028	J64_10	J64_11	145.00	100.0	135.0	0.0121	Open
P9029	J64_10	J65_10	145.00	200.0	130.0	0.0683	Open
P9030	J64_11	J64_12	145.00	450.0	125.0	0.0059	Open
P9031	J64_11	J65_11	145.00	300.0	120.0	0.0110	Open
P9032	J64_12	J64_13	145.00	200.0	140.0	0.0180	Open
P9033	J64_12	J65_12	145.00	100.0	125.0	0.0290	Open
P9034	J64_13	J64_14	145.00	250.0	140.0	0.0343	Open
P9035	J64_13	J65_13	145.00	250.0	130.0	0.0479	Open
P9036	J64_14	J64_15	145.00	150.0	130.0	0.0313	Open
P9037	J64_14	J65_14	145.00	200.0	130.0	0.0724	Open
P9038	J64_15	J64_16	145.00	300.0	125.0	0.0847	Open
P9039	J64_15	J65_15	145.00	150.0	140.0	0.0559	Open
P9040	J64_16	J64_17	145.00	200.0	130.0	0.0525	Open
P9041	J64_16	J65_16	145.00	150.0	140.0	0.1347	Open
P9042	J64_17	J64_18	145.00	100.0	140.0	0.1239	Open
P9043	J64_17	J65_17	145.00	250.0	130.0	0.0421	Open
P9044	J64_18	J64_19	145.00	150.0	140.0	0.1452	Open
P9045	J64_18	J65_18	145.00	150.0	125.0	0.1155	Open
P9046	J64_19	J64_20	145.00	150.0	125.0	0.0544	Open
P9047	J64_19	J65_19	145.00	250.0	140.0	0.0968	Open
P9048	J64_20	J64_21	145.00	150.0	125.0	0.1377	Open
P9049	J64_20	J65_20	145.00	250.0	135.0	0.0242	Open
P9050	J64_21	J64_22	145.00	600.0	120.0	0.0013	Open
P9051	J64_21	J65_21	145.00	300.0	120.0	0.0420	Open
P9052	J64_22	J64_23	145.00	200.0	140.0	0.0828	Open
P9053	J64_22	J65_22	145.00	100.0	125.0	0.0482	Open
P9054	J64_23	J64_24	145.00	300.0	130.0	0.0315	Open
P9055	J64_23	J65_23	145.00	300.0	140.0	0.1406	Open
P9056	J64_24	J64_25	145.00	200.0	140.0	0.0415	Open
P9057	J64_24	J65_24	145.00	300.0	140.0	0.0856	Open
P9058	J64_25	J64_26	145.00	100.0	130.0	0.0756	Open
P9059	J64_25	J65_25	145.00	250.0	130.0	0.0189	Open
P9060	J64_26	J64_27	145.00	150.0	135.0	0.1289	Open
P9061	J64_26	J65_26	145.00	300.0	135.0	0.1191	Open
P9062	J64_27	J64_28	145.00	100.0	130.0	0.0510	Open
P9063	J64_27	J65_27	145.00	100.0	140.0	0.0486	Open
P9064	J64_28	J64_29	145.00	200.0	135.0	0.1103	Open
P9065	J64_28	J65_28	145.00	300.0	135.0	0.1053	Open
P9066	J64_29	J64_30	145.00	150.0	130.0	0.0959	Open
P9067	J64_29	J65_29	145.00	100.0	135.0	0.0983	Open
P9068	J64_30	J64_31	145.00	300.0	130.0	0.0869	Open
P9069	J64_30	J65_30	145.00	100.0	140.0	0.0849	Open
P9070	J64_31	J64_32	145.00	300.0	120.0	0.0378	Open
P9071	J64_31	J65_31	145.00	450.0	125.0	0.0337	Open
P9072	J64_32	J64_33	145.00	150.0	140.0	0.0482	Open
P9073	J64_32	J65_32	145.00	150.0	135.0	0.0202	Open
P9074	J64_33	J64_34	145.00	100.0	130.0	0.0993	Open
P9075	J64_33	J65_33	145.00	150.0	125.0	0.1342	Open
P9076	J64_34	J64_35	145.00	150.0	135.0	0.0394	Open
P9077	J64_34	J65_34	145.00	300.0	135.0	0.0900	Open
P9078	J64_35	J64_36	145.00	100.0	130.0	0.1445	Open
P9079	J64_35	J65_35	145.00	200.0	130.0	0.0376	Open
P9080	J64_36	J64_37	145.00	150.0	140.0	0.0419	Open
P9081	J64_36	J65_36	145.00	250.0	125.0	0.0744	Open
P9082	J64_37	J64_38	145.00	250.0	140.0	0.0061	Open
P9083	J64_37	J65_37	145.00	100.0	125.0	0.0998	Open
P9084	J64_38	J64_39	145.00	300.0	125.0	0.0494	Open
P9085	J64_38	J65_38	145.00	100.0	125.0	0.0576	Open
P9086	J64_39	J64_40	145.00	300.0	135.0	0.1152	Open
P9087	J64_39	J65_39	145.00	300.0	135.0	0.0331	Open
P9088	J64_40	J64_41	145.00	100.0	125.0	0.1439	Open
P9089	J64_40	J65_40	145.00	150.0	135.0	0.1497	Open
P9090	J64_41	J64_42	145.00	400.0	130.0	0.0267	Open
P9091	J64_41	J65_41	145.00	300.0	130.0	0.0307	Open
P9092	J64_42	J64_43	145.00	100.0	130.0	0.0336	Open
P9093	J64_42	J65_42	145.00	200.0	140.0	0.1337	Open
P9094	J64_43	J64_44	145.00	100.0	135.0	0.1495	Open
P9095	J64_43	J65_43	145.00	200.0	135.0	0.1082	Open
P9096	J64_44	J64_45	145.00	300.0	140.0	0.0299	Open
P9097	J64_44	J65_44	145.00	150.0	140.0	0.0494	Open
P9098	J64_45	J64_46	145.00	250.0	135.0	0.0621	Open
P9099	J64_45	J65_45	145.00	200.0	130.0	0.0003	Open
P9100	J64_46	J64_47	145.00	250.0	130.0	0.0047	Open
P9101	J64_46	J65_46	145.00	250.0	125.0	0.1484	Open
P9102	J64_47	J64_48	145.00	150.0	135.0	0.1476	Open
P9103	J64_47	J65_47	145.00	200.0	140.0	0.0975	Open
P9104	J64_48	J64_49	145.00	250.0	125.0	0.0341	Open
P9105	J64_48	J65_48	145.00	200.0	135.0	0.0064	Open
P9106	J64_49	J64_50	145.00	300.0	140.0	0.0121	Open
P9107	J64_49	J65_49	145.00	200.0	130.0	0.0683	Open
P9108	J64_50	J64_51	145.00	100.0	125.0	0.0847	Open
P9109	J64_50	J65_50	145.00	300.0	130.0	0.0718	Open
P9110	J64_51	J64_52	145.00	450.0	125.0	0.0133	Open
P9111	J64_51	J65_51	145.00	500.0	130.0	0.0202	Open
P9112	J64_52	J64_53	145.00	150.0	140.0	0.0908	Open
P9113	J64_52	J65_52	145.00	250.0	125.0	0.0274	Open
P9114	J64_53	J64_54	145.00	300.0	140.0	0.0368	Open
P9115	J64_53	J65_53	145.00	150.0	130.0	0.0275	Open
P9116	J64_54	J64_55	145.00	200.0	125.0	0.0453	Open
P9117	J64_54	J65_54	145.00	200.0	130.0	0.0155	Open
P9118	J64_55	J64_56	145.00	200.0	125.0	0.0162	Open
P9119	J64_55	J65_55	145.00	250.0	125.0	0.0405	Open
P9120	J64_56	J64_57	145.00	250.0	125.0	0.1387	Open
P9121	J64_56	J65_56	145.00	250.0	140.0	0.0335	Open
P9122	J64_57	J64_58	145.00	250.0	130.0	0.0653	Open
P9123	J64_57	J65_57	145.00	250.0	130.0	0.0491	Open
P9124	J64_58	J64_59	145.00	300.0	135.0	0.0692	Open
P9125	J64_58	J65_58	145.00	200.0	130.0	0.0233	Open
P9126	J64_59	J64_60	145.00	150.0	135.0	0.0166	Open
P9127	J64_59	J65_59	145.00	250.0	135.0	0.1234	Open
P9128	J64_60	J64_61	145.00	150.0	135.0	0.0318	Open
P9129	J64_60	J65_60	145.00	100.0	140.0	0.0513	Open
P9130	J64_61	J64_62	145.00	600.0	125.0	0.0187	Open
P9131	J64_61	J65_61	145.00	450.0	130.0	0.0112	Open
P9132	J64_62	J64_63	145.00	100.0	140.0	0.0979	Open
P9133	J64_62	J65_62	145.00	300.0	140.0	0.1294	Open
P9134	J64_63	J64_64	145.00	100.0	130.0	0.0211	Open
P9135	J64_63	J65_63	145.00	200.0	140.0	0.0513	Open
P9136	J64_64	J64_65	145.00	250.0	135.0	0.0241	Open
P9137	J64_64	J65_64	145.00	250.0	140.0	0.0112	Open
P9138	J64_65	J64_66	145.00	200.0	140.0	0.0962	Open
P9139	J64_65	J65_65	145.00	150.0	140.0	0.0102	Open
P9140	J64_66	J64_67	145.00	150.0	140.0	0.0660	Open
P9141	J64_66	J65_66	145.00	150.0	135.0	0.1450	Open
P9142	J64_67	J64_68	145.00	250.0	140.0	0.1254	Open
P9143	J64_67	J65_67	145.00	300.0	140.0	0.0585	Open
P9144	J64_68	J64_69	145.00	300.0	135.0	0.1082	Open
P9145	J64_68	J65_68	145.00	250.0	130.0	0.0154	Open
P9146	J64_69	J64_70	145.00	150.0	140.0	0.0320	Open
P9147	J64_69	J65_69	145.00	100.0	135.0	0.1112	Open
P9148	J64_70	J64_71	145.00	250.0	140.0	0.0897	Open
P9149	J64_70	J65_70	145.00	150.0	125.0	0.0209	Open
P9150	J64_71	J64_72	145.00	350.0	125.0	0.0230	Open
P9151	J64_71	J65_71	145.00	300.0	130.0	0.0261	Open
P9152	J64_72	J65_72	145.00	200.0	135.0	0.0551	Open
P9153	J65_1	J65_2	145.00	400.0	125.0	0.0432	Open
P9154	J65_1	J66_1	145.00	600.0	120.0	0.0412	Open
P9155	J65_2	J65_3	145.00	150.0	135.0	0.0150	Open
P9156	J65_2	J66_2	145.00	100.0	130.0	0.0744	Open
P9157	J65_3	J65_4	145.00	150.0	130.0	0.1080	Open
P9158	J65_3	J66_3	145.00	250.0	130.0	0.0619	Open
P9159	J65_4	J65_5	145.00	250.0	135.0	0.0797	Open
P9160	J65_4	J66_4	145.00	100.0	130.0	0.1300	Open
P9161	J65_5	J65_6	145.00	150.0	135.0	0.0910	Open
P9162	J65_5	J66_5	145.00	200.0	125.0	0.0827	Open
P9163	J65_6	J65_7	145.00	300.0	140.0	0.0296	Open
P9164	J65_6	J66_6	145.00	250.0	125.0	0.0956	Open
P9165	J65_7	J65_8	145.00	100.0	130.0	0.0438	Open
P9166	J65_7	J66_7	145.00	300.0	130.0	0.0133	Open
P9167	J65_8	J65_9	145.00	200.0	125.0	0.1490	Open
P9168	J65_8	J66_8	145.00	250.0	140.0	0.0971	Open
P9169	J65_9	J65_10	145.00	200.0	135.0	0.0742	Open
P9170	J65_9	J66_9	145.00	150.0	130.0	0.0165	Open
P9171	J65_10	J65_11	145.00	200.0	135.0	0.0716	Open
P9172	J65_10	J66_10	145.00	100.0	140.0	0.0446	Open
P9173	J65_11	J65_12	145.00	350.0	125.0	0.0401	Open
P9174	J65_11	J66_11	145.00	450.0	120.0	0.0440	Open
P9175	J65_12	J65_13	145.00	200.0	125.0	0.0875	Open
P9176	J65_12	J66_12	145.00	100.0	125.0	0.0922	Open
P9177	J65_13	J65_14	145.00	300.0	130.0	0.0031	Open
P9178	J65_13	J66_13	145.00	300.0	125.0	0.0455	Open
P9179	J65_14	J65_15	145.00	100.0	130.0	0.0625	Open
P9180	J65_14	J66_14	145.00	250.0	135.0	0.0125	Open
P9181	J65_15	J65_16	145.00	250.0	140.0	0.0367	Open
P9182	J65_15	J66_15	145.00	100.0	125.0	0.1022	Open
P9183	J65_16	J65_17	145.00	150.0	135.0	0.0516	Open
P9184	J65_16	J66_16	145.00	200.0	130.0	0.0025	Open
P9185	J65_17	J65_18	145.00	300.0	125.0	0.1092	Open
P9186	J65_17	J66_17	145.00	200.0	125.0	0.0075	Open
P9187	J65_18	J65_19	145.00	250.0	130.0	0.0932	Open
P9188	J65_18	J66_18	145.00	100.0	125.0	0.0432	Open
P9189	J65_19	J65_20	145.00	150.0	130.0	0.1366	Open
P9190	J65_19	J66_19	145.00	250.0	140.0	0.0079	Open
P9191	J65_20	J65_21	145.00	150.0	130.0	0.1297	Open
P9192	J65_20	J66_20	145.00	300.0	125.0	0.0710	Open
P9193	J65_21	J65_22	145.00	500.0	120.0	0.0040	Open
P9194	J65_21	J66_21	145.00	300.0	120.0	0.0209	Open
P9195	J65_22	J65_23	145.00	100.0	140.0	0.0296	Open
P9196	J65_22	J66_22	145.00	200.0	140.0	0.0773	Open
P9197	J65_23	J65_24	145.00	150.0	130.0	0.1173	Open
P9198	J65_23	J66_23	145.00	150.0	125.0	0.1472	Open
P9199	J65_24	J65_25	145.00	150.0	135.0	0.1063	Open
P9200	J65_24	J66_24	145.00	100.0	125.0	0.0139	Open
P9201	J65_25	J65_26	145.00	300.0	135.0	0.0347	Open
P9202	J65_25	J66_25	145.00	200.0	130.0	0.0983	Open
P9203	J65_26	J65_27	145.00	300.0	135.0	0.0331	Open
P9204	J65_26	J66_26	145.00	300.0	130.0	0.1354	Open
P9205	J65_27	J65_28	145.00	100.0	125.0	0.0937	Open
P9206	J65_27	J66_27	145.00	250.0	125.0	0.0630	Open
P9207	J65_28	J65_29	145.00	250.0	140.0	0.1292	Open
P9208	J65_28	J66_28	145.00	300.0	135.0	0.0128	Open
P9209	J65_29	J65_30	145.00	200.0	130.0	0.0149	Open
P9210	J65_29	J66_29	145.00	200.0	135.0	0.0977	Open
P9211	J65_30	J65_31	145.00	150.0	140.0	0.0517	Open
P9212	J65_30	J66_30	145.00	200.0	130.0	0.0276	Open
P9213	J65_31	J65_32	145.00	500.0	125.0	0.0296	Open
P9214	J65_31	J66_31	145.00	450.0	120.0	0.0225	Open
P9215	J65_32	J65_33	145.00	300.0	125.0	0.1140	Open
P9216	J65_32	J66_32	145.00	200.0	130.0	0.0108	Open
P9217	J65_33	J65_34	145.00	300.0	125.0	0.1469	Open
P9218	J65_33	J66_33	145.00	150.0	130.0	0.0812	Open
P9219	J65_34	J65_35	145.00	200.0	135.0	0.0884	Open
P9220	J65_34	J66_34	145.00	200.0	140.0	0.1191	Open
P9221	J65_35	J65_36	145.00	150.0	130.0	0.0674	Open
P9222	J65_35	J66_35	145.00	150.0	140.0	0.1402	Open
P9223	J65_36	J65_37	145.00	150.0	125.0	0.1062	Open
P9224	J65_36	J66_36	145.00	250.0	125.0	0.0483	Open
P9225	J65_37	J65_38	145.00	100.0	125.0	0.1036	Open
P9226	J65_37	J66_37	145.00	300.0	140.0	0.0758	Open
P9227	J65_38	J65_39	145.00	250.0	125.0	0.0399	Open
P9228	J65_38	J66_38	145.00	100.0	125.0	0.1436	Open
P9229	J65_39	J65_40	145.00	250.0	130.0	0.1259	Open
P9230	J65_39	J66_39	145.00	200.0	125.0	0.0950	Open
P9231	J65_40	J65_41	145.00	200.0	135.0	0.0804	Open
P9232	J65_40	J66_40	145.00	250.0	135.0	0.0603	Open
P9233	J65_41	J65_42	145.00	600.0	130.0	0.0383	Open
P9234	J65_41	J66_41	145.00	450.0	120.0	0.0343	Open
P9235	J65_42	J65_43	145.00	300.0	130.0	0.0915	Open
P9236	J65_42	J66_42	145.00	300.0	130.0	0.0101	Open
P9237	J65_43	J65_44	145.00	100.0	140.0	0.0468	Open
P9238	J65_43	J66_43	145.00	300.0	140.0	0.0496	Open
P9239	J65_44	J65_45	145.00	150.0	125.0	0.1243	Open
P9240	J65_44	J66_44	145.00	300.0	130.0	0.1264	Open
P9241	J65_45	J65_46	145.00	150.0	125.0	0.0896	Open
P9242	J65_45	J66_45	145.00	200.0	140.0	0.0179	Open
P9243	J65_46	J65_47	145.00	150.0	125.0	0.0032	Open
P9244	J65_46	J66_46	145.00	300.0	135.0	0.1190	Open
P9245	J65_47	J65_48	145.00	300.0	135.0	0.0135	Open
P9246	J65_47	J66_47	145.00	100.0	135.0	0.0247	Open
P9247	J65_48	J65_49	145.00	250.0	135.0	0.1233	Open
P9248	J65_48	J66_48	145.00	300.0	125.0	0.0879	Open
P9249	J65_49	J65_50	145.00	200.0	125.0	0.0203	Open
P9250	J65_49	J66_49	145.00	250.0	130.0	0.1041	Open
P9251	J65_50	J65_51	145.00	200.0	140.0	0.1089	Open
P9252	J65_50	J66_50	145.00	300.0	130.0	0.1247	Open
P9253	J65_51	J65_52	145.00	300.0	120.0	0.0450	Open
P9254	J65_51	J66_51	145.00	350.0	125.0	0.0010	Open
P9255	J65_52	J65_53	145.00	150.0	125.0	0.1351	Open
P9256	J65_52	J66_52	145.00	300.0	140.0	0.0846	Open
P9257	J65_53	J65_54	145.00	200.0	140.0	0.0585	Open
P9258	J65_53	J66_53	145.00	300.0	140.0	0.1281	Open
P9259	J65_54	J65_55	145.00	100.0	135.0	0.0714	Open
P9260	J65_54	J66_54	145.00	150.0	125.0	0.0975	Open
P9261	J65_55	J65_56	145.00	100.0	125.0	0.1333	Open
P9262	J65_55	J66_55	145.00	200.0	135.0	0.0304	Open
P9263	J65_56	J65_57	145.00	300.0	130.0	0.0331	Open
P9264	J65_56	J66_56	145.00	200.0	135.0	0.1089	Open
P9265	J65_57	J65_58	145.00	100.0	130.0	0.0853	Open
P9266	J65_57	J66_57	145.00	150.0	130.0	0.0222	Open
P9267	J65_58	J65_59	145.00	150.0	125.0	0.1224	Open
P9268	J65_58	J66_58	145.00	100.0	125.0	0.1377	Open
P9269	J65_59	J65_60	145.00	200.0	140.0	0.0373	Open
P9270	J65_59	J66_59	145.00	150.0	140.0	0.0193	Open
P9271	J65_60	J65_61	145.00	100.0	125.0	0.1401	Open
P9272	J65_60	J66_60	145.00	250.0	125.0	0.0393	Open
P9273	J65_61	J65_62	145.00	600.0	130.0	0.0164	Open
P9274	J65_61	J66_61	145.00	400.0	125.0	0.0429	Open
P9275	J65_62	J65_63	145.00	150.0	125.0	0.0668	Open
P9276	J65_62	J66_62	145.00	150.0	135.0	0.0694	Open
P9277	J65_63	J65_64	145.00	250.0	125.0	0.1460	Open
P9278	J65_63	J66_63	145.00	200.0	125.0	0.0736	Open
P9279	J65_64	J65_65	145.00	200.0	140.0	0.0281	Open
P9280	J65_64	J66_64	145.00	200.0	140.0	0.0876	Open
P9281	J65_65	J65_66	145.00	200.0	125.0	0.0864	Open
P9282	J65_65	J66_65	145.00	100.0	125.0	0.0751	Open
P9283	J65_66	J65_67	145.00	150.0	135.0	0.0286	Open
P9284	J65_66	J66_66	145.00	300.0	130.0	0.0272	Open
P9285	J65_67	J65_68	145.00	100.0	130.0	0.1095	Open
P9286	J65_67	J66_67	145.00	300.0	140.0	0.0337	Open
P9287	J65_68	J65_69	145.00	150.0	135.0	0.1459	Open
P9288	J65_68	J66_68	145.00	250.0	140.0	0.0611	Open
P9289	J65_69	J65_70	145.00	100.0	125.0	0.1036	Open
P9290	J65_69	J66_69	145.00	200.0	135.0	0.0485	Open
P9291	J65_70	J65_71	145.00	200.0	130.0	0.0872	Open
P9292	J65_70	J66_70	145.00	200.0	140.0	0.0645	Open
P9293	J65_71	J65_72	145.00	450.0	130.0	0.0161	Open
P9294	J65_71	J66_71	145.00	500.0	120.0	0.0147	Open
P9295	J65_72	J66_72	145.00	300.0	125.0	0.0426	Open
P9296	J66_1	J66_2	145.00	350.0	120.0	0.0264	Open
P9297	J66_1	J67_1	145.00	300.0	130.0	0.0363	Open
P9298	J66_2	J66_3	145.00	150.0	125.0	0.1158	Open
P9299	J66_2	J67_2	145.00	300.0	140.0	0.0363	Open
P9300	J66_3	J66_4	145.00	250.0	135.0	0.0240	Open
P9301	J66_3	J67_3	145.00	200.0	135.0	0.0423	Open
P9302	J66_4	J66_5	145.00	150.0	130.0	0.0077	Open
P9303	J66_4	J67_4	145.00	150.0	135.0	0.0967	Open
P9304	J66_5	J66_6	145.00	300.0	130.0	0.0759	Open
P9305	J66_5	J67_5	145.00	200.0	125.0	0.0130	Open
P9306	J66_6	J66_7	145.00	250.0	135.0	0.0885	Open
P9307	J66_6	J67_6	145.00	250.0	135.0	0.0567	Open
P9308	J66_7	J66_8	145.00	250.0	130.0	0.1349	Open
P9309	J66_7	J67_7	145.00	100.0	130.0	0.0858	Open
P9310	J66_8	J66_9	145.00	300.0	140.0	0.0030	Open
P9311	J66_8	J67_8	145.00	300.0	135.0	0.0194	Open
P9312	J66_9	J66_10	145.00	100.0	140.0	0.1469	Open
P9313	J66_9	J67_9	145.00	250.0	130.0	0.1052	Open
P9314	J66_10	J66_11	145.00	150.0	135.0	0.0161	Open
P9315	J66_10	J67_10	145.00	250.0	135.0	0.0396	Open
P9316	J66_11	J66_12	145.00	450.0	120.0	0.0102	Open
P9317	J66_11	J67_11	145.00	500.0	120.0	0.0382	Open
P9318	J66_12	J66_13	145.00	200.0	140.0	0.1139	Open
P9319	J66_12	J67_12	145.00	100.0	140.0	0.1309	Open
P9320	J66_13	J66_14	145.00	200.0	130.0	0.1365	Open
P9321	J66_13	J67_13	145.00	300.0	140.0	0.1157	Open
P9322	J66_14	J66_15	145.00	100.0	135.0	0.0214	Open
P9323	J66_14	J67_14	145.00	150.0	140.0	0.1363	Open
P9324	J66_15	J66_16	145.00	100.0	125.0	0.1238	Open
P9325	J66_15	J67_15	145.00	100.0	130.0	0.1042	Open
P9326	J66_16	J66_17	145.00	150.0	130.0	0.0455	Open
P9327	J66_16	J67_16	145.00	300.0	125.0	0.1372	Open
P9328	J66_17	J66_18	145.00	100.0	130.0	0.1321	Open
P9329	J66_17	J67_17	145.00	300.0	130.0	0.1474	Open
P9330	J66_18	J66_19	145.00	200.0	140.0	0.0503	Open
P9331	J66_18	J67_18	145.00	250.0	135.0	0.1331	Open
P9332	J66_19	J66_20	145.00	150.0	130.0	0.0451	Open
P9333	J66_19	J67_19	145.00	150.0	130.0	0.0851	Open
P9334	J66_20	J66_21	145.00	200.0	135.0	0.1479	Open
P9335	J66_20	J67_20	145.00	150.0	125.0	0.0024	Open
P9336	J66_21	J66_22	145.00	450.0	120.0	0.0238	Open
P9337	J66_21	J67_21	145.00	500.0	125.0	0.0002	Open
P9338	J66_22	J66_23	145.00	300.0	125.0	0.1250	Open
P9339	J66_22	J67_22	145.00	150.0	135.0	0.1402	Open
P9340	J66_23	J66_24	145.00	100.0	125.0	0.0315	Open
P9341	J66_23	J67_23	145.00	200.0	135.0	0.0564	Open
P9342	J66_24	J66_25	145.00	100.0	125.0	0.1436	Open
P9343	J66_24	J67_24	145.00	300.0	130.0	0.0355	Open
P9344	J66_25	J66_26	145.00	200.0	130.0	0.0902	Open
P9345	J66_25	J67_25	145.00	300.0	130.0	0.0226	Open
P9346	J66_26	J66_27	145.00	300.0	125.0	0.1194	Open
P9347	J66_26	J67_26	145.00	200.0	140.0	0.1082	Open
P9348	J66_27	J66_28	145.00	300.0	125.0	0.0893	Open
P9349	J66_27	J67_27	145.00	100.0	125.0	0.0969	Open
P9350	J66_28	J66_29	145.00	150.0	140.0	0.1012	Open
P9351	J66_28	J67_28	145.00	250.0	125.0	0.0491	Open
P9352	J66_29	J66_30	145.00	300.0	135.0	0.1359	Open
P9353	J66_29	J67_29	145.00	200.0	125.0	0.1025	Open
P9354	J66_30	J66_31	145.00	200.0	135.0	0.0850	Open
P9355	J66_30	J67_30	145.00	300.0	140.0	0.1272	Open
P9356	J66_31	J66_32	145.00	600.0	120.0	0.0196	Open
P9357	J66_31	J67_31	145.00	600.0	125.0	0.0023	Open
P9358	J66_32	J66_33	145.00	200.0	140.0	0.1109	Open
P9359	J66_32	J67_32	145.00	300.0	140.0	0.1495	Open
P9360	J66_33	J66_34	145.00	200.0	140.0	0.0444	Open
P9361	J66_33	J67_33	145.00	150.0	140.0	0.0327	Open
P9362	J66_34	J66_35	145.00	250.0	135.0	0.1337	Open
P9363	J66_34	J67_34	145.00	250.0	135.0	0.0002	Open
P9364	J66_35	J66_36	145.00	200.0	140.0	0.1192	Open
P9365	J66_35	J67_35	145.00	200.0	130.0	0.0266	Open
P9366	J66_36	J66_37	145.00	150.0	140.0	0.0988	Open
P9367	J66_36	J67_36	145.00	300.0	140.0	0.0210	Open
P9368	J66_37	J66_38	145.00	100.0	125.0	0.0710	Open
P9369	J66_37	J67_37	145.00	100.0	140.0	0.1432	Open
P9370	J66_38	J66_39	145.00	300.0	125.0	0.0580	Open
P9371	J66_38	J67_38	145.00	100.0	140.0	0.0997	Open
P9372	J66_39	J66_40	145.00	300.0	140.0	0.0694	Open
P9373	J66_39	J67_39	145.00	300.0	125.0	0.0475	Open
P9374	J66_40	J66_41	145.00	100.0	140.0	0.0366	Open
P9375	J66_40	J67_40	145.00	250.0	130.0	0.0171	Open
P9376	J66_41	J66_42	145.00	600.0	120.0	0.0448	Open
P9377	J66_41	J67_41	145.00	400.0	120.0	0.0162	Open
P9378	J66_42	J66_43	145.00	100.0	125.0	0.0869	Open
P9379	J66_42	J67_42	145.00	250.0	125.0	0.0788	Open
P9380	J66_43	J66_44	145.00	300.0	135.0	0.1033	Open
P9381	J66_43	J67_43	145.00	250.0	130.0	0.0903	Open
P9382	J66_44	J66_45	145.00	250.0	140.0	0.1348	Open
P9383	J66_44	J67_44	145.00	150.0	135.0	0.0275	Open
P9384	J66_45	J66_46	145.00	250.0	125.0	0.0477	Open
P9385	J66_45	J67_45	145.00	300.0	130.0	0.0366	Open
P9386	J66_46	J66_47	145.00	250.0	135.0	0.1059	Open
P9387	J66_46	J67_46	145.00	300.0	135.0	0.1168	Open
P9388	J66_47	J66_48	145.00	100.0	130.0	0.0521	Open
P9389	J66_47	J67_47	145.00	100.0	135.0	0.1383	Open
P9390	J66_48	J66_49	145.00	250.0	130.0	0.0593	Open
P9391	J66_48	J67_48	145.00	150.0	125.0	0.0991	Open
P9392	J66_49	J66_50	145.00	100.0	135.0	0.0127	Open
P9393	J66_49	J67_49	145.00	100.0	135.0	0.1280	Open
P9394	J66_50	J66_51	145.00	200.0	130.0	0.1033	Open
P9395	J66_50	J67_50	145.00	150.0	130.0	0.0781	Open
P9396	J66_51	J66_52	145.00	350.0	120.0	0.0458	Open
P9397	J66_51	J67_51	145.00	400.0	120.0	0.0035	Open
P9398	J66_52	J66_53	145.00	100.0	130.0	0.0273	Open
P9399	J66_52	J67_52	145.00	200.0	125.0	0.0844	Open
P9400	J66_53	J66_54	145.00	200.0	140.0	0.0965	Open
P9401	J66_53	J67_53	145.00	250.0	130.0	0.0289	Open
P9402	J66_54	J66_55	145.00	150.0	140.0	0.0474	Open
P9403	J66_54	J67_54	145.00	150.0	140.0	0.0979	Open
P9404	J66_55	J66_56	145.00	200.0	125.0	0.0226	Open
P9405	J66_55	J67_55	145.00	100.0	135.0	0.0145	Open
P9406	J66_56	J66_57	145.00	250.0	140.0	0.0032	Open
P9407	J66_56	J67_56	145.00	250.0	140.0	0.0013	Open
P9408	J66_57	J66_58	145.00	200.0	130.0	0.0820	Open
P9409	J66_57	J67_57	145.00	150.0	130.0	0.0742	Open
P9410	J66_58	J66_59	145.00	300.0	140.0	0.0866	Open
P9411	J66_58	J67_58	145.00	150.0	125.0	0.1061	Open
P9412	J66_59	J66_60	145.00	300.0	135.0	0.1010	Open
P9413	J66_59	J67_59	145.00	150.0	125.0	0.0734	Open
P9414	J66_60	J66_61	145.00	150.0	130.0	0.0029	Open
P9415	J66_60	J67_60	145.00	200.0	135.0	0.1351	Open
P9416	J66_61	J66_62	145.00	300.0	130.0	0.0457	Open
P9417	J66_61	J67_61	145.00	500.0	130.0	0.0079	Open
P9418	J66_62	J66_63	145.00	200.0	125.0	0.0331	Open
P9419	J66_62	J67_62	145.00	250.0	130.0	0.0465	Open
P9420	J66_63	J66_64	145.00	200.0	140.0	0.1251	Open
P9421	J66_63	J67_63	145.00	200.0	130.0	0.1263	Open
P9422	J66_64	J66_65	145.00	300.0	135.0	0.1056	Open
P9423	J66_64	J67_64	145.00	150.0	135.0	0.0464	Open
P9424	J66_65	J66_66	145.00	300.0	135.0	0.0996	Open
P9425	J66_65	J67_65	145.00	200.0	125.0	0.1108	Open
P9426	J66_66	J66_67	145.00	200.0	140.0	0.1188	Open
P9427	J66_66	J67_66	145.00	200.0	140.0	0.1295	Open
P9428	J66_67	J66_68	145.00	300.0	130.0	0.0558	Open
P9429	J66_67	J67_67	145.00	300.0	130.0	0.0247	Open
P9430	J66_68	J66_69	145.00	200.0	135.0	0.0683	Open
P9431	J66_68	J67_68	145.00	100.0	135.0	0.0569	Open
P9432	J66_69	J66_70	145.00	300.0	140.0	0.1003	Open
P9433	J66_69	J67_69	145.00	250.0	135.0	0.0632	Open
P9434	J66_70	J66_71	145.00	200.0	125.0	0.0036	Open
P9435	J66_70	J67_70	145.00	150.0	125.0	0.0038	Open
P9436	J66_71	J66_72	145.00	400.0	130.0	0.0382	Open
P9437	J66_71	J67_71	145.00	600.0	130.0	0.0435	Open
P9438	J66_72	J67_72	145.00	100.0	125.0	0.1383	Open
P9439	J67_1	J67_2	145.00	400.0	130.0	0.0012	Open
P9440	J67_1	J68_1	145.00	450.0	120.0	0.0083	Open
P9441	J67_2	J67_3	145.00	250.0	135.0	0.0926	Open
P9442	J67_2	J68_2	145.00	300.0	125.0	0.0018	Open
P9443	J67_3	J67_4	145.00	250.0	125.0	0.1118	Open
P9444	J67_3	J68_3	145.00	200.0	125.0	0.0304	Open
P9445	J67_4	J67_5	145.00	200.0	135.0	0.0895	Open
P9446	J67_4	J68_4	145.00	250.0	130.0	0.0268	Open
P9447	J67_5	J67_6	145.00	300.0	135.0	0.1289	Open
P9448	J67_5	J68_5	145.00	300.0	135.0	0.0185	Open
P9449	J67_6	J67_7	145.00	150.0	140.0	0.0866	Open
P9450	J67_6	J68_6	145.00	100.0	130.0	0.1246	Open
P9451	J67_7	J67_8	145.00	250.0	130.0	0.1214	Open
P9452	J67_7	J68_7	145.00	100.0	140.0	0.0890	Open
P9453	J67_8	J67_9	145.00	200.0	140.0	0.0248	Open
P9454	J67_8	J68_8	145.00	100.0	135.0	0.1498	Open
P9455	J67_9	J67_10	145.00	300.0	125.0	0.1268	Open
P9456	J67_9	J68_9	145.00	250.0	130.0	0.0545	Open
P9457	J67_10	J67_11	145.00	100.0	130.0	0.1004	Open
P9458	J67_10	J68_10	145.00	300.0	130.0	0.1245	Open
P9459	J67_11	J67_12	145.00	600.0	130.0	0.0343	Open
P9460	J67_11	J68_11	145.00	600.0	130.0	0.0397	Open
P9461	J67_12	J67_13	145.00	300.0	125.0	0.0547	Open
P9462	J67_12	J68_12	145.00	300.0	130.0	0.0861	Open
P9463	J67_13	J67_14	145.00	200.0	135.0	0.1417	Open
P9464	J67_13	J68_13	145.00	200.0	135.0	0.0902	Open
P9465	J67_14	J67_15	145.00	100.0	135.0	0.0762	Open
P9466	J67_14	J68_14	145.00	300.0	125.0	0.1019	Open
P9467	J67_15	J67_16	145.00	100.0	140.0	0.0545	Open
P9468	J67_15	J68_15	145.00	200.0	135.0	0.0472	Open
P9469	J67_16	J67_17	145.00	100.0	135.0	0.1295	Open
P9470	J67_16	J68_16	145.00	100.0	130.0	0.0316	Open
P9471	J67_17	J67_18	145.00	150.0	140.0	0.0794	Open
P9472	J67_17	J68_17	145.00	200.0	135.0	0.0677	Open
P9473	J67_18	J67_19	145.00	200.0	130.0	0.1472	Open
P9474	J67_18	J68_18	145.00	300.0	130.0	0.1252	Open
P9475	J67_19	J67_20	145.00	200.0	140.0	0.1384	Open
P9476	J67_19	J68_19	145.00	200.0	140.0	0.1058	Open
P9477	J67_20	J67_21	145.00	250.0	130.0	0.1140	Open
P9478	J67_20	J68_20	145.00	300.0	125.0	0.0968	Open
P9479	J67_21	J67_22	145.00	600.0	120.0	0.0295	Open
P9480	J67_21	J68_21	145.00	450.0	120.0	0.0122	Open
P9481	J67_22	J67_23	145.00	300.0	140.0	0.0350	Open
P9482	J67_22	J68_22	145.00	200.0	130.0	0.0748	Open
P9483	J67_23	J67_24	145.00	300.0	135.0	0.0039	Open
P9484	J67_23	J68_23	145.00	300.0	125.0	0.0061	Open
P9485	J67_24	J67_25	145.00	300.0	130.0	0.0494	Open
P9486	J67_24	J68_24	145.00	300.0	130.0	0.0532	Open
P9487	J67_25	J67_26	145.00	300.0	125.0	0.0467	Open
P9488	J67_25	J68_25	145.00	300.0	125.0	0.0219	Open
P9489	J67_26	J67_27	145.00	250.0	130.0	0.0126	Open
P9490	J67_26	J68_26	145.00	100.0	140.0	0.1479	Open
P9491	J67_27	J67_28	145.00	300.0	125.0	0.1075	Open
P9492	J67_27	J68_27	145.00	300.0	125.0	0.1035	Open
P9493	J67_28	J67_29	145.00	200.0	125.0	0.1115	Open
P9494	J67_28	J68_28	145.00	100.0	140.0	0.0611	Open
P9495	J67_29	J67_30	145.00	150.0	140.0	0.0113	Open
P9496	J67_29	J68_29	145.00	200.0	135.0	0.0390	Open
P9497	J67_30	J67_31	145.00	150.0	140.0	0.1151	Open
P9498	J67_30	J68_30	145.00	200.0	140.0	0.1021	Open
P9499	J67_31	J67_32	145.00	600.0	130.0	0.0429	Open
P9500	J67_31	J68_31	145.00	500.0	120.0	0.0024	Open
P9501	J67_32	J67_33	145.00	250.0	140.0	0.0749	Open
P9502	J67_32	J68_32	145.00	150.0	125.0	0.0638	Open
P9503	J67_33	J67_34	145.00	250.0	125.0	0.1286	Open
P9504	J67_33	J68_33	145.00	100.0	125.0	0.0661	Open
P9505	J67_34	J67_35	145.00	150.0	130.0	0.0785	Open
P9506	J67_34	J68_34	145.00	300.0	130.0	0.1010	Open
P9507	J67_35	J67_36	145.00	150.0	125.0	0.0408	Open
P9508	J67_35	J68_35	145.00	150.0	125.0	0.0860	Open
P9509	J67_36	J67_37	145.00	200.0	130.0	0.0290	Open
P9510	J67_36	J68_36	145.00	250.0	130.0	0.0146	Open
P9511	J67_37	J67_38	145.00	150.0	130.0	0.1234	Open
P9512	J67_37	J68_37	145.00	200.0	135.0	0.0264	Open
P9513	J67_38	J67_39	145.00	200.0	140.0	0.1342	Open
P9514	J67_38	J68_38	145.00	250.0	135.0	0.0288	Open
P9515	J67_39	J67_40	145.00	150.0	130.0	0.1323	Open
P9516	J67_39	J68_39	145.00	200.0	130.0	0.1463	Open
P9517	J67_40	J67_41	145.00	200.0	130.0	0.0217	Open
P9518	J67_40	J68_40	145.00	200.0	140.0	0.0249	Open
P9519	J67_41	J67_42	145.00	500.0	125.0	0.0265	Open
P9520	J67_41	J68_41	145.00	600.0	130.0	0.0366	Open
P9521	J67_42	J67_43	145.00	100.0	130.0	0.0249	Open
P9522	J67_42	J68_42	145.00	250.0	125.0	0.0885	Open
P9523	J67_43	J67_44	145.00	100.0	140.0	0.0274	Open
P9524	J67_43	J68_43	145.00	200.0	135.0	0.0638	Open
P9525	J67_44	J67_45	145.00	150.0	135.0	0.0519	Open
P9526	J67_44	J68_44	145.00	150.0	135.0	0.1047	Open
P9527	J67_45	J67_46	145.00	100.0	140.0	0.1046	Open
P9528	J67_45	J68_45	145.00	150.0	140.0	0.0405	Open
P9529	J67_46	J67_47	145.00	250.0	125.0	0.1241	Open
P9530	J67_46	J68_46	145.00	250.0	140.0	0.1034	Open
P9531	J67_47	J67_48	145.00	300.0	135.0	0.0601	Open
P9532	J67_47	J68_47	145.00	200.0	130.0	0.0272	Open
P9533	J67_48	J67_49	145.00	250.0	135.0	0.1220	Open
P9534	J67_48	J68_48	145.00	300.0	125.0	0.0076	Open
P9535	J67_49	J67_50	145.00	100.0	135.0	0.1372	Open
P9536	J67_49	J68_49	145.00	300.0	125.0	0.0604	Open
P9537	J67_50	J67_51	145.00	300.0	135.0	0.1412	Open
P9538	J67_50	J68_50	145.00	200.0	130.0	0.0479	Open
P9539	J67_51	J67_52	145.00	400.0	125.0	0.0003	Open
P9540	J67_51	J68_51	145.00	500.0	125.0	0.0249	Open
P9541	J67_52	J67_53	145.00	100.0	140.0	0.0971	Open
P9542	J67_52	J68_52	145.00	200.0	140.0	0.1280	Open
P9543	J67_53	J67_54	145.00	100.0	135.0	0.1475	Open
P9544	J67_53	J68_53	145.00	200.0	130.0	0.1152	Open
P9545	J67_54	J67_55	145.00	300.0	140.0	0.0601	Open
P9546	J67_54	J68_54	145.00	300.0	125.0	0.1258	Open
P9547	J67_55	J67_56	145.00	100.0	140.0	0.0765	Open
P9548	J67_55	J68_55	145.00	200.0	125.0	0.0329	Open
P9549	J67_56	J67_57	145.00	150.0	135.0	0.0579	Open
P9550	J67_56	J68_56	145.00	300.0	130.0	0.0144	Open
P9551	J67_57	J67_58	145.00	300.0	130.0	0.0864	Open
P9552	J67_57	J68_57	145.00	100.0	135.0	0.0250	Open
P9553	J67_58	J67_59	145.00	200.0	125.0	0.0997	Open
P9554	J67_58	J68_58	145.00	150.0	140.0	0.0845	Open
P9555	J67_59	J67_60	145.00	200.0	135.0	0.1387	Open
P9556	J67_59	J68_59	145.00	300.0	135.0	0.0275	Open
P9557	J67_60	J67_61	145.00	300.0	130.0	0.0754	Open
P9558	J67_60	J68_60	145.00	300.0	125.0	0.1076	Open
P9559	J67_61	J67_62	145.00	600.0	120.0	0.0006	Open
P9560	J67_61	J68_61	145.00	350.0	130.0	0.0036	Open
P9561	J67_62	J67_63	145.00	150.0	130.0	0.1140	Open
P9562	J67_62	J68_62	145.00	200.0	130.0	0.0879	Open
P9563	J67_63	J67_64	145.00	150.0	130.0	0.1211	Open
P9564	J67_63	J68_63	145.00	150.0	140.0	0.1314	Open
P9565	J67_64	J67_65	145.00	100.0	130.0	0.1113	Open
P9566	J67_64	J68_64	145.00	300.0	140.0	0.0270	Open
P9567	J67_65	J67_66	145.00	150.0	125.0	0.0665	Open
P9568	J67_65	J68_65	145.00	200.0	135.0	0.0266	Open
P9569	J67_66	J67_67	145.00	100.0	130.0	0.1283	Open
P9570	J67_66	J68_66	145.00	150.0	135.0	0.1076	Open
P9571	J67_67	J67_68	145.00	100.0	140.0	0.1157	Open
P9572	J67_67	J68_67	145.00	100.0	125.0	0.1292	Open
P9573	J67_68	J67_69	145.00	200.0	130.0	0.1397	Open
P9574	J67_68	J68_68	145.00	250.0	130.0	0.0950	Open
P9575	J67_69	J67_70	145.00	250.0	135.0	0.1048	Open
P9576	J67_69	J68_69	145.00	200.0	130.0	0.0671	Open
P9577	J67_70	J67_71	145.00	150.0	130.0	0.0018	Open
P9578	J67_70	J68_70	145.00	150.0	125.0	0.0094	Open
P9579	J67_71	J67_72	145.00	400.0	120.0	0.0064	Open
P9580	J67_71	J68_71	145.00	600.0	125.0	0.0398	Open
P9581	J67_72	J68_72	145.00	300.0	125.0	0.0747	Open
P9582	J68_1	J68_2	145.00	350.0	120.0	0.0318	Open
P9583	J68_1	J69_1	145.00	300.0	125.0	0.0184	Open
P9584	J68_2	J68_3	145.00	100.0	130.0	0.0557	Open
P9585	J68_2	J69_2	145.00	300.0	125.0	0.0025	Open
P9586	J68_3	J68_4	145.00	300.0	140.0	0.0439	Open
P9587	J68_3	J69_3	145.00	200.0	140.0	0.1373	Open
P9588	J68_4	J68_5	145.00	300.0	130.0	0.1279	Open
P9589	J68_4	J69_4	145.00	300.0	140.0	0.1024	Open
P9590	J68_5	J68_6	145.00	250.0	125.0	0.0950	Open
P9591	J68_5	J69_5	145.00	250.0	140.0	0.1265	Open
P9592	J68_6	J68_7	145.00	300.0	135.0	0.1249	Open
P9593	J68_6	J69_6	145.00	250.0	140.0	0.0889	Open
P9594	J68_7	J68_8	145.00	100.0	140.0	0.1220	Open
P9595	J68_7	J69_7	145.00	250.0	130.0	0.0286	Open
P9596	J68_8	J68_9	145.00	250.0	125.0	0.1070	Open
P9597	J68_8	J69_8	145.00	150.0	135.0	0.0807	Open
P9598	J68_9	J68_10	145.00	150.0	135.0	0.0790	Open
P9599	J68_9	J69_9	145.00	300.0	130.0	0.0700	Open
P9600	J68_10	J68_11	145.00	100.0	140.0	0.1277	Open
P9601	J68_10	J69_10	145.00	200.0	125.0	0.0697	Open
P9602	J68_11	J68_12	145.00	500.0	130.0	0.0440	Open
P9603	J68_11	J69_11	145.00	350.0	130.0	0.0086	Open
P9604	J68_12	J68_13	145.00	100.0	140.0	0.1467	Open
P9605	J68_12	J69_12	145.00	300.0	135.0	0.0587	Open
P9606	J68_13	J68_14	145.00	100.0	125.0	0.0988	Open
P9607	J68_13	J69_13	145.00	100.0	130.0	0.0070	Open
P9608	J68_14	J68_15	145.00	100.0	140.0	0.1319	Open
P9609	J68_14	J69_14	145.00	150.0	140.0	0.0415	Open
P9610	J68_15	J68_16	145.00	100.0	140.0	0.0259	Open
P9611	J68_15	J69_15	145.00	100.0	125.0	0.0240	Open
P9612	J68_16	J68_17	145.00	150.0	130.0	0.0427	Open
P9613	J68_16	J69_16	145.00	300.0	135.0	0.1227	Open
P9614	J68_17	J68_18	145.00	100.0	135.0	0.1135	Open
P9615	J68_17	J69_17	145.00	100.0	125.0	0.0914	Open
P9616	J68_18	J68_19	145.00	300.0	135.0	0.0166	Open
P9617	J68_18	J69_18	145.00	200.0	125.0	0.0814	Open
P9618	J68_19	J68_20	145.00	150.0	130.0	0.0220	Open
P9619	J68_19	J69_19	145.00	100.0	130.0	0.0499	Open
P9620	J68_20	J68_21	145.00	150.0	135.0	0.1056	Open
P9621	J68_20	J69_20	145.00	250.0	140.0	0.1070	Open
P9622	J68_21	J68_22	145.00	500.0	125.0	0.0042	Open
P9623	J68_21	J69_21	145.00	450.0	125.0	0.0070	Open
P9624	J68_22	J68_23	145.00	250.0	140.0	0.0802	Open
P9625	J68_22	J69_22	145.00	250.0	130.0	0.0873	Open
P9626	J68_23	J68_24	145.00	250.0	135.0	0.0693	Open
P9627	J68_23	J69_23	145.00	150.0	130.0	0.0419	Open
P9628	J68_24	J68_25	145.00	250.0	125.0	0.0776	Open
P9629	J68_24	J69_24	145.00	100.0	130.0	0.0512	Open
P9630	J68_25	J68_26	145.00	250.0	130.0	0.0271	Open
P9631	J68_25	J69_25	145.00	150.0	135.0	0.1154	Open
P9632	J68_26	J68_27	145.00	150.0	135.0	0.0882	Open
P9633	J68_26	J69_26	145.00	250.0	135.0	0.1275	Open
P9634	J68_27	J68_28	145.00	150.0	135.0	0.1208	Open
P9635	J68_27	J69_27	145.00	300.0	135.0	0.1411	Open
P9636	J68_28	J68_29	145.00	150.0	130.0	0.1117	Open
P9637	J68_28	J69_28	145.00	200.0	130.0	0.0348	Open
P9638	J68_29	J68_30	145.00	300.0	135.0	0.0671	Open
P9639	J68_29	J69_29	145.00	250.0	135.0	0.0376	Open
P9640	J68_30	J68_31	145.00	100.0	135.0	0.0335	Open
P9641	J68_30	J69_30	145.00	150.0	140.0	0.1367	Open
P9642	J68_31	J68_32	145.00	450.0	125.0	0.0417	Open
P9643	J68_31	J69_31	145.00	500.0	125.0	0.0229	Open
P9644	J68_32	J68_33	145.00	150.0	135.0	0.0639	Open
P9645	J68_32	J69_32	145.00	250.0	125.0	0.0343	Open
P9646	J68_33	J68_34	145.00	200.0	140.0	0.1322	Open
P9647	J68_33	J69_33	145.00	150.0	135.0	0.1243	Open
P9648	J68_34	J68_35	145.00	150.0	135.0	0.1128	Open
P9649	J68_34	J69_34	145.00	250.0	130.0	0.0309	Open
P9650	J68_35	J68_36	145.00	200.0	125.0	0.0884	Open
P9651	J68_35	J69_35	145.00	200.0	125.0	0.0624	Open
P9652	J68_36	J68_37	145.00	150.0	130.0	0.0993	Open
P9653	J68_36	J69_36	145.00	200.0	135.0	0.1148	Open
P9654	J68_37	J68_38	145.00	200.0	125.0	0.0647	Open
P9655	J68_37	J69_37	145.00	150.0	135.0	0.0542	Open
P9656	J68_38	J68_39	145.00	150.0	140.0	0.1002	Open
P9657	J68_38	J69_38	145.00	100.0	130.0	0.0979	Open
P9658	J68_39	J68_40	145.00	200.0	140.0	0.0227	Open
P9659	J68_39	J69_39	145.00	150.0	140.0	0.1269	Open
P9660	J68_40	J68_41	145.00	150.0	125.0	0.0948	Open
P9661	J68_40	J69_40	145.00	100.0	125.0	0.1256	Open
P9662	J68_41	J68_42	145.00	300.0	120.0	0.0361	Open
P9663	J68_41	J69_41	145.00	500.0	125.0	0.0227	Open
P9664	J68_42	J68_43	145.00	200.0	140.0	0.1070	Open
P9665	J68_42	J69_42	145.00	300.0	140.0	0.0041	Open
P9666	J68_43	J68_44	145.00	200.0	125.0	0.1492	Open
P9667	J68_43	J69_43	145.00	200.0	125.0	0.0822	Open
P9668	J68_44	J68_45	145.00	300.0	130.0	0.0485	Open
P9669	J68_44	J69_44	145.00	200.0	135.0	0.0827	Open
P9670	J68_45	J68_46	145.00	150.0	125.0	0.0683	Open
P9671	J68_45	J69_45	145.00	200.0	140.0	0.0664	Open
P9672	J68_46	J68_47	145.00	200.0	130.0	0.0521	Open
P9673	J68_46	J69_46	145.00	300.0	125.0	0.0259	Open
P9674	J68_47	J68_48	145.00	150.0	140.0	0.0222	Open
P9675	J68_47	J69_47	145.00	300.0	125.0	0.0428	Open
P9676	J68_48	J68_49	145.00	250.0	135.0	0.0434	Open
P9677	J68_48	J69_48	145.00	150.0	125.0	0.0047	Open
P9678	J68_49	J68_50	145.00	150.0	130.0	0.0243	Open
P9679	J68_49	J69_49	145.00	300.0	135.0	0.1484	Open
P9680	J68_50	J68_51	145.00	250.0	140.0	0.1114	Open
P9681	J68_50	J69_50	145.00	150.0	140.0	0.0087	Open
P9682	J68_51	J68_52	145.00	600.0	130.0	0.0360	Open
P9683	J68_51	J69_51	145.00	300.0	125.0	0.0175	Open
P9684	J68_52	J68_53	145.00	200.0	130.0	0.0956	Open
P9685	J68_52	J69_52	145.00	100.0	135.0	0.1377	Open
P9686	J68_53	J68_54	145.00	100.0	135.0	0.0669	Open
P9687	J68_53	J69_53	145.00	250.0	135.0	0.0032	Open
P9688	J68_54	J68_55	145.00	300.0	135.0	0.0782	Open
P9689	J68_54	J69_54	145.00	200.0	130.0	0.0846	Open
P9690	J68_55	J68_56	145.00	100.0	130.0	0.0845	Open
P9691	J68_55	J69_55	145.00	250.0	135.0	0.1438	Open
P9692	J68_56	J68_57	145.00	100.0	135.0	0.1133	Open
P9693	J68_56	J69_56	145.00	100.0	125.0	0.1424	Open
P9694	J68_57	J68_58	145.00	100.0	140.0	0.0916	Open
P9695	J68_57	J69_57	145.00	300.0	135.0	0.0318	Open
P9696	J68_58	J68_59	145.00	200.0	125.0	0.0394	Open
P9697	J68_58	J69_58	145.00	250.0	140.0	0.0600	Open
P9698	J68_59	J68_60	145.00	100.0	140.0	0.1184	Open
P9699	J68_59	J69_59	145.00	300.0	130.0	0.0353	Open
P9700	J68_60	J68_61	145.00	100.0	135.0	0.0115	Open
P9701	J68_60	J69_60	145.00	100.0	130.0	0.1420	Open
P9702	J68_61	J68_62	145.00	300.0	125.0	0.0027	Open
P9703	J68_61	J69_61	145.00	450.0	130.0	0.0269	Open
P9704	J68_62	J68_63	145.00	250.0	130.0	0.1262	Open
P9705	J68_62	J69_62	145.00	300.0	140.0	0.0126	Open
P9706	J68_63	J68_64	145.00	150.0	135.0	0.0589	Open
P9707	J68_63	J69_63	145.00	250.0	140.0	0.0966	Open
P9708	J68_64	J68_65	145.00	150.0	125.0	0.0387	Open
P9709	J68_64	J69_64	145.00	200.0	135.0	0.0721	Open
P9710	J68_65	J68_66	145.00	250.0	135.0	0.0372	Open
P9711	J68_65	J69_65	145.00	250.0	125.0	0.0591	Open
P9712	J68_66	J68_67	145.00	200.0	135.0	0.0011	Open
P9713	J68_66	J69_66	145.00	150.0	125.0	0.0604	Open
P9714	J68_67	J68_68	145.00	200.0	130.0	0.1110	Open
P9715	J68_67	J69_67	145.00	300.0	130.0	0.0656	Open
P9716	J68_68	J68_69	145.00	100.0	130.0	0.0951	Open
P9717	J68_68	J69_68	145.00	300.0	130.0	0.0112	Open
P9718	J68_69	J68_70	145.00	250.0	130.0	0.0434	Open
P9719	J68_69	J69_69	145.00	100.0	125.0	0.0224	Open
P9720	J68_70	J68_71	145.00	250.0	135.0	0.0345	Open
P9721	J68_70	J69_70	145.00	300.0	125.0	0.0603	Open
P9722	J68_71	J68_72	145.00	400.0	125.0	0.0006	Open
P9723	J68_71	J69_71	145.00	500.0	125.0	0.0207	Open
P9724	J68_72	J69_72	145.00	250.0	125.0	0.0608	Open
P9725	J69_1	J69_2	145.00	450.0	130.0	0.0221	Open
P9726	J69_1	J70_1	145.00	500.0	130.0	0.0219	Open
P9727	J69_2	J69_3	145.00	300.0	140.0	0.0559	Open
P9728	J69_2	J70_2	145.00	100.0	135.0	0.0423	Open
P9729	J69_3	J69_4	145.00	250.0	135.0	0.0542	Open
P9730	J69_3	J70_3	145.00	150.0	140.0	0.0029	Open
P9731	J69_4	J69_5	145.00	150.0	125.0	0.0794	Open
P9732	J69_4	J70_4	145.00	150.0	130.0	0.0992	Open
P9733	J69_5	J69_6	145.00	200.0	135.0	0.1475	Open
P9734	J69_5	J70_5	145.00	250.0	135.0	0.0222	Open
P9735	J69_6	J69_7	145.00	200.0	130.0	0.0970	Open
P9736	J69_6	J70_6	145.00	200.0	135.0	0.0412	Open
P9737	J69_7	J69_8	145.00	100.0	125.0	0.1254	Open
P9738	J69_7	J70_7	145.00	150.0	125.0	0.0791	Open
P9739	J69_8	J69_9	145.00	300.0	125.0	0.0543	Open
P9740	J69_8	J70_8	145.00	300.0	135.0	0.0675	Open
P9741	J69_9	J69_10	145.00	250.0	130.0	0.0151	Open
P9742	J69_9	J70_9	145.00	200.0	130.0	0.0459	Open
P9743	J69_10	J69_11	145.00	100.0	130.0	0.1323	Open
P9744	J69_10	J70_10	145.00	100.0	125.0	0.0194	Open
P9745	J69_11	J69_12	145.00	400.0	125.0	0.0418	Open
P9746	J69_11	J70_11	145.00	500.0	125.0	0.0239	Open
P9747	J69_12	J69_13	145.00	150.0	125.0	0.1462	Open
P9748	J69_12	J70_12	145.00	100.0	140.0	0.1253	Open
P9749	J69_13	J69_14	145.00	200.0	125.0	0.0496	Open
P9750	J69_13	J70_13	145.00	200.0	140.0	0.0016	Open
P9751	J69_14	J69_15	145.00	150.0	135.0	0.0017	Open
P9752	J69_14	J70_14	145.00	150.0	140.0	0.0419	Open
P9753	J69_15	J69_16	145.00	100.0	125.0	0.0229	Open
P9754	J69_15	J70_15	145.00	200.0	135.0	0.0422	Open
P9755	J69_16	J69_17	145.00	250.0	135.0	0.1273	Open
P9756	J69_16	J70_16	145.00	150.0	130.0	0.0254	Open
P9757	J69_17	J69_18	145.00	300.0	130.0	0.1185	Open
P9758	J69_17	J70_17	145.00	200.0	130.0	0.0570	Open
P9759	J69_18	J69_19	145.00	300.0	130.0	0.0198	Open
P9760	J69_18	J70_18	145.00	250.0	125.0	0.0392	Open
P9761	J69_19	J69_20	145.00	300.0	130.0	0.0931	Open
P9762	J69_19	J70_19	145.00	200.0	135.0	0.0829	Open
P9763	J69_20	J69_21	145.00	150.0	135.0	0.0951	Open
P9764	J69_20	J70_20	145.00	300.0	125.0	0.1133	Open
P9765	J69_21	J69_22	145.00	400.0	125.0	0.0350	Open
P9766	J69_21	J70_21	145.00	600.0	120.0	0.0137	Open
P9767	J69_22	J69_23	145.00	250.0	140.0	0.0833	Open
P9768	J69_22	J70_22	145.00	100.0	125.0	0.0979	Open
P9769	J69_23	J69_24	145.00	200.0	125.0	0.1087	Open
P9770	J69_23	J70_23	145.00	150.0	125.0	0.0379	Open
P9771	J69_24	J69_25	145.00	100.0	130.0	0.0492	Open
P9772	J69_24	J70_24	145.00	100.0	125.0	0.0209	Open
P9773	J69_25	J69_26	145.00	250.0	130.0	0.1179	Open
P9774	J69_25	J70_25	145.00	200.0	130.0	0.0347	Open
P9775	J69_26	J69_27	145.00	150.0	130.0	0.0705	Open
P9776	J69_26	J70_26	145.00	150.0	130.0	0.0000	Open
P9777	J69_27	J69_28	145.00	200.0	130.0	0.0067	Open
P9778	J69_27	J70_27	145.00	200.0	135.0	0.0323	Open
P9779	J69_28	J69_29	145.00	250.0	125.0	0.0669	Open
P9780	J69_28	J70_28	145.00	250.0	140.0	0.1339	Open
P9781	J69_29	J69_30	145.00	200.0	125.0	0.0091	Open
P9782	J69_29	J70_29	145.00	300.0	140.0	0.0462	Open
P9783	J69_30	J69_31	145.00	150.0	125.0	0.0565	Open
P9784	J69_30	J70_30	145.00	100.0	130.0	0.1093	Open
P9785	J69_31	J69_32	145.00	400.0	125.0	0.0403	Open
P9786	J69_31	J70_31	145.00	500.0	125.0	0.0466	Open
P9787	J69_32	J69_33	145.00	300.0	125.0	0.0952	Open
P9788	J69_32	J70_32	145.00	150.0	135.0	0.0923	Open
P9789	J69_33	J69_34	145.00	250.0	135.0	0.0923	Open
P9790	J69_33	J70_33	145.00	100.0	125.0	0.1193	Open
P9791	J69_34	J69_35	145.00	300.0	125.0	0.0993	Open
P9792	J69_34	J70_34	145.00	250.0	130.0	0.0987	Open
P9793	J69_35	J69_36	145.00	300.0	125.0	0.1018	Open
P9794	J69_35	J70_35	145.00	200.0	130.0	0.1213	Open
P9795	J69_36	J69_37	145.00	150.0	135.0	0.0247	Open
P9796	J69_36	J70_36	145.00	200.0	125.0	0.0837	Open
P9797	J69_37	J69_38	145.00	100.0	140.0	0.0012	Open
P9798	J69_37	J70_37	145.00	250.0	135.0	0.0068	Open
P9799	J69_38	J69_39	145.00	250.0	135.0	0.1381	Open
P9800	J69_38	J70_38	145.00	300.0	125.0	0.0745	Open
P9801	J69_39	J69_40	145.00	250.0	140.0	0.1279	Open
P9802	J69_39	J70_39	145.00	250.0	135.0	0.0247	Open
P9803	J69_40	J69_41	145.00	200.0	130.0	0.0410	Open
P9804	J69_40	J70_40	145.00	150.0	130.0	0.0405	Open
P9805	J69_41	J69_42	145.00	600.0	130.0	0.0287	Open
P9806	J69_41	J70_41	145.00	500.0	130.0	0.0459	Open
P9807	J69_42	J69_43	145.00	150.0	130.0	0.1256	Open
P9808	J69_42	J70_42	145.00	200.0	140.0	0.0923	Open
P9809	J69_43	J69_44	145.00	150.0	140.0	0.1057	Open
P9810	J69_43	J70_43	145.00	300.0	140.0	0.1211	Open
P9811	J69_44	J69_45	145.00	250.0	130.0	0.0835	Open
P9812	J69_44	J70_44	145.00	100.0	125.0	0.1458	Open
P9813	J69_45	J69_46	145.00	200.0	140.0	0.1415	Open
P9814	J69_45	J70_45	145.00	150.0	135.0	0.0063	Open
P9815	J69_46	J69_47	145.00	100.0	125.0	0.0785	Open
P9816	J69_46	J70_46	145.00	100.0	140.0	0.0278	Open
P9817	J69_47	J69_48	145.00	150.0	135.0	0.0883	Open
P9818	J69_47	J70_47	145.00	300.0	125.0	0.0302	Open
P9819	J69_48	J69_49	145.00	200.0	140.0	0.0078	Open
P9820	J69_48	J70_48	145.00	100.0	125.0	0.0553	Open
P9821	J69_49	J69_50	145.00	150.0	140.0	0.0793	Open
P9822	J69_49	J70_49	145.00	300.0	140.0	0.0848	Open
P9823	J69_50	J69_51	145.00	250.0	135.0	0.0321	Open
P9824	J69_50	J70_50	145.00	150.0	135.0	0.0214	Open
P9825	J69_51	J69_52	145.00	450.0	130.0	0.0160	Open
P9826	J69_51	J70_51	145.00	350.0	130.0	0.0125	Open
P9827	J69_52	J69_53	145.00	300.0	125.0	0.0561	Open
P9828	J69_52	J70_52	145.00	150.0	135.0	0.0547	Open
P9829	J69_53	J69_54	145.00	100.0	130.0	0.0966	Open
P9830	J69_53	J70_53	145.00	150.0	130.0	0.0290	Open
P9831	J69_54	J69_55	145.00	200.0	140.0	0.0690	Open
P9832	J69_54	J70_54	145.00	250.0	135.0	0.0864	Open
P9833	J69_55	J69_56	145.00	250.0	140.0	0.1113	Open
P9834	J69_55	J70_55	145.00	100.0	130.0	0.0301	Open
P9835	J69_56	J69_57	145.00	300.0	140.0	0.0219	Open
P9836	J69_56	J70_56	145.00	200.0	125.0	0.0877	Open
P9837	J69_57	J69_58	145.00	250.0	140.0	0.0247	Open
P9838	J69_57	J70_57	145.00	250.0	130.0	0.0225	Open
P9839	J69_58	J69_59	145.00	150.0	125.0	0.0321	Open
P9840	J69_58	J70_58	145.00	300.0	140.0	0.0237	Open
P9841	J69_59	J69_60	145.00	300.0	125.0	0.0410	Open
P9842	J69_59	J70_59	145.00	300.0	140.0	0.0555	Open
P9843	J69_60	J69_61	145.00	150.0	140.0	0.0729	Open
P9844	J69_60	J70_60	145.00	150.0	140.0	0.0440	Open
P9845	J69_61	J69_62	145.00	350.0	125.0	0.0271	Open
P9846	J69_61	J70_61	145.00	350.0	130.0	0.0035	Open
P9847	J69_62	J69_63	145.00	300.0	140.0	0.1121	Open
P9848	J69_62	J70_62	145.00	150.0	125.0	0.0162	Open
P9849	J69_63	J69_64	145.00	150.0	130.0	0.0334	Open
P9850	J69_63	J70_63	145.00	150.0	135.0	0.0745	Open
P9851	J69_64	J69_65	145.00	100.0	140.0	0.0134	Open
P9852	J69_64	J70_64	145.00	300.0	140.0	0.0449	Open
P9853	J69_65	J69_66	145.00	200.0	130.0	0.1198	Open
P9854	J69_65	J70_65	145.00	200.0	135.0	0.0644	Open
P9855	J69_66	J69_67	145.00	100.0	135.0	0.0280	Open
P9856	J69_66	J70_66	145.00	200.0	135.0	0.0956	Open
P9857	J69_67	J69_68	145.00	250.0	130.0	0.0901	Open
P9858	J69_67	J70_67	145.00	250.0	140.0	0.0543	Open
P9859	J69_68	J69_69	145.00	250.0	135.0	0.0717	Open
P9860	J69_68	J70_68	145.00	250.0	140.0	0.0139	Open
P9861	J69_69	J69_70	145.00	250.0	135.0	0.0764	Open
P9862	J69_69	J70_69	145.00	150.0	125.0	0.1397	Open
P9863	J69_70	J69_71	145.00	200.0	125.0	0.0759	Open
P9864	J69_70	J70_70	145.00	100.0	135.0	0.1294	Open
P9865	J69_71	J69_72	145.00	600.0	120.0	0.0131	Open
P9866	J69_71	J70_71	145.00	450.0	120.0	0.0126	Open
P9867	J69_72	J70_72	145.00	300.0	140.0	0.1494	Open
P9868	J70_1	J70_2	145.00	450.0	130.0	0.0258	Open
P9869	J70_1	J71_1	145.00	350.0	125.0	0.0474	Open
P9870	J70_2	J70_3	145.00	250.0	125.0	0.0810	Open
P9871	J70_2	J71_2	145.00	150.0	135.0	0.0062	Open
P9872	J70_3	J70_4	145.00	100.0	140.0	0.0479	Open
P9873	J70_3	J71_3	145.00	300.0	140.0	0.1289	Open
P9874	J70_4	J70_5	145.00	250.0	140.0	0.0580	Open
P9875	J70_4	J71_4	145.00	150.0	130.0	0.0289	Open
P9876	J70_5	J70_6	145.00	300.0	130.0	0.0556	Open
P9877	J70_5	J71_5	145.00	150.0	125.0	0.0760	Open
P9878	J70_6	J70_7	145.00	250.0	140.0	0.0727	Open
P9879	J70_6	J71_6	145.00	150.0	130.0	0.0850	Open
P9880	J70_7	J70_8	145.00	250.0	140.0	0.0193	Open
P9881	J70_7	J71_7	145.00	150.0	125.0	0.0327	Open
P9882	J70_8	J70_9	145.00	150.0	125.0	0.1451	Open
P9883	J70_8	J71_8	145.00	300.0	130.0	0.0484	Open
P9884	J70_9	J70_10	145.00	300.0	140.0	0.0963	Open
P9885	J70_9	J71_9	145.00	200.0	130.0	0.0654	Open
P9886	J70_10	J70_11	145.00	250.0	130.0	0.0262	Open
P9887	J70_10	J71_10	145.00	150.0	135.0	0.1278	Open
P9888	J70_11	J70_12	145.00	500.0	125.0	0.0068	Open
P9889	J70_11	J71_11	145.00	450.0	130.0	0.0058	Open
P9890	J70_12	J70_13	145.00	250.0	130.0	0.0768	Open
P9891	J70_12	J71_12	145.00	300.0	125.0	0.0433	Open
P9892	J70_13	J70_14	145.00	200.0	130.0	0.1190	Open
P9893	J70_13	J71_13	145.00	300.0	130.0	0.0106	Open
P9894	J70_14	J70_15	145.00	300.0	130.0	0.0917	Open
P9895	J70_14	J71_14	145.00	200.0	140.0	0.1260	Open
P9896	J70_15	J70_16	145.00	100.0	135.0	0.0244	Open
P9897	J70_15	J71_15	145.00	150.0	125.0	0.1103	Open
P9898	J70_16	J70_17	145.00	200.0	140.0	0.0709	Open
P9899	J70_16	J71_16	145.00	250.0	135.0	0.1207	Open
P9900	J70_17	J70_18	145.00	300.0	135.0	0.0799	Open
P9901	J70_17	J71_17	145.00	100.0	135.0	0.0473	Open
P9902	J70_18	J70_19	145.00	150.0	140.0	0.0139	Open
P9903	J70_18	J71_18	145.00	150.0	130.0	0.1192	Open
P9904	J70_19	J70_20	145.00	200.0	125.0	0.0911	Open
P9905	J70_19	J71_19	145.00	200.0	135.0	0.1250	Open
P9906	J70_20	J70_21	145.00	150.0	125.0	0.0718	Open
P9907	J70_20	J71_20	145.00	200.0	125.0	0.1064	Open
P9908	J70_21	J70_22	145.00	350.0	125.0	0.0098	Open
P9909	J70_21	J71_21	145.00	350.0	120.0	0.0275	Open
P9910	J70_22	J70_23	145.00	150.0	125.0	0.0466	Open
P9911	J70_22	J71_22	145.00	300.0	140.0	0.0067	Open
P9912	J70_23	J70_24	145.00	200.0	140.0	0.0454	Open
P9913	J70_23	J71_23	145.00	150.0	135.0	0.0446	Open
P9914	J70_24	J70_25	145.00	100.0	125.0	0.1076	Open
P9915	J70_24	J71_24	145.00	250.0	130.0	0.0989	Open
P9916	J70_25	J70_26	145.00	200.0	125.0	0.0671	Open
P9917	J70_25	J71_25	145.00	300.0	135.0	0.1029	Open
P9918	J70_26	J70_27	145.00	200.0	130.0	0.0989	Open
P9919	J70_26	J71_26	145.00	150.0	130.0	0.0193	Open
P9920	J70_27	J70_28	145.00	200.0	130.0	0.0676	Open
P9921	J70_27	J71_27	145.00	100.0	140.0	0.0915	Open
P9922	J70_28	J70_29	145.00	200.0	140.0	0.0608	Open
P9923	J70_28	J71_28	145.00	150.0	135.0	0.0538	Open
P9924	J70_29	J70_30	145.00	100.0	135.0	0.1118	Open
P9925	J70_29	J71_29	145.00	150.0	130.0	0.0414	Open
P9926	J70_30	J70_31	145.00	200.0	130.0	0.1164	Open
P9927	J70_30	J71_30	145.00	200.0	135.0	0.0119	Open
P9928	J70_31	J70_32	145.00	450.0	120.0	0.0292	Open
P9929	J70_31	J71_31	145.00	500.0	120.0	0.0411	Open
P9930	J70_32	J70_33	145.00	200.0	125.0	0.1310	Open
P9931	J70_32	J71_32	145.00	300.0	130.0	0.0932	Open
P9932	J70_33	J70_34	145.00	300.0	130.0	0.0432	Open
P9933	J70_33	J71_33	145.00	300.0	125.0	0.0233	Open
P9934	J70_34	J70_35	145.00	200.0	125.0	0.0909	Open
P9935	J70_34	J71_34	145.00	100.0	135.0	0.0936	Open
P9936	J70_35	J70_36	145.00	200.0	140.0	0.0368	Open
P9937	J70_35	J71_35	145.00	200.0	125.0	0.1429	Open
P9938	J70_36	J70_37	145.00	250.0	140.0	0.0713	Open
P9939	J70_36	J71_36	145.00	300.0	125.0	0.0141	Open
P9940	J70_37	J70_38	145.00	100.0	125.0	0.0841	Open
P9941	J70_37	J71_37	145.00	100.0	135.0	0.0307	Open
P9942	J70_38	J70_39	145.00	250.0	125.0	0.0705	Open
P9943	J70_38	J71_38	145.00	300.0	135.0	0.1256	Open
P9944	J70_39	J70_40	145.00	250.0	125.0	0.0099	Open
P9945	J70_39	J71_39	145.00	300.0	125.0	0.0582	Open
P9946	J70_40	J70_41	145.00	100.0	140.0	0.0870	Open
P9947	J70_40	J71_40	145.00	200.0	140.0	0.1154	Open
P9948	J70_41	J70_42	145.00	400.0	130.0	0.0414	Open
P9949	J70_41	J71_41	145.00	350.0	120.0	0.0333	Open
P9950	J70_42	J70_43	145.00	200.0	130.0	0.0804	Open
P9951	J70_42	J71_42	145.00	250.0	130.0	0.0597	Open
P9952	J70_43	J70_44	145.00	100.0	130.0	0.0159	Open
P9953	J70_43	J71_43	145.00	300.0	140.0	0.0105	Open
P9954	J70_44	J70_45	145.00	200.0	140.0	0.1161	Open
P9955	J70_44	J71_44	145.00	250.0	130.0	0.1263	Open
P9956	J70_45	J70_46	145.00	150.0	125.0	0.1367	Open
P9957	J70_45	J71_45	145.00	100.0	135.0	0.0623	Open
P9958	J70_46	J70_47	145.00	150.0	125.0	0.1012	Open
P9959	J70_46	J71_46	145.00	250.0	140.0	0.0004	Open
P9960	J70_47	J70_48	145.00	150.0	130.0	0.0408	Open
P9961	J70_47	J71_47	145.00	200.0	140.0	0.1467	Open
P9962	J70_48	J70_49	145.00	100.0	130.0	0.0555	Open
P9963	J70_48	J71_48	145.00	150.0	125.0	0.0717	Open
P9964	J70_49	J70_50	145.00	250.0	125.0	0.1309	Open
P9965	J70_49	J71_49	145.00	200.0	130.0	0.1475	Open
P9966	J70_50	J70_51	145.00	250.0	125.0	0.0952	Open
P9967	J70_50	J71_50	145.00	100.0	125.0	0.1153	Open
P9968	J70_51	J70_52	145.00	400.0	120.0	0.0214	Open
P9969	J70_51	J71_51	145.00	300.0	130.0	0.0115	Open
P9970	J70_52	J70_53	145.00	150.0	135.0	0.1484	Open
P9971	J70_52	J71_52	145.00	250.0	140.0	0.0645	Open
P9972	J70_53	J70_54	145.00	200.0	135.0	0.0770	Open
P9973	J70_53	J71_53	145.00	100.0	135.0	0.0625	Open
P9974	J70_54	J70_55	145.00	100.0	135.0	0.1395	Open
P9975	J70_54	J71_54	145.00	200.0	140.0	0.1021	Open
P9976	J70_55	J70_56	145.00	200.0	130.0	0.1479	Open
P9977	J70_55	J71_55	145.00	250.0	140.0	0.0930	Open
P9978	J70_56	J70_57	145.00	250.0	125.0	0.0129	Open
P9979	J70_56	J71_56	145.00	300.0	140.0	0.1448	Open
P9980	J70_57	J70_58	145.00	300.0	125.0	0.0433	Open
P9981	J70_57	J71_57	145.00	150.0	125.0	0.1248	Open
P9982	J70_58	J70_59	145.00	200.0	140.0	0.0079	Open
P9983	J70_58	J71_58	145.00	150.0	125.0	0.0580	Open
P9984	J70_59	J70_60	145.00	150.0	135.0	0.0714	Open
P9985	J70_59	J71_59	145.00	300.0	125.0	0.0834	Open
P9986	J70_60	J70_61	145.00	100.0	130.0	0.0536	Open
P9987	J70_60	J71_60	145.00	200.0	125.0	0.0498	Open
P9988	J70_61	J70_62	145.00	350.0	125.0	0.0472	Open
P9989	J70_61	J71_61	145.00	350.0	120.0	0.0221	Open
P9990	J70_62	J70_63	145.00	100.0	135.0	0.0374	Open
P9991	J70_62	J71_62	145.00	250.0	125.0	0.1245	Open
P9992	J70_63	J70_64	145.00	250.0	130.0	0.1454	Open
P9993	J70_63	J71_63	145.00	100.0	125.0	0.0438	Open
P9994	J70_64	J70_65	145.00	250.0	130.0	0.0600	Open
P9995	J70_64	J71_64	145.00	200.0	125.0	0.0497	Open
P9996	J70_65	J70_66	145.00	100.0	130.0	0.1048	Open
P9997	J70_65	J71_65	145.00	250.0	135.0	0.0322	Open
P9998	J70_66	J70_67	145.00	100.0	135.0	0.0752	Open
P9999	J70_66	J71_66	145.00	100.0	130.0	0.0403	Open
P10000	J70_67	J70_68	145.00	200.0	130.0	0.1257	Open
P10001	J70_67	J71_67	145.00	200.0	140.0	0.0291	Open
P10002	J70_68	J70_69	145.00	100.0	130.0	0.0386	Open
P10003	J70_68	J71_68	145.00	300.0	135.0	0.0743	Open
P10004	J70_69	J70_70	145.00	250.0	135.0	0.1389	Open
P10005	J70_69	J71_69	145.00	200.0	125.0	0.1051	Open
P10006	J70_70	J70_71	145.00	300.0	135.0	0.1192	Open
P10007	J70_70	J71_70	145.00	300.0	135.0	0.0671	Open
P10008	J70_71	J70_72	145.00	350.0	120.0	0.0197	Open
P10009	J70_71	J71_71	145.00	500.0	120.0	0.0348	Open
P10010	J70_72	J71_72	145.00	100.0	125.0	0.0398	Open
P10011	J71_1	J71_2	145.00	600.0	130.0	0.0338	Open
P10012	J71_1	J72_1	145.00	300.0	120.0	0.0129	Open
P10013	J71_2	J71_3	145.00	500.0	130.0	0.0356	Open
P10014	J71_2	J72_2	145.00	300.0	125.0	0.0336	Open
P10015	J71_3	J71_4	145.00	350.0	130.0	0.0018	Open
P10016	J71_3	J72_3	145.00	500.0	120.0	0.0015	Open
P10017	J71_4	J71_5	145.00	350.0	130.0	0.0099	Open
P10018	J71_4	J72_4	145.00	600.0	120.0	0.0214	Open
P10019	J71_5	J71_6	145.00	450.0	120.0	0.0071	Open
P10020	J71_5	J72_5	145.00	400.0	125.0	0.0247	Open
P10021	J71_6	J71_7	145.00	350.0	120.0	0.0065	Open
P10022	J71_6	J72_6	145.00	300.0	120.0	0.0349	Open
P10023	J71_7	J71_8	145.00	500.0	125.0	0.0401	Open
P10024	J71_7	J72_7	145.00	300.0	120.0	0.0032	Open
P10025	J71_8	J71_9	145.00	450.0	120.0	0.0379	Open
P10026	J71_8	J72_8	145.00	600.0	120.0	0.0081	Open
P10027	J71_9	J71_10	145.00	350.0	120.0	0.0490	Open
P10028	J71_9	J72_9	145.00	500.0	120.0	0.0359	Open
P10029	J71_10	J71_11	145.00	450.0	130.0	0.0394	Open
P10030	J71_10	J72_10	145.00	300.0	130.0	0.0115	Open
P10031	J71_11	J71_12	145.00	300.0	120.0	0.0013	Open
P10032	J71_11	J72_11	145.00	300.0	130.0	0.0230	Open
P10033	J71_12	J71_13	145.00	350.0	130.0	0.0247	Open
P10034	J71_12	J72_12	145.00	300.0	125.0	0.0090	Open
P10035	J71_13	J71_14	145.00	450.0	130.0	0.0424	Open
P10036	J71_13	J72_13	145.00	400.0	125.0	0.0485	Open
P10037	J71_14	J71_15	145.00	500.0	130.0	0.0055	Open
P10038	J71_14	J72_14	145.00	600.0	120.0	0.0206	Open
P10039	J71_15	J71_16	145.00	600.0	130.0	0.0382	Open
P10040	J71_15	J72_15	145.00	400.0	130.0	0.0489	Open
P10041	J71_16	J71_17	145.00	450.0	130.0	0.0408	Open
P10042	J71_16	J72_16	145.00	400.0	130.0	0.0274	Open
P10043	J71_17	J71_18	145.00	450.0	130.0	0.0394	Open
P10044	J71_17	J72_17	145.00	500.0	125.0	0.0469	Open
P10045	J71_18	J71_19	145.00	350.0	120.0	0.0114	Open
P10046	J71_18	J72_18	145.00	600.0	125.0	0.0322	Open
P10047	J71_19	J71_20	145.00	400.0	130.0	0.0219	Open
P10048	J71_19	J72_19	145.00	500.0	125.0	0.0071	Open
P10049	J71_20	J71_21	145.00	350.0	130.0	0.0074	Open
P10050	J71_20	J72_20	145.00	400.0	120.0	0.0003	Open
P10051	J71_21	J71_22	145.00	500.0	125.0	0.0074	Open
P10052	J71_21	J72_21	145.00	400.0	125.0	0.0173	Open
P10053	J71_22	J71_23	145.00	600.0	125.0	0.0187	Open
P10054	J71_22	J72_22	145.00	400.0	130.0	0.0499	Open
P10055	J71_23	J71_24	145.00	600.0	125.0	0.0469	Open
P10056	J71_23	J72_23	145.00	450.0	125.0	0.0254	Open
P10057	J71_24	J71_25	145.00	600.0	130.0	0.0065	Open
P10058	J71_24	J72_24	145.00	350.0	120.0	0.0336	Open
P10059	J71_25	J71_26	145.00	600.0	130.0	0.0461	Open
P10060	J71_25	J72_25	145.00	500.0	130.0	0.0060	Open
P10061	J71_26	J71_27	145.00	350.0	120.0	0.0066	Open
P10062	J71_26	J72_26	145.00	300.0	130.0	0.0084	Open
P10063	J71_27	J71_28	145.00	400.0	120.0	0.0277	Open
P10064	J71_27	J72_27	145.00	500.0	120.0	0.0121	Open
P10065	J71_28	J71_29	145.00	400.0	120.0	0.0114	Open
P10066	J71_28	J72_28	145.00	300.0	130.0	0.0067	Open
P10067	J71_29	J71_30	145.00	350.0	125.0	0.0128	Open
P10068	J71_29	J72_29	145.00	600.0	130.0	0.0298	Open
P10069	J71_30	J71_31	145.00	350.0	125.0	0.0013	Open
P10070	J71_30	J72_30	145.00	500.0	120.0	0.0397	Open
P10071	J71_31	J71_32	145.00	500.0	120.0	0.0208	Open
P10072	J71_31	J72_31	145.00	500.0	125.0	0.0043	Open
P10073	J71_32	J71_33	145.00	450.0	125.0	0.0415	Open
P10074	J71_32	J72_32	145.00	450.0	130.0	0.0223	Open
P10075	J71_33	J71_34	145.00	400.0	125.0	0.0287	Open
P10076	J71_33	J72_33	145.00	400.0	125.0	0.0319	Open
P10077	J71_34	J71_35	145.00	600.0	130.0	0.0183	Open
P10078	J71_34	J72_34	145.00	600.0	130.0	0.0176	Open
P10079	J71_35	J71_36	145.00	450.0	125.0	0.0399	Open
P10080	J71_35	J72_35	145.00	400.0	120.0	0.0450	Open
P10081	J71_36	J71_37	145.00	350.0	125.0	0.0182	Open
P10082	J71_36	J72_36	145.00	350.0	120.0	0.0171	Open
P10083	J71_37	J71_38	145.00	450.0	125.0	0.0398	Open
P10084	J71_37	J72_37	145.00	600.0	130.0	0.0013	Open
P10085	J71_38	J71_39	145.00	600.0	125.0	0.0121	Open
P10086	J71_38	J72_38	145.00	400.0	125.0	0.0333	Open
P10087	J71_39	J71_40	145.00	500.0	120.0	0.0479	Open
P10088	J71_39	J72_39	145.00	350.0	120.0	0.0295	Open
P10089	J71_40	J71_41	145.00	600.0	120.0	0.0474	Open
P10090	J71_40	J72_40	145.00	350.0	130.0	0.0051	Open
P10091	J71_41	J71_42	145.00	600.0	130.0	0.0007	Open
P10092	J71_41	J72_41	145.00	600.0	125.0	0.0054	Open
P10093	J71_42	J71_43	145.00	400.0	130.0	0.0323	Open
P10094	J71_42	J72_42	145.00	400.0	130.0	0.0108	Open
P10095	J71_43	J71_44	145.00	350.0	125.0	0.0120	Open
P10096	J71_43	J72_43	145.00	300.0	125.0	0.0046	Open
P10097	J71_44	J71_45	145.00	500.0	120.0	0.0367	Open
P10098	J71_44	J72_44	145.00	450.0	120.0	0.0326	Open
P10099	J71_45	J71_46	145.00	450.0	120.0	0.0260	Open
P10100	J71_45	J72_45	145.00	400.0	130.0	0.0153	Open
P10101	J71_46	J71_47	145.00	350.0	125.0	0.0444	Open
P10102	J71_46	J72_46	145.00	600.0	120.0	0.0062	Open
P10103	J71_47	J71_48	145.00	350.0	120.0	0.0373	Open
P10104	J71_47	J72_47	145.00	400.0	130.0	0.0088	Open
P10105	J71_48	J71_49	145.00	500.0	120.0	0.0388	Open
P10106	J71_48	J72_48	145.00	300.0	125.0	0.0334	Open
P10107	J71_49	J71_50	145.00	500.0	120.0	0.0120	Open
P10108	J71_49	J72_49	145.00	350.0	130.0	0.0248	Open
P10109	J71_50	J71_51	145.00	350.0	120.0	0.0178	Open
P10110	J71_50	J72_50	145.00	300.0	130.0	0.0058	Open
P10111	J71_51	J71_52	145.00	350.0	130.0	0.0021	Open
P10112	J71_51	J72_51	145.00	400.0	120.0	0.0141	Open
P10113	J71_52	J71_53	145.00	500.0	120.0	0.0191	Open
P10114	J71_52	J72_52	145.00	300.0	125.0	0.0433	Open
P10115	J71_53	J71_54	145.00	450.0	125.0	0.0027	Open
P10116	J71_53	J72_53	145.00	400.0	130.0	0.0031	Open
P10117	J71_54	J71_55	145.00	400.0	120.0	0.0398	Open
P10118	J71_54	J72_54	145.00	300.0	130.0	0.0233	Open
P10119	J71_55	J71_56	145.00	600.0	125.0	0.0363	Open
P10120	J71_55	J72_55	145.00	450.0	130.0	0.0259	Open
P10121	J71_56	J71_57	145.00	400.0	125.0	0.0155	Open
P10122	J71_56	J72_56	145.00	350.0	125.0	0.0057	Open
P10123	J71_57	J71_58	145.00	500.0	130.0	0.0061	Open
P10124	J71_57	J72_57	145.00	400.0	125.0	0.0492	Open
P10125	J71_58	J71_59	145.00	300.0	120.0	0.0242	Open
P10126	J71_58	J72_58	145.00	400.0	120.0	0.0193	Open
P10127	J71_59	J71_60	145.00	500.0	130.0	0.0242	Open
P10128	J71_59	J72_59	145.00	400.0	125.0	0.0193	Open
P10129	J71_60	J71_61	145.00	450.0	125.0	0.0051	Open
P10130	J71_60	J72_60	145.00	400.0	120.0	0.0336	Open
P10131	J71_61	J71_62	145.00	450.0	125.0	0.0475	Open
P10132	J71_61	J72_61	145.00	300.0	125.0	0.0377	Open
P10133	J71_62	J71_63	145.00	500.0	130.0	0.0189	Open
P10134	J71_62	J72_62	145.00	600.0	120.0	0.0147	Open
P10135	J71_63	J71_64	145.00	350.0	120.0	0.0035	Open
P10136	J71_63	J72_63	145.00	600.0	120.0	0.0044	Open
P10137	J71_64	J71_65	145.00	350.0	130.0	0.0455	Open
P10138	J71_64	J72_64	145.00	600.0	130.0	0.0287	Open
P10139	J71_65	J71_66	145.00	450.0	130.0	0.0158	Open
P10140	J71_65	J72_65	145.00	350.0	130.0	0.0046	Open
P10141	J71_66	J71_67	145.00	600.0	130.0	0.0209	Open
P10142	J71_66	J72_66	145.00	350.0	125.0	0.0331	Open
P10143	J71_67	J71_68	145.00	450.0	130.0	0.0185	Open
P10144	J71_67	J72_67	145.00	350.0	130.0	0.0286	Open
P10145	J71_68	J71_69	145.00	600.0	120.0	0.0178	Open
P10146	J71_68	J72_68	145.00	300.0	130.0	0.0432	Open
P10147	J71_69	J71_70	145.00	450.0	130.0	0.0138	Open
P10148	J71_69	J72_69	145.00	400.0	130.0	0.0384	Open
P10149	J71_70	J71_71	145.00	450.0	125.0	0.0326	Open
P10150	J71_70	J72_70	145.00	300.0	125.0	0.0475	Open
P10151	J71_71	J71_72	145.00	500.0	130.0	0.0056	Open
P10152	J71_71	J72_71	145.00	300.0	130.0	0.0098	Open
P10153	J71_72	J72_72	145.00	600.0	120.0	0.0383	Open
P10154	J72_1	J72_2	145.00	300.0	125.0	0.0291	Open
P10155	J72_2	J72_3	145.00	250.0	125.0	0.0621	Open
P10156	J72_3	J72_4	145.00	150.0	140.0	0.0429	Open
P10157	J72_4	J72_5	145.00	250.0	125.0	0.0354	Open
P10158	J72_5	J72_6	145.00	250.0	135.0	0.0227	Open
P10159	J72_6	J72_7	145.00	300.0	135.0	0.1472	Open
P10160	J72_7	J72_8	145.00	150.0	140.0	0.0562	Open
P10161	J72_8	J72_9	145.00	100.0	140.0	0.1034	Open
P10162	J72_9	J72_10	145.00	100.0	125.0	0.0744	Open
P10163	J72_10	J72_11	145.00	200.0	125.0	0.1062	Open
P10164	J72_11	J72_12	145.00	350.0	120.0	0.0393	Open
P10165	J72_12	J72_13	145.00	200.0	125.0	0.1443	Open
P10166	J72_13	J72_14	145.00	100.0	135.0	0.1353	Open
P10167	J72_14	J72_15	145.00	150.0	135.0	0.0595	Open
P10168	J72_15	J72_16	145.00	200.0	135.0	0.0913	Open
P10169	J72_16	J72_17	145.00	100.0	130.0	0.1054	Open
P10170	J72_17	J72_18	145.00	200.0	125.0	0.1367	Open
P10171	J72_18	J72_19	145.00	250.0	140.0	0.1059	Open
P10172	J72_19	J72_20	145.00	150.0	135.0	0.1215	Open
P10173	J72_20	J72_21	145.00	200.0	130.0	0.0586	Open
P10174	J72_21	J72_22	145.00	400.0	120.0	0.0282	Open
P10175	J72_22	J72_23	145.00	250.0	125.0	0.1262	Open
P10176	J72_23	J72_24	145.00	100.0	125.0	0.0154	Open
P10177	J72_24	J72_25	145.00	150.0	125.0	0.0584	Open
P10178	J72_25	J72_26	145.00	100.0	130.0	0.0530	Open
P10179	J72_26	J72_27	145.00	250.0	135.0	0.0296	Open
P10180	J72_27	J72_28	145.00	100.0	140.0	0.0584	Open
P10181	J72_28	J72_29	145.00	100.0	130.0	0.1041	Open
P10182	J72_29	J72_30	145.00	250.0	140.0	0.0827	Open
P10183	J72_30	J72_31	145.00	200.0	125.0	0.0548	Open
P10184	J72_31	J72_32	145.00	400.0	130.0	0.0445	Open
P10185	J72_32	J72_33	145.00	300.0	140.0	0.1040	Open
P10186	J72_33	J72_34	145.00	250.0	140.0	0.0785	Open
P10187	J72_34	J72_35	145.00	200.0	130.0	0.1024	Open
P10188	J72_35	J72_36	145.00	200.0	125.0	0.0476	Open
P10189	J72_36	J72_37	145.00	100.0	140.0	0.1368	Open
P10190	J72_37	J72_38	145.00	150.0	125.0	0.0139	Open
P10191	J72_38	J72_39	145.00	200.0	125.0	0.1244	Open
P10192	J72_39	J72_40	145.00	100.0	125.0	0.0891	Open
P10193	J72_40	J72_41	145.00	100.0	135.0	0.0659	Open
P10194	J72_41	J72_42	145.00	500.0	125.0	0.0404	Open
P10195	J72_42	J72_43	145.00	300.0	130.0	0.0809	Open
P10196	J72_43	J72_44	145.00	200.0	125.0	0.0051	Open
P10197	J72_44	J72_45	145.00	100.0	130.0	0.1098	Open
P10198	J72_45	J72_46	145.00	150.0	130.0	0.0494	Open
P10199	J72_46	J72_47	145.00	250.0	140.0	0.0495	Open
P10200	J72_47	J72_48	145.00	200.0	125.0	0.0020	Open
P10201	J72_48	J72_49	145.00	150.0	135.0	0.1306	Open
P10202	J72_49	J72_50	145.00	150.0	135.0	0.0256	Open
P10203	J72_50	J72_51	145.00	200.0	130.0	0.0292	Open
P10204	J72_51	J72_52	145.00	300.0	125.0	0.0203	Open
P10205	J72_52	J72_53	145.00	100.0	140.0	0.1408	Open
P10206	J72_53	J72_54	145.00	100.0	130.0	0.0368	Open
P10207	J72_54	J72_55	145.00	300.0	125.0	0.0184	Open
P10208	J72_55	J72_56	145.00	200.0	140.0	0.0685	Open
P10209	J72_56	J72_57	145.00	100.0	125.0	0.0991	Open
P10210	J72_57	J72_58	145.00	150.0	125.0	0.0486	Open
P10211	J72_58	J72_59	145.00	300.0	130.0	0.0880	Open
P10212	J72_59	J72_60	145.00	250.0	135.0	0.0189	Open
P10213	J72_60	J72_61	145.00	300.0	140.0	0.0296	Open
P10214	J72_61	J72_62	145.00	600.0	120.0	0.0073	Open
P10215	J72_62	J72_63	145.00	250.0	125.0	0.1044	Open
P10216	J72_63	J72_64	145.00	100.0	140.0	0.0145	Open
P10217	J72_64	J72_65	145.00	150.0	125.0	0.0028	Open
P10218	J72_65	J72_66	145.00	100.0	125.0	0.1306	Open
P10219	J72_66	J72_67	145.00	200.0	135.0	0.0362	Open
P10220	J72_67	J72_68	145.00	150.0	135.0	0.0272	Open
P10221	J72_68	J72_69	145.00	300.0	125.0	0.0911	Open
P10222	J72_69	J72_70	145.00	200.0	135.0	0.0807	Open
P10223	J72_70	J72_71	145.00	150.0	125.0	0.1184	Open
P10224	J72_71	J72_72	145.00	500.0	125.0	0.0487	Open
P10225	T1	J43_10	174.00	500.0	120.0	0.0200	Open
P10226	T2	J37_28	174.00	500.0	120.0	0.0200	Open
P10227	T3	J37_46	174.00	500.0	120.0	0.0200	Open
P10228	T4	J29_62	174.00	500.0	120.0	0.0200	Open

P10229	R1	J37_1	1200.00	300.0	120.0	0.0000	Open

[PUMPS]
;ID	Node1	Node2	Parameters
PU1	R1	T1	HEAD	H_PUMP_MAIN


[VALVES]
;ID	Node1	Node2	Diameter	Type	Setting	MinorLoss

[PATTERNS]
;ID	Multipliers
P_RES	0.550	0.480	0.430	0.410	0.450	0.620	0.840	1.050	1.020	0.940	0.900	0.920	0.950	0.970	1.000	1.050	1.180	1.320	1.380	1.300	1.120	0.930	0.760	0.630
P_COM	0.160	0.140	0.120	0.110	0.140	0.240	0.480	0.860	1.120	1.200	1.220	1.210	1.180	1.160	1.140	1.170	1.130	1.050	0.840	0.600	0.440	0.330	0.250	0.190
P_IND	0.820	0.800	0.780	0.780	0.800	0.880	0.960	1.030	1.070	1.100	1.120	1.100	1.080	1.060	1.080	1.090	1.080	1.050	1.000	0.950	0.920	0.900	0.870	0.840


[CURVES]
;ID	X-Value	Y-Value
H_PUMP_MAIN	0	85
H_PUMP_MAIN	0.8	72
H_PUMP_MAIN	1.6	56
H_PUMP_MAIN	2.4	35


[CONTROLS]
LINK PU1 OPEN IF TANK T1 BELOW 4.500
LINK PU1 CLOSED IF TANK T1 ABOVE 15.500


[RULES]
; Intentionally left minimal; controls section remains active

[STATUS]
;ID	Status/Setting
P276	CLOSED
P551	CLOSED
P826	CLOSED
P1101	CLOSED
P1376	CLOSED
P1651	CLOSED
P1926	CLOSED
P2201	CLOSED
P2476	CLOSED
P2751	CLOSED
P3026	CLOSED
P3301	CLOSED
P3576	CLOSED
P3851	CLOSED
P4126	CLOSED
P4401	CLOSED
P4676	CLOSED
P4951	CLOSED
P5226	CLOSED
P5501	CLOSED
P5776	CLOSED
P6051	CLOSED
P6326	CLOSED
P6601	CLOSED
P6876	CLOSED
P7151	CLOSED
P7426	CLOSED
P7701	CLOSED
P7976	CLOSED
P8251	CLOSED
P8526	CLOSED
P8801	CLOSED
P9076	CLOSED
P9351	CLOSED
P9626	CLOSED
P9901	CLOSED
P10176	CLOSED

[EMITTERS]
;Junction	Coefficient
J5_13	0.340
J9_25	0.300
J13_37	0.260
J17_49	0.220
J21_61	0.180
J26_1	0.140
J30_13	0.100
J34_25	0.340
J38_37	0.300
J42_49	0.260
J46_61	0.220
J51_1	0.180
J55_13	0.140
J59_25	0.100
J63_37	0.340
J67_49	0.300
J71_61	0.260

[QUALITY]
;Node	InitQual
R1	0.80

[SOURCES]
;Node	Type	Quality	Pattern
R1	CONCEN	0.8

[REACTIONS]
ORDER BULK	1
ORDER TANK	1
ORDER WALL	1
GLOBAL BULK	-0.22
GLOBAL WALL	-0.75

[ENERGY]
GLOBAL EFFICIENCY	80
GLOBAL PRICE	0.11
DEMAND CHARGE	1.5

[MIXING]

[TIMES]
DURATION	24:00
HYDRAULIC TIMESTEP	1:00
QUALITY TIMESTEP	0:30
PATTERN TIMESTEP	1:00
REPORT TIMESTEP	1:00

[REPORT]
STATUS	NO
SUMMARY	YES
NODES	NONE
LINKS	NONE

[OPTIONS]
UNITS	CMH
HEADLOSS	D-W
SPECIFIC GRAVITY	1.00
VISCOSITY	1.05
TRIALS	110
ACCURACY	0.0007
UNBALANCED	CONTINUE 25
DEMAND MULTIPLIER	1.05
QUALITY	Chlorine mg/L
TOLERANCE	0.002

[COORDINATES]
;Node	X-Coord	Y-Coord
R1	-290.00	-290.00
J1_1	0.00	0.00
J1_2	145.00	0.00
J1_3	290.00	0.00
J1_4	435.00	0.00
J1_5	580.00	0.00
J1_6	725.00	0.00
J1_7	870.00	0.00
J1_8	1015.00	0.00
J1_9	1160.00	0.00
J1_10	1305.00	0.00
J1_11	1450.00	0.00
J1_12	1595.00	0.00
J1_13	1740.00	0.00
J1_14	1885.00	0.00
J1_15	2030.00	0.00
J1_16	2175.00	0.00
J1_17	2320.00	0.00
J1_18	2465.00	0.00
J1_19	2610.00	0.00
J1_20	2755.00	0.00
J1_21	2900.00	0.00
J1_22	3045.00	0.00
J1_23	3190.00	0.00
J1_24	3335.00	0.00
J1_25	3480.00	0.00
J1_26	3625.00	0.00
J1_27	3770.00	0.00
J1_28	3915.00	0.00
J1_29	4060.00	0.00
J1_30	4205.00	0.00
J1_31	4350.00	0.00
J1_32	4495.00	0.00
J1_33	4640.00	0.00
J1_34	4785.00	0.00
J1_35	4930.00	0.00
J1_36	5075.00	0.00
J1_37	5220.00	0.00
J1_38	5365.00	0.00
J1_39	5510.00	0.00
J1_40	5655.00	0.00
J1_41	5800.00	0.00
J1_42	5945.00	0.00
J1_43	6090.00	0.00
J1_44	6235.00	0.00
J1_45	6380.00	0.00
J1_46	6525.00	0.00
J1_47	6670.00	0.00
J1_48	6815.00	0.00
J1_49	6960.00	0.00
J1_50	7105.00	0.00
J1_51	7250.00	0.00
J1_52	7395.00	0.00
J1_53	7540.00	0.00
J1_54	7685.00	0.00
J1_55	7830.00	0.00
J1_56	7975.00	0.00
J1_57	8120.00	0.00
J1_58	8265.00	0.00
J1_59	8410.00	0.00
J1_60	8555.00	0.00
J1_61	8700.00	0.00
J1_62	8845.00	0.00
J1_63	8990.00	0.00
J1_64	9135.00	0.00
J1_65	9280.00	0.00
J1_66	9425.00	0.00
J1_67	9570.00	0.00
J1_68	9715.00	0.00
J1_69	9860.00	0.00
J1_70	10005.00	0.00
J1_71	10150.00	0.00
J1_72	10295.00	0.00
J2_1	0.00	145.00
J2_2	145.00	145.00
J2_3	290.00	145.00
J2_4	435.00	145.00
J2_5	580.00	145.00
J2_6	725.00	145.00
J2_7	870.00	145.00
J2_8	1015.00	145.00
J2_9	1160.00	145.00
J2_10	1305.00	145.00
J2_11	1450.00	145.00
J2_12	1595.00	145.00
J2_13	1740.00	145.00
J2_14	1885.00	145.00
J2_15	2030.00	145.00
J2_16	2175.00	145.00
J2_17	2320.00	145.00
J2_18	2465.00	145.00
J2_19	2610.00	145.00
J2_20	2755.00	145.00
J2_21	2900.00	145.00
J2_22	3045.00	145.00
J2_23	3190.00	145.00
J2_24	3335.00	145.00
J2_25	3480.00	145.00
J2_26	3625.00	145.00
J2_27	3770.00	145.00
J2_28	3915.00	145.00
J2_29	4060.00	145.00
J2_30	4205.00	145.00
J2_31	4350.00	145.00
J2_32	4495.00	145.00
J2_33	4640.00	145.00
J2_34	4785.00	145.00
J2_35	4930.00	145.00
J2_36	5075.00	145.00
J2_37	5220.00	145.00
J2_38	5365.00	145.00
J2_39	5510.00	145.00
J2_40	5655.00	145.00
J2_41	5800.00	145.00
J2_42	5945.00	145.00
J2_43	6090.00	145.00
J2_44	6235.00	145.00
J2_45	6380.00	145.00
J2_46	6525.00	145.00
J2_47	6670.00	145.00
J2_48	6815.00	145.00
J2_49	6960.00	145.00
J2_50	7105.00	145.00
J2_51	7250.00	145.00
J2_52	7395.00	145.00
J2_53	7540.00	145.00
J2_54	7685.00	145.00
J2_55	7830.00	145.00
J2_56	7975.00	145.00
J2_57	8120.00	145.00
J2_58	8265.00	145.00
J2_59	8410.00	145.00
J2_60	8555.00	145.00
J2_61	8700.00	145.00
J2_62	8845.00	145.00
J2_63	8990.00	145.00
J2_64	9135.00	145.00
J2_65	9280.00	145.00
J2_66	9425.00	145.00
J2_67	9570.00	145.00
J2_68	9715.00	145.00
J2_69	9860.00	145.00
J2_70	10005.00	145.00
J2_71	10150.00	145.00
J2_72	10295.00	145.00
J3_1	0.00	290.00
J3_2	145.00	290.00
J3_3	290.00	290.00
J3_4	435.00	290.00
J3_5	580.00	290.00
J3_6	725.00	290.00
J3_7	870.00	290.00
J3_8	1015.00	290.00
J3_9	1160.00	290.00
J3_10	1305.00	290.00
J3_11	1450.00	290.00
J3_12	1595.00	290.00
J3_13	1740.00	290.00
J3_14	1885.00	290.00
J3_15	2030.00	290.00
J3_16	2175.00	290.00
J3_17	2320.00	290.00
J3_18	2465.00	290.00
J3_19	2610.00	290.00
J3_20	2755.00	290.00
J3_21	2900.00	290.00
J3_22	3045.00	290.00
J3_23	3190.00	290.00
J3_24	3335.00	290.00
J3_25	3480.00	290.00
J3_26	3625.00	290.00
J3_27	3770.00	290.00
J3_28	3915.00	290.00
J3_29	4060.00	290.00
J3_30	4205.00	290.00
J3_31	4350.00	290.00
J3_32	4495.00	290.00
J3_33	4640.00	290.00
J3_34	4785.00	290.00
J3_35	4930.00	290.00
J3_36	5075.00	290.00
J3_37	5220.00	290.00
J3_38	5365.00	290.00
J3_39	5510.00	290.00
J3_40	5655.00	290.00
J3_41	5800.00	290.00
J3_42	5945.00	290.00
J3_43	6090.00	290.00
J3_44	6235.00	290.00
J3_45	6380.00	290.00
J3_46	6525.00	290.00
J3_47	6670.00	290.00
J3_48	6815.00	290.00
J3_49	6960.00	290.00
J3_50	7105.00	290.00
J3_51	7250.00	290.00
J3_52	7395.00	290.00
J3_53	7540.00	290.00
J3_54	7685.00	290.00
J3_55	7830.00	290.00
J3_56	7975.00	290.00
J3_57	8120.00	290.00
J3_58	8265.00	290.00
J3_59	8410.00	290.00
J3_60	8555.00	290.00
J3_61	8700.00	290.00
J3_62	8845.00	290.00
J3_63	8990.00	290.00
J3_64	9135.00	290.00
J3_65	9280.00	290.00
J3_66	9425.00	290.00
J3_67	9570.00	290.00
J3_68	9715.00	290.00
J3_69	9860.00	290.00
J3_70	10005.00	290.00
J3_71	10150.00	290.00
J3_72	10295.00	290.00
J4_1	0.00	435.00
J4_2	145.00	435.00
J4_3	290.00	435.00
J4_4	435.00	435.00
J4_5	580.00	435.00
J4_6	725.00	435.00
J4_7	870.00	435.00
J4_8	1015.00	435.00
J4_9	1160.00	435.00
J4_10	1305.00	435.00
J4_11	1450.00	435.00
J4_12	1595.00	435.00
J4_13	1740.00	435.00
J4_14	1885.00	435.00
J4_15	2030.00	435.00
J4_16	2175.00	435.00
J4_17	2320.00	435.00
J4_18	2465.00	435.00
J4_19	2610.00	435.00
J4_20	2755.00	435.00
J4_21	2900.00	435.00
J4_22	3045.00	435.00
J4_23	3190.00	435.00
J4_24	3335.00	435.00
J4_25	3480.00	435.00
J4_26	3625.00	435.00
J4_27	3770.00	435.00
J4_28	3915.00	435.00
J4_29	4060.00	435.00
J4_30	4205.00	435.00
J4_31	4350.00	435.00
J4_32	4495.00	435.00
J4_33	4640.00	435.00
J4_34	4785.00	435.00
J4_35	4930.00	435.00
J4_36	5075.00	435.00
J4_37	5220.00	435.00
J4_38	5365.00	435.00
J4_39	5510.00	435.00
J4_40	5655.00	435.00
J4_41	5800.00	435.00
J4_42	5945.00	435.00
J4_43	6090.00	435.00
J4_44	6235.00	435.00
J4_45	6380.00	435.00
J4_46	6525.00	435.00
J4_47	6670.00	435.00
J4_48	6815.00	435.00
J4_49	6960.00	435.00
J4_50	7105.00	435.00
J4_51	7250.00	435.00
J4_52	7395.00	435.00
J4_53	7540.00	435.00
J4_54	7685.00	435.00
J4_55	7830.00	435.00
J4_56	7975.00	435.00
J4_57	8120.00	435.00
J4_58	8265.00	435.00
J4_59	8410.00	435.00
J4_60	8555.00	435.00
J4_61	8700.00	435.00
J4_62	8845.00	435.00
J4_63	8990.00	435.00
J4_64	9135.00	435.00
J4_65	9280.00	435.00
J4_66	9425.00	435.00
J4_67	9570.00	435.00
J4_68	9715.00	435.00
J4_69	9860.00	435.00
J4_70	10005.00	435.00
J4_71	10150.00	435.00
J4_72	10295.00	435.00
J5_1	0.00	580.00
J5_2	145.00	580.00
J5_3	290.00	580.00
J5_4	435.00	580.00
J5_5	580.00	580.00
J5_6	725.00	580.00
J5_7	870.00	580.00
J5_8	1015.00	580.00
J5_9	1160.00	580.00
J5_10	1305.00	580.00
J5_11	1450.00	580.00
J5_12	1595.00	580.00
J5_13	1740.00	580.00
J5_14	1885.00	580.00
J5_15	2030.00	580.00
J5_16	2175.00	580.00
J5_17	2320.00	580.00
J5_18	2465.00	580.00
J5_19	2610.00	580.00
J5_20	2755.00	580.00
J5_21	2900.00	580.00
J5_22	3045.00	580.00
J5_23	3190.00	580.00
J5_24	3335.00	580.00
J5_25	3480.00	580.00
J5_26	3625.00	580.00
J5_27	3770.00	580.00
J5_28	3915.00	580.00
J5_29	4060.00	580.00
J5_30	4205.00	580.00
J5_31	4350.00	580.00
J5_32	4495.00	580.00
J5_33	4640.00	580.00
J5_34	4785.00	580.00
J5_35	4930.00	580.00
J5_36	5075.00	580.00
J5_37	5220.00	580.00
J5_38	5365.00	580.00
J5_39	5510.00	580.00
J5_40	5655.00	580.00
J5_41	5800.00	580.00
J5_42	5945.00	580.00
J5_43	6090.00	580.00
J5_44	6235.00	580.00
J5_45	6380.00	580.00
J5_46	6525.00	580.00
J5_47	6670.00	580.00
J5_48	6815.00	580.00
J5_49	6960.00	580.00
J5_50	7105.00	580.00
J5_51	7250.00	580.00
J5_52	7395.00	580.00
J5_53	7540.00	580.00
J5_54	7685.00	580.00
J5_55	7830.00	580.00
J5_56	7975.00	580.00
J5_57	8120.00	580.00
J5_58	8265.00	580.00
J5_59	8410.00	580.00
J5_60	8555.00	580.00
J5_61	8700.00	580.00
J5_62	8845.00	580.00
J5_63	8990.00	580.00
J5_64	9135.00	580.00
J5_65	9280.00	580.00
J5_66	9425.00	580.00
J5_67	9570.00	580.00
J5_68	9715.00	580.00
J5_69	9860.00	580.00
J5_70	10005.00	580.00
J5_71	10150.00	580.00
J5_72	10295.00	580.00
J6_1	0.00	725.00
J6_2	145.00	725.00
J6_3	290.00	725.00
J6_4	435.00	725.00
J6_5	580.00	725.00
J6_6	725.00	725.00
J6_7	870.00	725.00
J6_8	1015.00	725.00
J6_9	1160.00	725.00
J6_10	1305.00	725.00
J6_11	1450.00	725.00
J6_12	1595.00	725.00
J6_13	1740.00	725.00
J6_14	1885.00	725.00
J6_15	2030.00	725.00
J6_16	2175.00	725.00
J6_17	2320.00	725.00
J6_18	2465.00	725.00
J6_19	2610.00	725.00
J6_20	2755.00	725.00
J6_21	2900.00	725.00
J6_22	3045.00	725.00
J6_23	3190.00	725.00
J6_24	3335.00	725.00
J6_25	3480.00	725.00
J6_26	3625.00	725.00
J6_27	3770.00	725.00
J6_28	3915.00	725.00
J6_29	4060.00	725.00
J6_30	4205.00	725.00
J6_31	4350.00	725.00
J6_32	4495.00	725.00
J6_33	4640.00	725.00
J6_34	4785.00	725.00
J6_35	4930.00	725.00
J6_36	5075.00	725.00
J6_37	5220.00	725.00
J6_38	5365.00	725.00
J6_39	5510.00	725.00
J6_40	5655.00	725.00
J6_41	5800.00	725.00
J6_42	5945.00	725.00
J6_43	6090.00	725.00
J6_44	6235.00	725.00
J6_45	6380.00	725.00
J6_46	6525.00	725.00
J6_47	6670.00	725.00
J6_48	6815.00	725.00
J6_49	6960.00	725.00
J6_50	7105.00	725.00
J6_51	7250.00	725.00
J6_52	7395.00	725.00
J6_53	7540.00	725.00
J6_54	7685.00	725.00
J6_55	7830.00	725.00
J6_56	7975.00	725.00
J6_57	8120.00	725.00
J6_58	8265.00	725.00
J6_59	8410.00	725.00
J6_60	8555.00	725.00
J6_61	8700.00	725.00
J6_62	8845.00	725.00
J6_63	8990.00	725.00
J6_64	9135.00	725.00
J6_65	9280.00	725.00
J6_66	9425.00	725.00
J6_67	9570.00	725.00
J6_68	9715.00	725.00
J6_69	9860.00	725.00
J6_70	10005.00	725.00
J6_71	10150.00	725.00
J6_72	10295.00	725.00
J7_1	0.00	870.00
J7_2	145.00	870.00
J7_3	290.00	870.00
J7_4	435.00	870.00
J7_5	580.00	870.00
J7_6	725.00	870.00
J7_7	870.00	870.00
J7_8	1015.00	870.00
J7_9	1160.00	870.00
J7_10	1305.00	870.00
J7_11	1450.00	870.00
J7_12	1595.00	870.00
J7_13	1740.00	870.00
J7_14	1885.00	870.00
J7_15	2030.00	870.00
J7_16	2175.00	870.00
J7_17	2320.00	870.00
J7_18	2465.00	870.00
J7_19	2610.00	870.00
J7_20	2755.00	870.00
J7_21	2900.00	870.00
J7_22	3045.00	870.00
J7_23	3190.00	870.00
J7_24	3335.00	870.00
J7_25	3480.00	870.00
J7_26	3625.00	870.00
J7_27	3770.00	870.00
J7_28	3915.00	870.00
J7_29	4060.00	870.00
J7_30	4205.00	870.00
J7_31	4350.00	870.00
J7_32	4495.00	870.00
J7_33	4640.00	870.00
J7_34	4785.00	870.00
J7_35	4930.00	870.00
J7_36	5075.00	870.00
J7_37	5220.00	870.00
J7_38	5365.00	870.00
J7_39	5510.00	870.00
J7_40	5655.00	870.00
J7_41	5800.00	870.00
J7_42	5945.00	870.00
J7_43	6090.00	870.00
J7_44	6235.00	870.00
J7_45	6380.00	870.00
J7_46	6525.00	870.00
J7_47	6670.00	870.00
J7_48	6815.00	870.00
J7_49	6960.00	870.00
J7_50	7105.00	870.00
J7_51	7250.00	870.00
J7_52	7395.00	870.00
J7_53	7540.00	870.00
J7_54	7685.00	870.00
J7_55	7830.00	870.00
J7_56	7975.00	870.00
J7_57	8120.00	870.00
J7_58	8265.00	870.00
J7_59	8410.00	870.00
J7_60	8555.00	870.00
J7_61	8700.00	870.00
J7_62	8845.00	870.00
J7_63	8990.00	870.00
J7_64	9135.00	870.00
J7_65	9280.00	870.00
J7_66	9425.00	870.00
J7_67	9570.00	870.00
J7_68	9715.00	870.00
J7_69	9860.00	870.00
J7_70	10005.00	870.00
J7_71	10150.00	870.00
J7_72	10295.00	870.00
J8_1	0.00	1015.00
J8_2	145.00	1015.00
J8_3	290.00	1015.00
J8_4	435.00	1015.00
J8_5	580.00	1015.00
J8_6	725.00	1015.00
J8_7	870.00	1015.00
J8_8	1015.00	1015.00
J8_9	1160.00	1015.00
J8_10	1305.00	1015.00
J8_11	1450.00	1015.00
J8_12	1595.00	1015.00
J8_13	1740.00	1015.00
J8_14	1885.00	1015.00
J8_15	2030.00	1015.00
J8_16	2175.00	1015.00
J8_17	2320.00	1015.00
J8_18	2465.00	1015.00
J8_19	2610.00	1015.00
J8_20	2755.00	1015.00
J8_21	2900.00	1015.00
J8_22	3045.00	1015.00
J8_23	3190.00	1015.00
J8_24	3335.00	1015.00
J8_25	3480.00	1015.00
J8_26	3625.00	1015.00
J8_27	3770.00	1015.00
J8_28	3915.00	1015.00
J8_29	4060.00	1015.00
J8_30	4205.00	1015.00
J8_31	4350.00	1015.00
J8_32	4495.00	1015.00
J8_33	4640.00	1015.00
J8_34	4785.00	1015.00
J8_35	4930.00	1015.00
J8_36	5075.00	1015.00
J8_37	5220.00	1015.00
J8_38	5365.00	1015.00
J8_39	5510.00	1015.00
J8_40	5655.00	1015.00
J8_41	5800.00	1015.00
J8_42	5945.00	1015.00
J8_43	6090.00	1015.00
J8_44	6235.00	1015.00
J8_45	6380.00	1015.00
J8_46	6525.00	1015.00
J8_47	6670.00	1015.00
J8_48	6815.00	1015.00
J8_49	6960.00	1015.00
J8_50	7105.00	1015.00
J8_51	7250.00	1015.00
J8_52	7395.00	1015.00
J8_53	7540.00	1015.00
J8_54	7685.00	1015.00
J8_55	7830.00	1015.00
J8_56	7975.00	1015.00
J8_57	8120.00	1015.00
J8_58	8265.00	1015.00
J8_59	8410.00	1015.00
J8_60	8555.00	1015.00
J8_61	8700.00	1015.00
J8_62	8845.00	1015.00
J8_63	8990.00	1015.00
J8_64	9135.00	1015.00
J8_65	9280.00	1015.00
J8_66	9425.00	1015.00
J8_67	9570.00	1015.00
J8_68	9715.00	1015.00
J8_69	9860.00	1015.00
J8_70	10005.00	1015.00
J8_71	10150.00	1015.00
J8_72	10295.00	1015.00
J9_1	0.00	1160.00
J9_2	145.00	1160.00
J9_3	290.00	1160.00
J9_4	435.00	1160.00
J9_5	580.00	1160.00
J9_6	725.00	1160.00
J9_7	870.00	1160.00
J9_8	1015.00	1160.00
J9_9	1160.00	1160.00
J9_10	1305.00	1160.00
J9_11	1450.00	1160.00
J9_12	1595.00	1160.00
J9_13	1740.00	1160.00
J9_14	1885.00	1160.00
J9_15	2030.00	1160.00
J9_16	2175.00	1160.00
J9_17	2320.00	1160.00
J9_18	2465.00	1160.00
J9_19	2610.00	1160.00
J9_20	2755.00	1160.00
J9_21	2900.00	1160.00
J9_22	3045.00	1160.00
J9_23	3190.00	1160.00
J9_24	3335.00	1160.00
J9_25	3480.00	1160.00
J9_26	3625.00	1160.00
J9_27	3770.00	1160.00
J9_28	3915.00	1160.00
J9_29	4060.00	1160.00
J9_30	4205.00	1160.00
J9_31	4350.00	1160.00
J9_32	4495.00	1160.00
J9_33	4640.00	1160.00
J9_34	4785.00	1160.00
J9_35	4930.00	1160.00
J9_36	5075.00	1160.00
J9_37	5220.00	1160.00
J9_38	5365.00	1160.00
J9_39	5510.00	1160.00
J9_40	5655.00	1160.00
J9_41	5800.00	1160.00
J9_42	5945.00	1160.00
J9_43	6090.00	1160.00
J9_44	6235.00	1160.00
J9_45	6380.00	1160.00
J9_46	6525.00	1160.00
J9_47	6670.00	1160.00
J9_48	6815.00	1160.00
J9_49	6960.00	1160.00
J9_50	7105.00	1160.00
J9_51	7250.00	1160.00
J9_52	7395.00	1160.00
J9_53	7540.00	1160.00
J9_54	7685.00	1160.00
J9_55	7830.00	1160.00
J9_56	7975.00	1160.00
J9_57	8120.00	1160.00
J9_58	8265.00	1160.00
J9_59	8410.00	1160.00
J9_60	8555.00	1160.00
J9_61	8700.00	1160.00
J9_62	8845.00	1160.00
J9_63	8990.00	1160.00
J9_64	9135.00	1160.00
J9_65	9280.00	1160.00
J9_66	9425.00	1160.00
J9_67	9570.00	1160.00
J9_68	9715.00	1160.00
J9_69	9860.00	1160.00
J9_70	10005.00	1160.00
J9_71	10150.00	1160.00
J9_72	10295.00	1160.00
J10_1	0.00	1305.00
J10_2	145.00	1305.00
J10_3	290.00	1305.00
J10_4	435.00	1305.00
J10_5	580.00	1305.00
J10_6	725.00	1305.00
J10_7	870.00	1305.00
J10_8	1015.00	1305.00
J10_9	1160.00	1305.00
J10_10	1305.00	1305.00
J10_11	1450.00	1305.00
J10_12	1595.00	1305.00
J10_13	1740.00	1305.00
J10_14	1885.00	1305.00
J10_15	2030.00	1305.00
J10_16	2175.00	1305.00
J10_17	2320.00	1305.00
J10_18	2465.00	1305.00
J10_19	2610.00	1305.00
J10_20	2755.00	1305.00
J10_21	2900.00	1305.00
J10_22	3045.00	1305.00
J10_23	3190.00	1305.00
J10_24	3335.00	1305.00
J10_25	3480.00	1305.00
J10_26	3625.00	1305.00
J10_27	3770.00	1305.00
J10_28	3915.00	1305.00
J10_29	4060.00	1305.00
J10_30	4205.00	1305.00
J10_31	4350.00	1305.00
J10_32	4495.00	1305.00
J10_33	4640.00	1305.00
J10_34	4785.00	1305.00
J10_35	4930.00	1305.00
J10_36	5075.00	1305.00
J10_37	5220.00	1305.00
J10_38	5365.00	1305.00
J10_39	5510.00	1305.00
J10_40	5655.00	1305.00
J10_41	5800.00	1305.00
J10_42	5945.00	1305.00
J10_43	6090.00	1305.00
J10_44	6235.00	1305.00
J10_45	6380.00	1305.00
J10_46	6525.00	1305.00
J10_47	6670.00	1305.00
J10_48	6815.00	1305.00
J10_49	6960.00	1305.00
J10_50	7105.00	1305.00
J10_51	7250.00	1305.00
J10_52	7395.00	1305.00
J10_53	7540.00	1305.00
J10_54	7685.00	1305.00
J10_55	7830.00	1305.00
J10_56	7975.00	1305.00
J10_57	8120.00	1305.00
J10_58	8265.00	1305.00
J10_59	8410.00	1305.00
J10_60	8555.00	1305.00
J10_61	8700.00	1305.00
J10_62	8845.00	1305.00
J10_63	8990.00	1305.00
J10_64	9135.00	1305.00
J10_65	9280.00	1305.00
J10_66	9425.00	1305.00
J10_67	9570.00	1305.00
J10_68	9715.00	1305.00
J10_69	9860.00	1305.00
J10_70	10005.00	1305.00
J10_71	10150.00	1305.00
J10_72	10295.00	1305.00
J11_1	0.00	1450.00
J11_2	145.00	1450.00
J11_3	290.00	1450.00
J11_4	435.00	1450.00
J11_5	580.00	1450.00
J11_6	725.00	1450.00
J11_7	870.00	1450.00
J11_8	1015.00	1450.00
J11_9	1160.00	1450.00
J11_10	1305.00	1450.00
J11_11	1450.00	1450.00
J11_12	1595.00	1450.00
J11_13	1740.00	1450.00
J11_14	1885.00	1450.00
J11_15	2030.00	1450.00
J11_16	2175.00	1450.00
J11_17	2320.00	1450.00
J11_18	2465.00	1450.00
J11_19	2610.00	1450.00
J11_20	2755.00	1450.00
J11_21	2900.00	1450.00
J11_22	3045.00	1450.00
J11_23	3190.00	1450.00
J11_24	3335.00	1450.00
J11_25	3480.00	1450.00
J11_26	3625.00	1450.00
J11_27	3770.00	1450.00
J11_28	3915.00	1450.00
J11_29	4060.00	1450.00
J11_30	4205.00	1450.00
J11_31	4350.00	1450.00
J11_32	4495.00	1450.00
J11_33	4640.00	1450.00
J11_34	4785.00	1450.00
J11_35	4930.00	1450.00
J11_36	5075.00	1450.00
J11_37	5220.00	1450.00
J11_38	5365.00	1450.00
J11_39	5510.00	1450.00
J11_40	5655.00	1450.00
J11_41	5800.00	1450.00
J11_42	5945.00	1450.00
J11_43	6090.00	1450.00
J11_44	6235.00	1450.00
J11_45	6380.00	1450.00
J11_46	6525.00	1450.00
J11_47	6670.00	1450.00
J11_48	6815.00	1450.00
J11_49	6960.00	1450.00
J11_50	7105.00	1450.00
J11_51	7250.00	1450.00
J11_52	7395.00	1450.00
J11_53	7540.00	1450.00
J11_54	7685.00	1450.00
J11_55	7830.00	1450.00
J11_56	7975.00	1450.00
J11_57	8120.00	1450.00
J11_58	8265.00	1450.00
J11_59	8410.00	1450.00
J11_60	8555.00	1450.00
J11_61	8700.00	1450.00
J11_62	8845.00	1450.00
J11_63	8990.00	1450.00
J11_64	9135.00	1450.00
J11_65	9280.00	1450.00
J11_66	9425.00	1450.00
J11_67	9570.00	1450.00
J11_68	9715.00	1450.00
J11_69	9860.00	1450.00
J11_70	10005.00	1450.00
J11_71	10150.00	1450.00
J11_72	10295.00	1450.00
J12_1	0.00	1595.00
J12_2	145.00	1595.00
J12_3	290.00	1595.00
J12_4	435.00	1595.00
J12_5	580.00	1595.00
J12_6	725.00	1595.00
J12_7	870.00	1595.00
J12_8	1015.00	1595.00
J12_9	1160.00	1595.00
J12_10	1305.00	1595.00
J12_11	1450.00	1595.00
J12_12	1595.00	1595.00
J12_13	1740.00	1595.00
J12_14	1885.00	1595.00
J12_15	2030.00	1595.00
J12_16	2175.00	1595.00
J12_17	2320.00	1595.00
J12_18	2465.00	1595.00
J12_19	2610.00	1595.00
J12_20	2755.00	1595.00
J12_21	2900.00	1595.00
J12_22	3045.00	1595.00
J12_23	3190.00	1595.00
J12_24	3335.00	1595.00
J12_25	3480.00	1595.00
J12_26	3625.00	1595.00
J12_27	3770.00	1595.00
J12_28	3915.00	1595.00
J12_29	4060.00	1595.00
J12_30	4205.00	1595.00
J12_31	4350.00	1595.00
J12_32	4495.00	1595.00
J12_33	4640.00	1595.00
J12_34	4785.00	1595.00
J12_35	4930.00	1595.00
J12_36	5075.00	1595.00
J12_37	5220.00	1595.00
J12_38	5365.00	1595.00
J12_39	5510.00	1595.00
J12_40	5655.00	1595.00
J12_41	5800.00	1595.00
J12_42	5945.00	1595.00
J12_43	6090.00	1595.00
J12_44	6235.00	1595.00
J12_45	6380.00	1595.00
J12_46	6525.00	1595.00
J12_47	6670.00	1595.00
J12_48	6815.00	1595.00
J12_49	6960.00	1595.00
J12_50	7105.00	1595.00
J12_51	7250.00	1595.00
J12_52	7395.00	1595.00
J12_53	7540.00	1595.00
J12_54	7685.00	1595.00
J12_55	7830.00	1595.00
J12_56	7975.00	1595.00
J12_57	8120.00	1595.00
J12_58	8265.00	1595.00
J12_59	8410.00	1595.00
J12_60	8555.00	1595.00
J12_61	8700.00	1595.00
J12_62	8845.00	1595.00
J12_63	8990.00	1595.00
J12_64	9135.00	1595.00
J12_65	9280.00	1595.00
J12_66	9425.00	1595.00
J12_67	9570.00	1595.00
J12_68	9715.00	1595.00
J12_69	9860.00	1595.00
J12_70	10005.00	1595.00
J12_71	10150.00	1595.00
J12_72	10295.00	1595.00
J13_1	0.00	1740.00
J13_2	145.00	1740.00
J13_3	290.00	1740.00
J13_4	435.00	1740.00
J13_5	580.00	1740.00
J13_6	725.00	1740.00
J13_7	870.00	1740.00
J13_8	1015.00	1740.00
J13_9	1160.00	1740.00
J13_10	1305.00	1740.00
J13_11	1450.00	1740.00
J13_12	1595.00	1740.00
J13_13	1740.00	1740.00
J13_14	1885.00	1740.00
J13_15	2030.00	1740.00
J13_16	2175.00	1740.00
J13_17	2320.00	1740.00
J13_18	2465.00	1740.00
J13_19	2610.00	1740.00
J13_20	2755.00	1740.00
J13_21	2900.00	1740.00
J13_22	3045.00	1740.00
J13_23	3190.00	1740.00
J13_24	3335.00	1740.00
J13_25	3480.00	1740.00
J13_26	3625.00	1740.00
J13_27	3770.00	1740.00
J13_28	3915.00	1740.00
J13_29	4060.00	1740.00
J13_30	4205.00	1740.00
J13_31	4350.00	1740.00
J13_32	4495.00	1740.00
J13_33	4640.00	1740.00
J13_34	4785.00	1740.00
J13_35	4930.00	1740.00
J13_36	5075.00	1740.00
J13_37	5220.00	1740.00
J13_38	5365.00	1740.00
J13_39	5510.00	1740.00
J13_40	5655.00	1740.00
J13_41	5800.00	1740.00
J13_42	5945.00	1740.00
J13_43	6090.00	1740.00
J13_44	6235.00	1740.00
J13_45	6380.00	1740.00
J13_46	6525.00	1740.00
J13_47	6670.00	1740.00
J13_48	6815.00	1740.00
J13_49	6960.00	1740.00
J13_50	7105.00	1740.00
J13_51	7250.00	1740.00
J13_52	7395.00	1740.00
J13_53	7540.00	1740.00
J13_54	7685.00	1740.00
J13_55	7830.00	1740.00
J13_56	7975.00	1740.00
J13_57	8120.00	1740.00
J13_58	8265.00	1740.00
J13_59	8410.00	1740.00
J13_60	8555.00	1740.00
J13_61	8700.00	1740.00
J13_62	8845.00	1740.00
J13_63	8990.00	1740.00
J13_64	9135.00	1740.00
J13_65	9280.00	1740.00
J13_66	9425.00	1740.00
J13_67	9570.00	1740.00
J13_68	9715.00	1740.00
J13_69	9860.00	1740.00
J13_70	10005.00	1740.00
J13_71	10150.00	1740.00
J13_72	10295.00	1740.00
J14_1	0.00	1885.00
J14_2	145.00	1885.00
J14_3	290.00	1885.00
J14_4	435.00	1885.00
J14_5	580.00	1885.00
J14_6	725.00	1885.00
J14_7	870.00	1885.00
J14_8	1015.00	1885.00
J14_9	1160.00	1885.00
J14_10	1305.00	1885.00
J14_11	1450.00	1885.00
J14_12	1595.00	1885.00
J14_13	1740.00	1885.00
J14_14	1885.00	1885.00
J14_15	2030.00	1885.00
J14_16	2175.00	1885.00
J14_17	2320.00	1885.00
J14_18	2465.00	1885.00
J14_19	2610.00	1885.00
J14_20	2755.00	1885.00
J14_21	2900.00	1885.00
J14_22	3045.00	1885.00
J14_23	3190.00	1885.00
J14_24	3335.00	1885.00
J14_25	3480.00	1885.00
J14_26	3625.00	1885.00
J14_27	3770.00	1885.00
J14_28	3915.00	1885.00
J14_29	4060.00	1885.00
J14_30	4205.00	1885.00
J14_31	4350.00	1885.00
J14_32	4495.00	1885.00
J14_33	4640.00	1885.00
J14_34	4785.00	1885.00
J14_35	4930.00	1885.00
J14_36	5075.00	1885.00
J14_37	5220.00	1885.00
J14_38	5365.00	1885.00
J14_39	5510.00	1885.00
J14_40	5655.00	1885.00
J14_41	5800.00	1885.00
J14_42	5945.00	1885.00
J14_43	6090.00	1885.00
J14_44	6235.00	1885.00
J14_45	6380.00	1885.00
J14_46	6525.00	1885.00
J14_47	6670.00	1885.00
J14_48	6815.00	1885.00
J14_49	6960.00	1885.00
J14_50	7105.00	1885.00
J14_51	7250.00	1885.00
J14_52	7395.00	1885.00
J14_53	7540.00	1885.00
J14_54	7685.00	1885.00
J14_55	7830.00	1885.00
J14_56	7975.00	1885.00
J14_57	8120.00	1885.00
J14_58	8265.00	1885.00
J14_59	8410.00	1885.00
J14_60	8555.00	1885.00
J14_61	8700.00	1885.00
J14_62	8845.00	1885.00
J14_63	8990.00	1885.00
J14_64	9135.00	1885.00
J14_65	9280.00	1885.00
J14_66	9425.00	1885.00
J14_67	9570.00	1885.00
J14_68	9715.00	1885.00
J14_69	9860.00	1885.00
J14_70	10005.00	1885.00
J14_71	10150.00	1885.00
J14_72	10295.00	1885.00
J15_1	0.00	2030.00
J15_2	145.00	2030.00
J15_3	290.00	2030.00
J15_4	435.00	2030.00
J15_5	580.00	2030.00
J15_6	725.00	2030.00
J15_7	870.00	2030.00
J15_8	1015.00	2030.00
J15_9	1160.00	2030.00
J15_10	1305.00	2030.00
J15_11	1450.00	2030.00
J15_12	1595.00	2030.00
J15_13	1740.00	2030.00
J15_14	1885.00	2030.00
J15_15	2030.00	2030.00
J15_16	2175.00	2030.00
J15_17	2320.00	2030.00
J15_18	2465.00	2030.00
J15_19	2610.00	2030.00
J15_20	2755.00	2030.00
J15_21	2900.00	2030.00
J15_22	3045.00	2030.00
J15_23	3190.00	2030.00
J15_24	3335.00	2030.00
J15_25	3480.00	2030.00
J15_26	3625.00	2030.00
J15_27	3770.00	2030.00
J15_28	3915.00	2030.00
J15_29	4060.00	2030.00
J15_30	4205.00	2030.00
J15_31	4350.00	2030.00
J15_32	4495.00	2030.00
J15_33	4640.00	2030.00
J15_34	4785.00	2030.00
J15_35	4930.00	2030.00
J15_36	5075.00	2030.00
J15_37	5220.00	2030.00
J15_38	5365.00	2030.00
J15_39	5510.00	2030.00
J15_40	5655.00	2030.00
J15_41	5800.00	2030.00
J15_42	5945.00	2030.00
J15_43	6090.00	2030.00
J15_44	6235.00	2030.00
J15_45	6380.00	2030.00
J15_46	6525.00	2030.00
J15_47	6670.00	2030.00
J15_48	6815.00	2030.00
J15_49	6960.00	2030.00
J15_50	7105.00	2030.00
J15_51	7250.00	2030.00
J15_52	7395.00	2030.00
J15_53	7540.00	2030.00
J15_54	7685.00	2030.00
J15_55	7830.00	2030.00
J15_56	7975.00	2030.00
J15_57	8120.00	2030.00
J15_58	8265.00	2030.00
J15_59	8410.00	2030.00
J15_60	8555.00	2030.00
J15_61	8700.00	2030.00
J15_62	8845.00	2030.00
J15_63	8990.00	2030.00
J15_64	9135.00	2030.00
J15_65	9280.00	2030.00
J15_66	9425.00	2030.00
J15_67	9570.00	2030.00
J15_68	9715.00	2030.00
J15_69	9860.00	2030.00
J15_70	10005.00	2030.00
J15_71	10150.00	2030.00
J15_72	10295.00	2030.00
J16_1	0.00	2175.00
J16_2	145.00	2175.00
J16_3	290.00	2175.00
J16_4	435.00	2175.00
J16_5	580.00	2175.00
J16_6	725.00	2175.00
J16_7	870.00	2175.00
J16_8	1015.00	2175.00
J16_9	1160.00	2175.00
J16_10	1305.00	2175.00
J16_11	1450.00	2175.00
J16_12	1595.00	2175.00
J16_13	1740.00	2175.00
J16_14	1885.00	2175.00
J16_15	2030.00	2175.00
J16_16	2175.00	2175.00
J16_17	2320.00	2175.00
J16_18	2465.00	2175.00
J16_19	2610.00	2175.00
J16_20	2755.00	2175.00
J16_21	2900.00	2175.00
J16_22	3045.00	2175.00
J16_23	3190.00	2175.00
J16_24	3335.00	2175.00
J16_25	3480.00	2175.00
J16_26	3625.00	2175.00
J16_27	3770.00	2175.00
J16_28	3915.00	2175.00
J16_29	4060.00	2175.00
J16_30	4205.00	2175.00
J16_31	4350.00	2175.00
J16_32	4495.00	2175.00
J16_33	4640.00	2175.00
J16_34	4785.00	2175.00
J16_35	4930.00	2175.00
J16_36	5075.00	2175.00
J16_37	5220.00	2175.00
J16_38	5365.00	2175.00
J16_39	5510.00	2175.00
J16_40	5655.00	2175.00
J16_41	5800.00	2175.00
J16_42	5945.00	2175.00
J16_43	6090.00	2175.00
J16_44	6235.00	2175.00
J16_45	6380.00	2175.00
J16_46	6525.00	2175.00
J16_47	6670.00	2175.00
J16_48	6815.00	2175.00
J16_49	6960.00	2175.00
J16_50	7105.00	2175.00
J16_51	7250.00	2175.00
J16_52	7395.00	2175.00
J16_53	7540.00	2175.00
J16_54	7685.00	2175.00
J16_55	7830.00	2175.00
J16_56	7975.00	2175.00
J16_57	8120.00	2175.00
J16_58	8265.00	2175.00
J16_59	8410.00	2175.00
J16_60	8555.00	2175.00
J16_61	8700.00	2175.00
J16_62	8845.00	2175.00
J16_63	8990.00	2175.00
J16_64	9135.00	2175.00
J16_65	9280.00	2175.00
J16_66	9425.00	2175.00
J16_67	9570.00	2175.00
J16_68	9715.00	2175.00
J16_69	9860.00	2175.00
J16_70	10005.00	2175.00
J16_71	10150.00	2175.00
J16_72	10295.00	2175.00
J17_1	0.00	2320.00
J17_2	145.00	2320.00
J17_3	290.00	2320.00
J17_4	435.00	2320.00
J17_5	580.00	2320.00
J17_6	725.00	2320.00
J17_7	870.00	2320.00
J17_8	1015.00	2320.00
J17_9	1160.00	2320.00
J17_10	1305.00	2320.00
J17_11	1450.00	2320.00
J17_12	1595.00	2320.00
J17_13	1740.00	2320.00
J17_14	1885.00	2320.00
J17_15	2030.00	2320.00
J17_16	2175.00	2320.00
J17_17	2320.00	2320.00
J17_18	2465.00	2320.00
J17_19	2610.00	2320.00
J17_20	2755.00	2320.00
J17_21	2900.00	2320.00
J17_22	3045.00	2320.00
J17_23	3190.00	2320.00
J17_24	3335.00	2320.00
J17_25	3480.00	2320.00
J17_26	3625.00	2320.00
J17_27	3770.00	2320.00
J17_28	3915.00	2320.00
J17_29	4060.00	2320.00
J17_30	4205.00	2320.00
J17_31	4350.00	2320.00
J17_32	4495.00	2320.00
J17_33	4640.00	2320.00
J17_34	4785.00	2320.00
J17_35	4930.00	2320.00
J17_36	5075.00	2320.00
J17_37	5220.00	2320.00
J17_38	5365.00	2320.00
J17_39	5510.00	2320.00
J17_40	5655.00	2320.00
J17_41	5800.00	2320.00
J17_42	5945.00	2320.00
J17_43	6090.00	2320.00
J17_44	6235.00	2320.00
J17_45	6380.00	2320.00
J17_46	6525.00	2320.00
J17_47	6670.00	2320.00
J17_48	6815.00	2320.00
J17_49	6960.00	2320.00
J17_50	7105.00	2320.00
J17_51	7250.00	2320.00
J17_52	7395.00	2320.00
J17_53	7540.00	2320.00
J17_54	7685.00	2320.00
J17_55	7830.00	2320.00
J17_56	7975.00	2320.00
J17_57	8120.00	2320.00
J17_58	8265.00	2320.00
J17_59	8410.00	2320.00
J17_60	8555.00	2320.00
J17_61	8700.00	2320.00
J17_62	8845.00	2320.00
J17_63	8990.00	2320.00
J17_64	9135.00	2320.00
J17_65	9280.00	2320.00
J17_66	9425.00	2320.00
J17_67	9570.00	2320.00
J17_68	9715.00	2320.00
J17_69	9860.00	2320.00
J17_70	10005.00	2320.00
J17_71	10150.00	2320.00
J17_72	10295.00	2320.00
J18_1	0.00	2465.00
J18_2	145.00	2465.00
J18_3	290.00	2465.00
J18_4	435.00	2465.00
J18_5	580.00	2465.00
J18_6	725.00	2465.00
J18_7	870.00	2465.00
J18_8	1015.00	2465.00
J18_9	1160.00	2465.00
J18_10	1305.00	2465.00
J18_11	1450.00	2465.00
J18_12	1595.00	2465.00
J18_13	1740.00	2465.00
J18_14	1885.00	2465.00
J18_15	2030.00	2465.00
J18_16	2175.00	2465.00
J18_17	2320.00	2465.00
J18_18	2465.00	2465.00
J18_19	2610.00	2465.00
J18_20	2755.00	2465.00
J18_21	2900.00	2465.00
J18_22	3045.00	2465.00
J18_23	3190.00	2465.00
J18_24	3335.00	2465.00
J18_25	3480.00	2465.00
J18_26	3625.00	2465.00
J18_27	3770.00	2465.00
J18_28	3915.00	2465.00
J18_29	4060.00	2465.00
J18_30	4205.00	2465.00
J18_31	4350.00	2465.00
J18_32	4495.00	2465.00
J18_33	4640.00	2465.00
J18_34	4785.00	2465.00
J18_35	4930.00	2465.00
J18_36	5075.00	2465.00
J18_37	5220.00	2465.00
J18_38	5365.00	2465.00
J18_39	5510.00	2465.00
J18_40	5655.00	2465.00
J18_41	5800.00	2465.00
J18_42	5945.00	2465.00
J18_43	6090.00	2465.00
J18_44	6235.00	2465.00
J18_45	6380.00	2465.00
J18_46	6525.00	2465.00
J18_47	6670.00	2465.00
J18_48	6815.00	2465.00
J18_49	6960.00	2465.00
J18_50	7105.00	2465.00
J18_51	7250.00	2465.00
J18_52	7395.00	2465.00
J18_53	7540.00	2465.00
J18_54	7685.00	2465.00
J18_55	7830.00	2465.00
J18_56	7975.00	2465.00
J18_57	8120.00	2465.00
J18_58	8265.00	2465.00
J18_59	8410.00	2465.00
J18_60	8555.00	2465.00
J18_61	8700.00	2465.00
J18_62	8845.00	2465.00
J18_63	8990.00	2465.00
J18_64	9135.00	2465.00
J18_65	9280.00	2465.00
J18_66	9425.00	2465.00
J18_67	9570.00	2465.00
J18_68	9715.00	2465.00
J18_69	9860.00	2465.00
J18_70	10005.00	2465.00
J18_71	10150.00	2465.00
J18_72	10295.00	2465.00
J19_1	0.00	2610.00
J19_2	145.00	2610.00
J19_3	290.00	2610.00
J19_4	435.00	2610.00
J19_5	580.00	2610.00
J19_6	725.00	2610.00
J19_7	870.00	2610.00
J19_8	1015.00	2610.00
J19_9	1160.00	2610.00
J19_10	1305.00	2610.00
J19_11	1450.00	2610.00
J19_12	1595.00	2610.00
J19_13	1740.00	2610.00
J19_14	1885.00	2610.00
J19_15	2030.00	2610.00
J19_16	2175.00	2610.00
J19_17	2320.00	2610.00
J19_18	2465.00	2610.00
J19_19	2610.00	2610.00
J19_20	2755.00	2610.00
J19_21	2900.00	2610.00
J19_22	3045.00	2610.00
J19_23	3190.00	2610.00
J19_24	3335.00	2610.00
J19_25	3480.00	2610.00
J19_26	3625.00	2610.00
J19_27	3770.00	2610.00
J19_28	3915.00	2610.00
J19_29	4060.00	2610.00
J19_30	4205.00	2610.00
J19_31	4350.00	2610.00
J19_32	4495.00	2610.00
J19_33	4640.00	2610.00
J19_34	4785.00	2610.00
J19_35	4930.00	2610.00
J19_36	5075.00	2610.00
J19_37	5220.00	2610.00
J19_38	5365.00	2610.00
J19_39	5510.00	2610.00
J19_40	5655.00	2610.00
J19_41	5800.00	2610.00
J19_42	5945.00	2610.00
J19_43	6090.00	2610.00
J19_44	6235.00	2610.00
J19_45	6380.00	2610.00
J19_46	6525.00	2610.00
J19_47	6670.00	2610.00
J19_48	6815.00	2610.00
J19_49	6960.00	2610.00
J19_50	7105.00	2610.00
J19_51	7250.00	2610.00
J19_52	7395.00	2610.00
J19_53	7540.00	2610.00
J19_54	7685.00	2610.00
J19_55	7830.00	2610.00
J19_56	7975.00	2610.00
J19_57	8120.00	2610.00
J19_58	8265.00	2610.00
J19_59	8410.00	2610.00
J19_60	8555.00	2610.00
J19_61	8700.00	2610.00
J19_62	8845.00	2610.00
J19_63	8990.00	2610.00
J19_64	9135.00	2610.00
J19_65	9280.00	2610.00
J19_66	9425.00	2610.00
J19_67	9570.00	2610.00
J19_68	9715.00	2610.00
J19_69	9860.00	2610.00
J19_70	10005.00	2610.00
J19_71	10150.00	2610.00
J19_72	10295.00	2610.00
J20_1	0.00	2755.00
J20_2	145.00	2755.00
J20_3	290.00	2755.00
J20_4	435.00	2755.00
J20_5	580.00	2755.00
J20_6	725.00	2755.00
J20_7	870.00	2755.00
J20_8	1015.00	2755.00
J20_9	1160.00	2755.00
J20_10	1305.00	2755.00
J20_11	1450.00	2755.00
J20_12	1595.00	2755.00
J20_13	1740.00	2755.00
J20_14	1885.00	2755.00
J20_15	2030.00	2755.00
J20_16	2175.00	2755.00
J20_17	2320.00	2755.00
J20_18	2465.00	2755.00
J20_19	2610.00	2755.00
J20_20	2755.00	2755.00
J20_21	2900.00	2755.00
J20_22	3045.00	2755.00
J20_23	3190.00	2755.00
J20_24	3335.00	2755.00
J20_25	3480.00	2755.00
J20_26	3625.00	2755.00
J20_27	3770.00	2755.00
J20_28	3915.00	2755.00
J20_29	4060.00	2755.00
J20_30	4205.00	2755.00
J20_31	4350.00	2755.00
J20_32	4495.00	2755.00
J20_33	4640.00	2755.00
J20_34	4785.00	2755.00
J20_35	4930.00	2755.00
J20_36	5075.00	2755.00
J20_37	5220.00	2755.00
J20_38	5365.00	2755.00
J20_39	5510.00	2755.00
J20_40	5655.00	2755.00
J20_41	5800.00	2755.00
J20_42	5945.00	2755.00
J20_43	6090.00	2755.00
J20_44	6235.00	2755.00
J20_45	6380.00	2755.00
J20_46	6525.00	2755.00
J20_47	6670.00	2755.00
J20_48	6815.00	2755.00
J20_49	6960.00	2755.00
J20_50	7105.00	2755.00
J20_51	7250.00	2755.00
J20_52	7395.00	2755.00
J20_53	7540.00	2755.00
J20_54	7685.00	2755.00
J20_55	7830.00	2755.00
J20_56	7975.00	2755.00
J20_57	8120.00	2755.00
J20_58	8265.00	2755.00
J20_59	8410.00	2755.00
J20_60	8555.00	2755.00
J20_61	8700.00	2755.00
J20_62	8845.00	2755.00
J20_63	8990.00	2755.00
J20_64	9135.00	2755.00
J20_65	9280.00	2755.00
J20_66	9425.00	2755.00
J20_67	9570.00	2755.00
J20_68	9715.00	2755.00
J20_69	9860.00	2755.00
J20_70	10005.00	2755.00
J20_71	10150.00	2755.00
J20_72	10295.00	2755.00
J21_1	0.00	2900.00
J21_2	145.00	2900.00
J21_3	290.00	2900.00
J21_4	435.00	2900.00
J21_5	580.00	2900.00
J21_6	725.00	2900.00
J21_7	870.00	2900.00
J21_8	1015.00	2900.00
J21_9	1160.00	2900.00
J21_10	1305.00	2900.00
J21_11	1450.00	2900.00
J21_12	1595.00	2900.00
J21_13	1740.00	2900.00
J21_14	1885.00	2900.00
J21_15	2030.00	2900.00
J21_16	2175.00	2900.00
J21_17	2320.00	2900.00
J21_18	2465.00	2900.00
J21_19	2610.00	2900.00
J21_20	2755.00	2900.00
J21_21	2900.00	2900.00
J21_22	3045.00	2900.00
J21_23	3190.00	2900.00
J21_24	3335.00	2900.00
J21_25	3480.00	2900.00
J21_26	3625.00	2900.00
J21_27	3770.00	2900.00
J21_28	3915.00	2900.00
J21_29	4060.00	2900.00
J21_30	4205.00	2900.00
J21_31	4350.00	2900.00
J21_32	4495.00	2900.00
J21_33	4640.00	2900.00
J21_34	4785.00	2900.00
J21_35	4930.00	2900.00
J21_36	5075.00	2900.00
J21_37	5220.00	2900.00
J21_38	5365.00	2900.00
J21_39	5510.00	2900.00
J21_40	5655.00	2900.00
J21_41	5800.00	2900.00
J21_42	5945.00	2900.00
J21_43	6090.00	2900.00
J21_44	6235.00	2900.00
J21_45	6380.00	2900.00
J21_46	6525.00	2900.00
J21_47	6670.00	2900.00
J21_48	6815.00	2900.00
J21_49	6960.00	2900.00
J21_50	7105.00	2900.00
J21_51	7250.00	2900.00
J21_52	7395.00	2900.00
J21_53	7540.00	2900.00
J21_54	7685.00	2900.00
J21_55	7830.00	2900.00
J21_56	7975.00	2900.00
J21_57	8120.00	2900.00
J21_58	8265.00	2900.00
J21_59	8410.00	2900.00
J21_60	8555.00	2900.00
J21_61	8700.00	2900.00
J21_62	8845.00	2900.00
J21_63	8990.00	2900.00
J21_64	9135.00	2900.00
J21_65	9280.00	2900.00
J21_66	9425.00	2900.00
J21_67	9570.00	2900.00
J21_68	9715.00	2900.00
J21_69	9860.00	2900.00
J21_70	10005.00	2900.00
J21_71	10150.00	2900.00
J21_72	10295.00	2900.00
J22_1	0.00	3045.00
J22_2	145.00	3045.00
J22_3	290.00	3045.00
J22_4	435.00	3045.00
J22_5	580.00	3045.00
J22_6	725.00	3045.00
J22_7	870.00	3045.00
J22_8	1015.00	3045.00
J22_9	1160.00	3045.00
J22_10	1305.00	3045.00
J22_11	1450.00	3045.00
J22_12	1595.00	3045.00
J22_13	1740.00	3045.00
J22_14	1885.00	3045.00
J22_15	2030.00	3045.00
J22_16	2175.00	3045.00
J22_17	2320.00	3045.00
J22_18	2465.00	3045.00
J22_19	2610.00	3045.00
J22_20	2755.00	3045.00
J22_21	2900.00	3045.00
J22_22	3045.00	3045.00
J22_23	3190.00	3045.00
J22_24	3335.00	3045.00
J22_25	3480.00	3045.00
J22_26	3625.00	3045.00
J22_27	3770.00	3045.00
J22_28	3915.00	3045.00
J22_29	4060.00	3045.00
J22_30	4205.00	3045.00
J22_31	4350.00	3045.00
J22_32	4495.00	3045.00
J22_33	4640.00	3045.00
J22_34	4785.00	3045.00
J22_35	4930.00	3045.00
J22_36	5075.00	3045.00
J22_37	5220.00	3045.00
J22_38	5365.00	3045.00
J22_39	5510.00	3045.00
J22_40	5655.00	3045.00
J22_41	5800.00	3045.00
J22_42	5945.00	3045.00
J22_43	6090.00	3045.00
J22_44	6235.00	3045.00
J22_45	6380.00	3045.00
J22_46	6525.00	3045.00
J22_47	6670.00	3045.00
J22_48	6815.00	3045.00
J22_49	6960.00	3045.00
J22_50	7105.00	3045.00
J22_51	7250.00	3045.00
J22_52	7395.00	3045.00
J22_53	7540.00	3045.00
J22_54	7685.00	3045.00
J22_55	7830.00	3045.00
J22_56	7975.00	3045.00
J22_57	8120.00	3045.00
J22_58	8265.00	3045.00
J22_59	8410.00	3045.00
J22_60	8555.00	3045.00
J22_61	8700.00	3045.00
J22_62	8845.00	3045.00
J22_63	8990.00	3045.00
J22_64	9135.00	3045.00
J22_65	9280.00	3045.00
J22_66	9425.00	3045.00
J22_67	9570.00	3045.00
J22_68	9715.00	3045.00
J22_69	9860.00	3045.00
J22_70	10005.00	3045.00
J22_71	10150.00	3045.00
J22_72	10295.00	3045.00
J23_1	0.00	3190.00
J23_2	145.00	3190.00
J23_3	290.00	3190.00
J23_4	435.00	3190.00
J23_5	580.00	3190.00
J23_6	725.00	3190.00
J23_7	870.00	3190.00
J23_8	1015.00	3190.00
J23_9	1160.00	3190.00
J23_10	1305.00	3190.00
J23_11	1450.00	3190.00
J23_12	1595.00	3190.00
J23_13	1740.00	3190.00
J23_14	1885.00	3190.00
J23_15	2030.00	3190.00
J23_16	2175.00	3190.00
J23_17	2320.00	3190.00
J23_18	2465.00	3190.00
J23_19	2610.00	3190.00
J23_20	2755.00	3190.00
J23_21	2900.00	3190.00
J23_22	3045.00	3190.00
J23_23	3190.00	3190.00
J23_24	3335.00	3190.00
J23_25	3480.00	3190.00
J23_26	3625.00	3190.00
J23_27	3770.00	3190.00
J23_28	3915.00	3190.00
J23_29	4060.00	3190.00
J23_30	4205.00	3190.00
J23_31	4350.00	3190.00
J23_32	4495.00	3190.00
J23_33	4640.00	3190.00
J23_34	4785.00	3190.00
J23_35	4930.00	3190.00
J23_36	5075.00	3190.00
J23_37	5220.00	3190.00
J23_38	5365.00	3190.00
J23_39	5510.00	3190.00
J23_40	5655.00	3190.00
J23_41	5800.00	3190.00
J23_42	5945.00	3190.00
J23_43	6090.00	3190.00
J23_44	6235.00	3190.00
J23_45	6380.00	3190.00
J23_46	6525.00	3190.00
J23_47	6670.00	3190.00
J23_48	6815.00	3190.00
J23_49	6960.00	3190.00
J23_50	7105.00	3190.00
J23_51	7250.00	3190.00
J23_52	7395.00	3190.00
J23_53	7540.00	3190.00
J23_54	7685.00	3190.00
J23_55	7830.00	3190.00
J23_56	7975.00	3190.00
J23_57	8120.00	3190.00
J23_58	8265.00	3190.00
J23_59	8410.00	3190.00
J23_60	8555.00	3190.00
J23_61	8700.00	3190.00
J23_62	8845.00	3190.00
J23_63	8990.00	3190.00
J23_64	9135.00	3190.00
J23_65	9280.00	3190.00
J23_66	9425.00	3190.00
J23_67	9570.00	3190.00
J23_68	9715.00	3190.00
J23_69	9860.00	3190.00
J23_70	10005.00	3190.00
J23_71	10150.00	3190.00
J23_72	10295.00	3190.00
J24_1	0.00	3335.00
J24_2	145.00	3335.00
J24_3	290.00	3335.00
J24_4	435.00	3335.00
J24_5	580.00	3335.00
J24_6	725.00	3335.00
J24_7	870.00	3335.00
J24_8	1015.00	3335.00
J24_9	1160.00	3335.00
J24_10	1305.00	3335.00
J24_11	1450.00	3335.00
J24_12	1595.00	3335.00
J24_13	1740.00	3335.00
J24_14	1885.00	3335.00
J24_15	2030.00	3335.00
J24_16	2175.00	3335.00
J24_17	2320.00	3335.00
J24_18	2465.00	3335.00
J24_19	2610.00	3335.00
J24_20	2755.00	3335.00
J24_21	2900.00	3335.00
J24_22	3045.00	3335.00
J24_23	3190.00	3335.00
J24_24	3335.00	3335.00
J24_25	3480.00	3335.00
J24_26	3625.00	3335.00
J24_27	3770.00	3335.00
J24_28	3915.00	3335.00
J24_29	4060.00	3335.00
J24_30	4205.00	3335.00
J24_31	4350.00	3335.00
J24_32	4495.00	3335.00
J24_33	4640.00	3335.00
J24_34	4785.00	3335.00
J24_35	4930.00	3335.00
J24_36	5075.00	3335.00
J24_37	5220.00	3335.00
J24_38	5365.00	3335.00
J24_39	5510.00	3335.00
J24_40	5655.00	3335.00
J24_41	5800.00	3335.00
J24_42	5945.00	3335.00
J24_43	6090.00	3335.00
J24_44	6235.00	3335.00
J24_45	6380.00	3335.00
J24_46	6525.00	3335.00
J24_47	6670.00	3335.00
J24_48	6815.00	3335.00
J24_49	6960.00	3335.00
J24_50	7105.00	3335.00
J24_51	7250.00	3335.00
J24_52	7395.00	3335.00
J24_53	7540.00	3335.00
J24_54	7685.00	3335.00
J24_55	7830.00	3335.00
J24_56	7975.00	3335.00
J24_57	8120.00	3335.00
J24_58	8265.00	3335.00
J24_59	8410.00	3335.00
J24_60	8555.00	3335.00
J24_61	8700.00	3335.00
J24_62	8845.00	3335.00
J24_63	8990.00	3335.00
J24_64	9135.00	3335.00
J24_65	9280.00	3335.00
J24_66	9425.00	3335.00
J24_67	9570.00	3335.00
J24_68	9715.00	3335.00
J24_69	9860.00	3335.00
J24_70	10005.00	3335.00
J24_71	10150.00	3335.00
J24_72	10295.00	3335.00
J25_1	0.00	3480.00
J25_2	145.00	3480.00
J25_3	290.00	3480.00
J25_4	435.00	3480.00
J25_5	580.00	3480.00
J25_6	725.00	3480.00
J25_7	870.00	3480.00
J25_8	1015.00	3480.00
J25_9	1160.00	3480.00
J25_10	1305.00	3480.00
J25_11	1450.00	3480.00
J25_12	1595.00	3480.00
J25_13	1740.00	3480.00
J25_14	1885.00	3480.00
J25_15	2030.00	3480.00
J25_16	2175.00	3480.00
J25_17	2320.00	3480.00
J25_18	2465.00	3480.00
J25_19	2610.00	3480.00
J25_20	2755.00	3480.00
J25_21	2900.00	3480.00
J25_22	3045.00	3480.00
J25_23	3190.00	3480.00
J25_24	3335.00	3480.00
J25_25	3480.00	3480.00
J25_26	3625.00	3480.00
J25_27	3770.00	3480.00
J25_28	3915.00	3480.00
J25_29	4060.00	3480.00
J25_30	4205.00	3480.00
J25_31	4350.00	3480.00
J25_32	4495.00	3480.00
J25_33	4640.00	3480.00
J25_34	4785.00	3480.00
J25_35	4930.00	3480.00
J25_36	5075.00	3480.00
J25_37	5220.00	3480.00
J25_38	5365.00	3480.00
J25_39	5510.00	3480.00
J25_40	5655.00	3480.00
J25_41	5800.00	3480.00
J25_42	5945.00	3480.00
J25_43	6090.00	3480.00
J25_44	6235.00	3480.00
J25_45	6380.00	3480.00
J25_46	6525.00	3480.00
J25_47	6670.00	3480.00
J25_48	6815.00	3480.00
J25_49	6960.00	3480.00
J25_50	7105.00	3480.00
J25_51	7250.00	3480.00
J25_52	7395.00	3480.00
J25_53	7540.00	3480.00
J25_54	7685.00	3480.00
J25_55	7830.00	3480.00
J25_56	7975.00	3480.00
J25_57	8120.00	3480.00
J25_58	8265.00	3480.00
J25_59	8410.00	3480.00
J25_60	8555.00	3480.00
J25_61	8700.00	3480.00
J25_62	8845.00	3480.00
J25_63	8990.00	3480.00
J25_64	9135.00	3480.00
J25_65	9280.00	3480.00
J25_66	9425.00	3480.00
J25_67	9570.00	3480.00
J25_68	9715.00	3480.00
J25_69	9860.00	3480.00
J25_70	10005.00	3480.00
J25_71	10150.00	3480.00
J25_72	10295.00	3480.00
J26_1	0.00	3625.00
J26_2	145.00	3625.00
J26_3	290.00	3625.00
J26_4	435.00	3625.00
J26_5	580.00	3625.00
J26_6	725.00	3625.00
J26_7	870.00	3625.00
J26_8	1015.00	3625.00
J26_9	1160.00	3625.00
J26_10	1305.00	3625.00
J26_11	1450.00	3625.00
J26_12	1595.00	3625.00
J26_13	1740.00	3625.00
J26_14	1885.00	3625.00
J26_15	2030.00	3625.00
J26_16	2175.00	3625.00
J26_17	2320.00	3625.00
J26_18	2465.00	3625.00
J26_19	2610.00	3625.00
J26_20	2755.00	3625.00
J26_21	2900.00	3625.00
J26_22	3045.00	3625.00
J26_23	3190.00	3625.00
J26_24	3335.00	3625.00
J26_25	3480.00	3625.00
J26_26	3625.00	3625.00
J26_27	3770.00	3625.00
J26_28	3915.00	3625.00
J26_29	4060.00	3625.00
J26_30	4205.00	3625.00
J26_31	4350.00	3625.00
J26_32	4495.00	3625.00
J26_33	4640.00	3625.00
J26_34	4785.00	3625.00
J26_35	4930.00	3625.00
J26_36	5075.00	3625.00
J26_37	5220.00	3625.00
J26_38	5365.00	3625.00
J26_39	5510.00	3625.00
J26_40	5655.00	3625.00
J26_41	5800.00	3625.00
J26_42	5945.00	3625.00
J26_43	6090.00	3625.00
J26_44	6235.00	3625.00
J26_45	6380.00	3625.00
J26_46	6525.00	3625.00
J26_47	6670.00	3625.00
J26_48	6815.00	3625.00
J26_49	6960.00	3625.00
J26_50	7105.00	3625.00
J26_51	7250.00	3625.00
J26_52	7395.00	3625.00
J26_53	7540.00	3625.00
J26_54	7685.00	3625.00
J26_55	7830.00	3625.00
J26_56	7975.00	3625.00
J26_57	8120.00	3625.00
J26_58	8265.00	3625.00
J26_59	8410.00	3625.00
J26_60	8555.00	3625.00
J26_61	8700.00	3625.00
J26_62	8845.00	3625.00
J26_63	8990.00	3625.00
J26_64	9135.00	3625.00
J26_65	9280.00	3625.00
J26_66	9425.00	3625.00
J26_67	9570.00	3625.00
J26_68	9715.00	3625.00
J26_69	9860.00	3625.00
J26_70	10005.00	3625.00
J26_71	10150.00	3625.00
J26_72	10295.00	3625.00
J27_1	0.00	3770.00
J27_2	145.00	3770.00
J27_3	290.00	3770.00
J27_4	435.00	3770.00
J27_5	580.00	3770.00
J27_6	725.00	3770.00
J27_7	870.00	3770.00
J27_8	1015.00	3770.00
J27_9	1160.00	3770.00
J27_10	1305.00	3770.00
J27_11	1450.00	3770.00
J27_12	1595.00	3770.00
J27_13	1740.00	3770.00
J27_14	1885.00	3770.00
J27_15	2030.00	3770.00
J27_16	2175.00	3770.00
J27_17	2320.00	3770.00
J27_18	2465.00	3770.00
J27_19	2610.00	3770.00
J27_20	2755.00	3770.00
J27_21	2900.00	3770.00
J27_22	3045.00	3770.00
J27_23	3190.00	3770.00
J27_24	3335.00	3770.00
J27_25	3480.00	3770.00
J27_26	3625.00	3770.00
J27_27	3770.00	3770.00
J27_28	3915.00	3770.00
J27_29	4060.00	3770.00
J27_30	4205.00	3770.00
J27_31	4350.00	3770.00
J27_32	4495.00	3770.00
J27_33	4640.00	3770.00
J27_34	4785.00	3770.00
J27_35	4930.00	3770.00
J27_36	5075.00	3770.00
J27_37	5220.00	3770.00
J27_38	5365.00	3770.00
J27_39	5510.00	3770.00
J27_40	5655.00	3770.00
J27_41	5800.00	3770.00
J27_42	5945.00	3770.00
J27_43	6090.00	3770.00
J27_44	6235.00	3770.00
J27_45	6380.00	3770.00
J27_46	6525.00	3770.00
J27_47	6670.00	3770.00
J27_48	6815.00	3770.00
J27_49	6960.00	3770.00
J27_50	7105.00	3770.00
J27_51	7250.00	3770.00
J27_52	7395.00	3770.00
J27_53	7540.00	3770.00
J27_54	7685.00	3770.00
J27_55	7830.00	3770.00
J27_56	7975.00	3770.00
J27_57	8120.00	3770.00
J27_58	8265.00	3770.00
J27_59	8410.00	3770.00
J27_60	8555.00	3770.00
J27_61	8700.00	3770.00
J27_62	8845.00	3770.00
J27_63	8990.00	3770.00
J27_64	9135.00	3770.00
J27_65	9280.00	3770.00
J27_66	9425.00	3770.00
J27_67	9570.00	3770.00
J27_68	9715.00	3770.00
J27_69	9860.00	3770.00
J27_70	10005.00	3770.00
J27_71	10150.00	3770.00
J27_72	10295.00	3770.00
J28_1	0.00	3915.00
J28_2	145.00	3915.00
J28_3	290.00	3915.00
J28_4	435.00	3915.00
J28_5	580.00	3915.00
J28_6	725.00	3915.00
J28_7	870.00	3915.00
J28_8	1015.00	3915.00
J28_9	1160.00	3915.00
J28_10	1305.00	3915.00
J28_11	1450.00	3915.00
J28_12	1595.00	3915.00
J28_13	1740.00	3915.00
J28_14	1885.00	3915.00
J28_15	2030.00	3915.00
J28_16	2175.00	3915.00
J28_17	2320.00	3915.00
J28_18	2465.00	3915.00
J28_19	2610.00	3915.00
J28_20	2755.00	3915.00
J28_21	2900.00	3915.00
J28_22	3045.00	3915.00
J28_23	3190.00	3915.00
J28_24	3335.00	3915.00
J28_25	3480.00	3915.00
J28_26	3625.00	3915.00
J28_27	3770.00	3915.00
J28_28	3915.00	3915.00
J28_29	4060.00	3915.00
J28_30	4205.00	3915.00
J28_31	4350.00	3915.00
J28_32	4495.00	3915.00
J28_33	4640.00	3915.00
J28_34	4785.00	3915.00
J28_35	4930.00	3915.00
J28_36	5075.00	3915.00
J28_37	5220.00	3915.00
J28_38	5365.00	3915.00
J28_39	5510.00	3915.00
J28_40	5655.00	3915.00
J28_41	5800.00	3915.00
J28_42	5945.00	3915.00
J28_43	6090.00	3915.00
J28_44	6235.00	3915.00
J28_45	6380.00	3915.00
J28_46	6525.00	3915.00
J28_47	6670.00	3915.00
J28_48	6815.00	3915.00
J28_49	6960.00	3915.00
J28_50	7105.00	3915.00
J28_51	7250.00	3915.00
J28_52	7395.00	3915.00
J28_53	7540.00	3915.00
J28_54	7685.00	3915.00
J28_55	7830.00	3915.00
J28_56	7975.00	3915.00
J28_57	8120.00	3915.00
J28_58	8265.00	3915.00
J28_59	8410.00	3915.00
J28_60	8555.00	3915.00
J28_61	8700.00	3915.00
J28_62	8845.00	3915.00
J28_63	8990.00	3915.00
J28_64	9135.00	3915.00
J28_65	9280.00	3915.00
J28_66	9425.00	3915.00
J28_67	9570.00	3915.00
J28_68	9715.00	3915.00
J28_69	9860.00	3915.00
J28_70	10005.00	3915.00
J28_71	10150.00	3915.00
J28_72	10295.00	3915.00
J29_1	0.00	4060.00
J29_2	145.00	4060.00
J29_3	290.00	4060.00
J29_4	435.00	4060.00
J29_5	580.00	4060.00
J29_6	725.00	4060.00
J29_7	870.00	4060.00
J29_8	1015.00	4060.00
J29_9	1160.00	4060.00
J29_10	1305.00	4060.00
J29_11	1450.00	4060.00
J29_12	1595.00	4060.00
J29_13	1740.00	4060.00
J29_14	1885.00	4060.00
J29_15	2030.00	4060.00
J29_16	2175.00	4060.00
J29_17	2320.00	4060.00
J29_18	2465.00	4060.00
J29_19	2610.00	4060.00
J29_20	2755.00	4060.00
J29_21	2900.00	4060.00
J29_22	3045.00	4060.00
J29_23	3190.00	4060.00
J29_24	3335.00	4060.00
J29_25	3480.00	4060.00
J29_26	3625.00	4060.00
J29_27	3770.00	4060.00
J29_28	3915.00	4060.00
J29_29	4060.00	4060.00
J29_30	4205.00	4060.00
J29_31	4350.00	4060.00
J29_32	4495.00	4060.00
J29_33	4640.00	4060.00
J29_34	4785.00	4060.00
J29_35	4930.00	4060.00
J29_36	5075.00	4060.00
J29_37	5220.00	4060.00
J29_38	5365.00	4060.00
J29_39	5510.00	4060.00
J29_40	5655.00	4060.00
J29_41	5800.00	4060.00
J29_42	5945.00	4060.00
J29_43	6090.00	4060.00
J29_44	6235.00	4060.00
J29_45	6380.00	4060.00
J29_46	6525.00	4060.00
J29_47	6670.00	4060.00
J29_48	6815.00	4060.00
J29_49	6960.00	4060.00
J29_50	7105.00	4060.00
J29_51	7250.00	4060.00
J29_52	7395.00	4060.00
J29_53	7540.00	4060.00
J29_54	7685.00	4060.00
J29_55	7830.00	4060.00
J29_56	7975.00	4060.00
J29_57	8120.00	4060.00
J29_58	8265.00	4060.00
J29_59	8410.00	4060.00
J29_60	8555.00	4060.00
J29_61	8700.00	4060.00
J29_62	8845.00	4060.00
J29_63	8990.00	4060.00
J29_64	9135.00	4060.00
J29_65	9280.00	4060.00
J29_66	9425.00	4060.00
J29_67	9570.00	4060.00
J29_68	9715.00	4060.00
J29_69	9860.00	4060.00
J29_70	10005.00	4060.00
J29_71	10150.00	4060.00
J29_72	10295.00	4060.00
J30_1	0.00	4205.00
J30_2	145.00	4205.00
J30_3	290.00	4205.00
J30_4	435.00	4205.00
J30_5	580.00	4205.00
J30_6	725.00	4205.00
J30_7	870.00	4205.00
J30_8	1015.00	4205.00
J30_9	1160.00	4205.00
J30_10	1305.00	4205.00
J30_11	1450.00	4205.00
J30_12	1595.00	4205.00
J30_13	1740.00	4205.00
J30_14	1885.00	4205.00
J30_15	2030.00	4205.00
J30_16	2175.00	4205.00
J30_17	2320.00	4205.00
J30_18	2465.00	4205.00
J30_19	2610.00	4205.00
J30_20	2755.00	4205.00
J30_21	2900.00	4205.00
J30_22	3045.00	4205.00
J30_23	3190.00	4205.00
J30_24	3335.00	4205.00
J30_25	3480.00	4205.00
J30_26	3625.00	4205.00
J30_27	3770.00	4205.00
J30_28	3915.00	4205.00
J30_29	4060.00	4205.00
J30_30	4205.00	4205.00
J30_31	4350.00	4205.00
J30_32	4495.00	4205.00
J30_33	4640.00	4205.00
J30_34	4785.00	4205.00
J30_35	4930.00	4205.00
J30_36	5075.00	4205.00
J30_37	5220.00	4205.00
J30_38	5365.00	4205.00
J30_39	5510.00	4205.00
J30_40	5655.00	4205.00
J30_41	5800.00	4205.00
J30_42	5945.00	4205.00
J30_43	6090.00	4205.00
J30_44	6235.00	4205.00
J30_45	6380.00	4205.00
J30_46	6525.00	4205.00
J30_47	6670.00	4205.00
J30_48	6815.00	4205.00
J30_49	6960.00	4205.00
J30_50	7105.00	4205.00
J30_51	7250.00	4205.00
J30_52	7395.00	4205.00
J30_53	7540.00	4205.00
J30_54	7685.00	4205.00
J30_55	7830.00	4205.00
J30_56	7975.00	4205.00
J30_57	8120.00	4205.00
J30_58	8265.00	4205.00
J30_59	8410.00	4205.00
J30_60	8555.00	4205.00
J30_61	8700.00	4205.00
J30_62	8845.00	4205.00
J30_63	8990.00	4205.00
J30_64	9135.00	4205.00
J30_65	9280.00	4205.00
J30_66	9425.00	4205.00
J30_67	9570.00	4205.00
J30_68	9715.00	4205.00
J30_69	9860.00	4205.00
J30_70	10005.00	4205.00
J30_71	10150.00	4205.00
J30_72	10295.00	4205.00
J31_1	0.00	4350.00
J31_2	145.00	4350.00
J31_3	290.00	4350.00
J31_4	435.00	4350.00
J31_5	580.00	4350.00
J31_6	725.00	4350.00
J31_7	870.00	4350.00
J31_8	1015.00	4350.00
J31_9	1160.00	4350.00
J31_10	1305.00	4350.00
J31_11	1450.00	4350.00
J31_12	1595.00	4350.00
J31_13	1740.00	4350.00
J31_14	1885.00	4350.00
J31_15	2030.00	4350.00
J31_16	2175.00	4350.00
J31_17	2320.00	4350.00
J31_18	2465.00	4350.00
J31_19	2610.00	4350.00
J31_20	2755.00	4350.00
J31_21	2900.00	4350.00
J31_22	3045.00	4350.00
J31_23	3190.00	4350.00
J31_24	3335.00	4350.00
J31_25	3480.00	4350.00
J31_26	3625.00	4350.00
J31_27	3770.00	4350.00
J31_28	3915.00	4350.00
J31_29	4060.00	4350.00
J31_30	4205.00	4350.00
J31_31	4350.00	4350.00
J31_32	4495.00	4350.00
J31_33	4640.00	4350.00
J31_34	4785.00	4350.00
J31_35	4930.00	4350.00
J31_36	5075.00	4350.00
J31_37	5220.00	4350.00
J31_38	5365.00	4350.00
J31_39	5510.00	4350.00
J31_40	5655.00	4350.00
J31_41	5800.00	4350.00
J31_42	5945.00	4350.00
J31_43	6090.00	4350.00
J31_44	6235.00	4350.00
J31_45	6380.00	4350.00
J31_46	6525.00	4350.00
J31_47	6670.00	4350.00
J31_48	6815.00	4350.00
J31_49	6960.00	4350.00
J31_50	7105.00	4350.00
J31_51	7250.00	4350.00
J31_52	7395.00	4350.00
J31_53	7540.00	4350.00
J31_54	7685.00	4350.00
J31_55	7830.00	4350.00
J31_56	7975.00	4350.00
J31_57	8120.00	4350.00
J31_58	8265.00	4350.00
J31_59	8410.00	4350.00
J31_60	8555.00	4350.00
J31_61	8700.00	4350.00
J31_62	8845.00	4350.00
J31_63	8990.00	4350.00
J31_64	9135.00	4350.00
J31_65	9280.00	4350.00
J31_66	9425.00	4350.00
J31_67	9570.00	4350.00
J31_68	9715.00	4350.00
J31_69	9860.00	4350.00
J31_70	10005.00	4350.00
J31_71	10150.00	4350.00
J31_72	10295.00	4350.00
J32_1	0.00	4495.00
J32_2	145.00	4495.00
J32_3	290.00	4495.00
J32_4	435.00	4495.00
J32_5	580.00	4495.00
J32_6	725.00	4495.00
J32_7	870.00	4495.00
J32_8	1015.00	4495.00
J32_9	1160.00	4495.00
J32_10	1305.00	4495.00
J32_11	1450.00	4495.00
J32_12	1595.00	4495.00
J32_13	1740.00	4495.00
J32_14	1885.00	4495.00
J32_15	2030.00	4495.00
J32_16	2175.00	4495.00
J32_17	2320.00	4495.00
J32_18	2465.00	4495.00
J32_19	2610.00	4495.00
J32_20	2755.00	4495.00
J32_21	2900.00	4495.00
J32_22	3045.00	4495.00
J32_23	3190.00	4495.00
J32_24	3335.00	4495.00
J32_25	3480.00	4495.00
J32_26	3625.00	4495.00
J32_27	3770.00	4495.00
J32_28	3915.00	4495.00
J32_29	4060.00	4495.00
J32_30	4205.00	4495.00
J32_31	4350.00	4495.00
J32_32	4495.00	4495.00
J32_33	4640.00	4495.00
J32_34	4785.00	4495.00
J32_35	4930.00	4495.00
J32_36	5075.00	4495.00
J32_37	5220.00	4495.00
J32_38	5365.00	4495.00
J32_39	5510.00	4495.00
J32_40	5655.00	4495.00
J32_41	5800.00	4495.00
J32_42	5945.00	4495.00
J32_43	6090.00	4495.00
J32_44	6235.00	4495.00
J32_45	6380.00	4495.00
J32_46	6525.00	4495.00
J32_47	6670.00	4495.00
J32_48	6815.00	4495.00
J32_49	6960.00	4495.00
J32_50	7105.00	4495.00
J32_51	7250.00	4495.00
J32_52	7395.00	4495.00
J32_53	7540.00	4495.00
J32_54	7685.00	4495.00
J32_55	7830.00	4495.00
J32_56	7975.00	4495.00
J32_57	8120.00	4495.00
J32_58	8265.00	4495.00
J32_59	8410.00	4495.00
J32_60	8555.00	4495.00
J32_61	8700.00	4495.00
J32_62	8845.00	4495.00
J32_63	8990.00	4495.00
J32_64	9135.00	4495.00
J32_65	9280.00	4495.00
J32_66	9425.00	4495.00
J32_67	9570.00	4495.00
J32_68	9715.00	4495.00
J32_69	9860.00	4495.00
J32_70	10005.00	4495.00
J32_71	10150.00	4495.00
J32_72	10295.00	4495.00
J33_1	0.00	4640.00
J33_2	145.00	4640.00
J33_3	290.00	4640.00
J33_4	435.00	4640.00
J33_5	580.00	4640.00
J33_6	725.00	4640.00
J33_7	870.00	4640.00
J33_8	1015.00	4640.00
J33_9	1160.00	4640.00
J33_10	1305.00	4640.00
J33_11	1450.00	4640.00
J33_12	1595.00	4640.00
J33_13	1740.00	4640.00
J33_14	1885.00	4640.00
J33_15	2030.00	4640.00
J33_16	2175.00	4640.00
J33_17	2320.00	4640.00
J33_18	2465.00	4640.00
J33_19	2610.00	4640.00
J33_20	2755.00	4640.00
J33_21	2900.00	4640.00
J33_22	3045.00	4640.00
J33_23	3190.00	4640.00
J33_24	3335.00	4640.00
J33_25	3480.00	4640.00
J33_26	3625.00	4640.00
J33_27	3770.00	4640.00
J33_28	3915.00	4640.00
J33_29	4060.00	4640.00
J33_30	4205.00	4640.00
J33_31	4350.00	4640.00
J33_32	4495.00	4640.00
J33_33	4640.00	4640.00
J33_34	4785.00	4640.00
J33_35	4930.00	4640.00
J33_36	5075.00	4640.00
J33_37	5220.00	4640.00
J33_38	5365.00	4640.00
J33_39	5510.00	4640.00
J33_40	5655.00	4640.00
J33_41	5800.00	4640.00
J33_42	5945.00	4640.00
J33_43	6090.00	4640.00
J33_44	6235.00	4640.00
J33_45	6380.00	4640.00
J33_46	6525.00	4640.00
J33_47	6670.00	4640.00
J33_48	6815.00	4640.00
J33_49	6960.00	4640.00
J33_50	7105.00	4640.00
J33_51	7250.00	4640.00
J33_52	7395.00	4640.00
J33_53	7540.00	4640.00
J33_54	7685.00	4640.00
J33_55	7830.00	4640.00
J33_56	7975.00	4640.00
J33_57	8120.00	4640.00
J33_58	8265.00	4640.00
J33_59	8410.00	4640.00
J33_60	8555.00	4640.00
J33_61	8700.00	4640.00
J33_62	8845.00	4640.00
J33_63	8990.00	4640.00
J33_64	9135.00	4640.00
J33_65	9280.00	4640.00
J33_66	9425.00	4640.00
J33_67	9570.00	4640.00
J33_68	9715.00	4640.00
J33_69	9860.00	4640.00
J33_70	10005.00	4640.00
J33_71	10150.00	4640.00
J33_72	10295.00	4640.00
J34_1	0.00	4785.00
J34_2	145.00	4785.00
J34_3	290.00	4785.00
J34_4	435.00	4785.00
J34_5	580.00	4785.00
J34_6	725.00	4785.00
J34_7	870.00	4785.00
J34_8	1015.00	4785.00
J34_9	1160.00	4785.00
J34_10	1305.00	4785.00
J34_11	1450.00	4785.00
J34_12	1595.00	4785.00
J34_13	1740.00	4785.00
J34_14	1885.00	4785.00
J34_15	2030.00	4785.00
J34_16	2175.00	4785.00
J34_17	2320.00	4785.00
J34_18	2465.00	4785.00
J34_19	2610.00	4785.00
J34_20	2755.00	4785.00
J34_21	2900.00	4785.00
J34_22	3045.00	4785.00
J34_23	3190.00	4785.00
J34_24	3335.00	4785.00
J34_25	3480.00	4785.00
J34_26	3625.00	4785.00
J34_27	3770.00	4785.00
J34_28	3915.00	4785.00
J34_29	4060.00	4785.00
J34_30	4205.00	4785.00
J34_31	4350.00	4785.00
J34_32	4495.00	4785.00
J34_33	4640.00	4785.00
J34_34	4785.00	4785.00
J34_35	4930.00	4785.00
J34_36	5075.00	4785.00
J34_37	5220.00	4785.00
J34_38	5365.00	4785.00
J34_39	5510.00	4785.00
J34_40	5655.00	4785.00
J34_41	5800.00	4785.00
J34_42	5945.00	4785.00
J34_43	6090.00	4785.00
J34_44	6235.00	4785.00
J34_45	6380.00	4785.00
J34_46	6525.00	4785.00
J34_47	6670.00	4785.00
J34_48	6815.00	4785.00
J34_49	6960.00	4785.00
J34_50	7105.00	4785.00
J34_51	7250.00	4785.00
J34_52	7395.00	4785.00
J34_53	7540.00	4785.00
J34_54	7685.00	4785.00
J34_55	7830.00	4785.00
J34_56	7975.00	4785.00
J34_57	8120.00	4785.00
J34_58	8265.00	4785.00
J34_59	8410.00	4785.00
J34_60	8555.00	4785.00
J34_61	8700.00	4785.00
J34_62	8845.00	4785.00
J34_63	8990.00	4785.00
J34_64	9135.00	4785.00
J34_65	9280.00	4785.00
J34_66	9425.00	4785.00
J34_67	9570.00	4785.00
J34_68	9715.00	4785.00
J34_69	9860.00	4785.00
J34_70	10005.00	4785.00
J34_71	10150.00	4785.00
J34_72	10295.00	4785.00
J35_1	0.00	4930.00
J35_2	145.00	4930.00
J35_3	290.00	4930.00
J35_4	435.00	4930.00
J35_5	580.00	4930.00
J35_6	725.00	4930.00
J35_7	870.00	4930.00
J35_8	1015.00	4930.00
J35_9	1160.00	4930.00
J35_10	1305.00	4930.00
J35_11	1450.00	4930.00
J35_12	1595.00	4930.00
J35_13	1740.00	4930.00
J35_14	1885.00	4930.00
J35_15	2030.00	4930.00
J35_16	2175.00	4930.00
J35_17	2320.00	4930.00
J35_18	2465.00	4930.00
J35_19	2610.00	4930.00
J35_20	2755.00	4930.00
J35_21	2900.00	4930.00
J35_22	3045.00	4930.00
J35_23	3190.00	4930.00
J35_24	3335.00	4930.00
J35_25	3480.00	4930.00
J35_26	3625.00	4930.00
J35_27	3770.00	4930.00
J35_28	3915.00	4930.00
J35_29	4060.00	4930.00
J35_30	4205.00	4930.00
J35_31	4350.00	4930.00
J35_32	4495.00	4930.00
J35_33	4640.00	4930.00
J35_34	4785.00	4930.00
J35_35	4930.00	4930.00
J35_36	5075.00	4930.00
J35_37	5220.00	4930.00
J35_38	5365.00	4930.00
J35_39	5510.00	4930.00
J35_40	5655.00	4930.00
J35_41	5800.00	4930.00
J35_42	5945.00	4930.00
J35_43	6090.00	4930.00
J35_44	6235.00	4930.00
J35_45	6380.00	4930.00
J35_46	6525.00	4930.00
J35_47	6670.00	4930.00
J35_48	6815.00	4930.00
J35_49	6960.00	4930.00
J35_50	7105.00	4930.00
J35_51	7250.00	4930.00
J35_52	7395.00	4930.00
J35_53	7540.00	4930.00
J35_54	7685.00	4930.00
J35_55	7830.00	4930.00
J35_56	7975.00	4930.00
J35_57	8120.00	4930.00
J35_58	8265.00	4930.00
J35_59	8410.00	4930.00
J35_60	8555.00	4930.00
J35_61	8700.00	4930.00
J35_62	8845.00	4930.00
J35_63	8990.00	4930.00
J35_64	9135.00	4930.00
J35_65	9280.00	4930.00
J35_66	9425.00	4930.00
J35_67	9570.00	4930.00
J35_68	9715.00	4930.00
J35_69	9860.00	4930.00
J35_70	10005.00	4930.00
J35_71	10150.00	4930.00
J35_72	10295.00	4930.00
J36_1	0.00	5075.00
J36_2	145.00	5075.00
J36_3	290.00	5075.00
J36_4	435.00	5075.00
J36_5	580.00	5075.00
J36_6	725.00	5075.00
J36_7	870.00	5075.00
J36_8	1015.00	5075.00
J36_9	1160.00	5075.00
J36_10	1305.00	5075.00
J36_11	1450.00	5075.00
J36_12	1595.00	5075.00
J36_13	1740.00	5075.00
J36_14	1885.00	5075.00
J36_15	2030.00	5075.00
J36_16	2175.00	5075.00
J36_17	2320.00	5075.00
J36_18	2465.00	5075.00
J36_19	2610.00	5075.00
J36_20	2755.00	5075.00
J36_21	2900.00	5075.00
J36_22	3045.00	5075.00
J36_23	3190.00	5075.00
J36_24	3335.00	5075.00
J36_25	3480.00	5075.00
J36_26	3625.00	5075.00
J36_27	3770.00	5075.00
J36_28	3915.00	5075.00
J36_29	4060.00	5075.00
J36_30	4205.00	5075.00
J36_31	4350.00	5075.00
J36_32	4495.00	5075.00
J36_33	4640.00	5075.00
J36_34	4785.00	5075.00
J36_35	4930.00	5075.00
J36_36	5075.00	5075.00
J36_37	5220.00	5075.00
J36_38	5365.00	5075.00
J36_39	5510.00	5075.00
J36_40	5655.00	5075.00
J36_41	5800.00	5075.00
J36_42	5945.00	5075.00
J36_43	6090.00	5075.00
J36_44	6235.00	5075.00
J36_45	6380.00	5075.00
J36_46	6525.00	5075.00
J36_47	6670.00	5075.00
J36_48	6815.00	5075.00
J36_49	6960.00	5075.00
J36_50	7105.00	5075.00
J36_51	7250.00	5075.00
J36_52	7395.00	5075.00
J36_53	7540.00	5075.00
J36_54	7685.00	5075.00
J36_55	7830.00	5075.00
J36_56	7975.00	5075.00
J36_57	8120.00	5075.00
J36_58	8265.00	5075.00
J36_59	8410.00	5075.00
J36_60	8555.00	5075.00
J36_61	8700.00	5075.00
J36_62	8845.00	5075.00
J36_63	8990.00	5075.00
J36_64	9135.00	5075.00
J36_65	9280.00	5075.00
J36_66	9425.00	5075.00
J36_67	9570.00	5075.00
J36_68	9715.00	5075.00
J36_69	9860.00	5075.00
J36_70	10005.00	5075.00
J36_71	10150.00	5075.00
J36_72	10295.00	5075.00
J37_1	0.00	5220.00
J37_2	145.00	5220.00
J37_3	290.00	5220.00
J37_4	435.00	5220.00
J37_5	580.00	5220.00
J37_6	725.00	5220.00
J37_7	870.00	5220.00
J37_8	1015.00	5220.00
J37_9	1160.00	5220.00
J37_10	1305.00	5220.00
J37_11	1450.00	5220.00
J37_12	1595.00	5220.00
J37_13	1740.00	5220.00
J37_14	1885.00	5220.00
J37_15	2030.00	5220.00
J37_16	2175.00	5220.00
J37_17	2320.00	5220.00
J37_18	2465.00	5220.00
J37_19	2610.00	5220.00
J37_20	2755.00	5220.00
J37_21	2900.00	5220.00
J37_22	3045.00	5220.00
J37_23	3190.00	5220.00
J37_24	3335.00	5220.00
J37_25	3480.00	5220.00
J37_26	3625.00	5220.00
J37_27	3770.00	5220.00
J37_28	3915.00	5220.00
J37_29	4060.00	5220.00
J37_30	4205.00	5220.00
J37_31	4350.00	5220.00
J37_32	4495.00	5220.00
J37_33	4640.00	5220.00
J37_34	4785.00	5220.00
J37_35	4930.00	5220.00
J37_36	5075.00	5220.00
J37_37	5220.00	5220.00
J37_38	5365.00	5220.00
J37_39	5510.00	5220.00
J37_40	5655.00	5220.00
J37_41	5800.00	5220.00
J37_42	5945.00	5220.00
J37_43	6090.00	5220.00
J37_44	6235.00	5220.00
J37_45	6380.00	5220.00
J37_46	6525.00	5220.00
J37_47	6670.00	5220.00
J37_48	6815.00	5220.00
J37_49	6960.00	5220.00
J37_50	7105.00	5220.00
J37_51	7250.00	5220.00
J37_52	7395.00	5220.00
J37_53	7540.00	5220.00
J37_54	7685.00	5220.00
J37_55	7830.00	5220.00
J37_56	7975.00	5220.00
J37_57	8120.00	5220.00
J37_58	8265.00	5220.00
J37_59	8410.00	5220.00
J37_60	8555.00	5220.00
J37_61	8700.00	5220.00
J37_62	8845.00	5220.00
J37_63	8990.00	5220.00
J37_64	9135.00	5220.00
J37_65	9280.00	5220.00
J37_66	9425.00	5220.00
J37_67	9570.00	5220.00
J37_68	9715.00	5220.00
J37_69	9860.00	5220.00
J37_70	10005.00	5220.00
J37_71	10150.00	5220.00
J37_72	10295.00	5220.00
J38_1	0.00	5365.00
J38_2	145.00	5365.00
J38_3	290.00	5365.00
J38_4	435.00	5365.00
J38_5	580.00	5365.00
J38_6	725.00	5365.00
J38_7	870.00	5365.00
J38_8	1015.00	5365.00
J38_9	1160.00	5365.00
J38_10	1305.00	5365.00
J38_11	1450.00	5365.00
J38_12	1595.00	5365.00
J38_13	1740.00	5365.00
J38_14	1885.00	5365.00
J38_15	2030.00	5365.00
J38_16	2175.00	5365.00
J38_17	2320.00	5365.00
J38_18	2465.00	5365.00
J38_19	2610.00	5365.00
J38_20	2755.00	5365.00
J38_21	2900.00	5365.00
J38_22	3045.00	5365.00
J38_23	3190.00	5365.00
J38_24	3335.00	5365.00
J38_25	3480.00	5365.00
J38_26	3625.00	5365.00
J38_27	3770.00	5365.00
J38_28	3915.00	5365.00
J38_29	4060.00	5365.00
J38_30	4205.00	5365.00
J38_31	4350.00	5365.00
J38_32	4495.00	5365.00
J38_33	4640.00	5365.00
J38_34	4785.00	5365.00
J38_35	4930.00	5365.00
J38_36	5075.00	5365.00
J38_37	5220.00	5365.00
J38_38	5365.00	5365.00
J38_39	5510.00	5365.00
J38_40	5655.00	5365.00
J38_41	5800.00	5365.00
J38_42	5945.00	5365.00
J38_43	6090.00	5365.00
J38_44	6235.00	5365.00
J38_45	6380.00	5365.00
J38_46	6525.00	5365.00
J38_47	6670.00	5365.00
J38_48	6815.00	5365.00
J38_49	6960.00	5365.00
J38_50	7105.00	5365.00
J38_51	7250.00	5365.00
J38_52	7395.00	5365.00
J38_53	7540.00	5365.00
J38_54	7685.00	5365.00
J38_55	7830.00	5365.00
J38_56	7975.00	5365.00
J38_57	8120.00	5365.00
J38_58	8265.00	5365.00
J38_59	8410.00	5365.00
J38_60	8555.00	5365.00
J38_61	8700.00	5365.00
J38_62	8845.00	5365.00
J38_63	8990.00	5365.00
J38_64	9135.00	5365.00
J38_65	9280.00	5365.00
J38_66	9425.00	5365.00
J38_67	9570.00	5365.00
J38_68	9715.00	5365.00
J38_69	9860.00	5365.00
J38_70	10005.00	5365.00
J38_71	10150.00	5365.00
J38_72	10295.00	5365.00
J39_1	0.00	5510.00
J39_2	145.00	5510.00
J39_3	290.00	5510.00
J39_4	435.00	5510.00
J39_5	580.00	5510.00
J39_6	725.00	5510.00
J39_7	870.00	5510.00
J39_8	1015.00	5510.00
J39_9	1160.00	5510.00
J39_10	1305.00	5510.00
J39_11	1450.00	5510.00
J39_12	1595.00	5510.00
J39_13	1740.00	5510.00
J39_14	1885.00	5510.00
J39_15	2030.00	5510.00
J39_16	2175.00	5510.00
J39_17	2320.00	5510.00
J39_18	2465.00	5510.00
J39_19	2610.00	5510.00
J39_20	2755.00	5510.00
J39_21	2900.00	5510.00
J39_22	3045.00	5510.00
J39_23	3190.00	5510.00
J39_24	3335.00	5510.00
J39_25	3480.00	5510.00
J39_26	3625.00	5510.00
J39_27	3770.00	5510.00
J39_28	3915.00	5510.00
J39_29	4060.00	5510.00
J39_30	4205.00	5510.00
J39_31	4350.00	5510.00
J39_32	4495.00	5510.00
J39_33	4640.00	5510.00
J39_34	4785.00	5510.00
J39_35	4930.00	5510.00
J39_36	5075.00	5510.00
J39_37	5220.00	5510.00
J39_38	5365.00	5510.00
J39_39	5510.00	5510.00
J39_40	5655.00	5510.00
J39_41	5800.00	5510.00
J39_42	5945.00	5510.00
J39_43	6090.00	5510.00
J39_44	6235.00	5510.00
J39_45	6380.00	5510.00
J39_46	6525.00	5510.00
J39_47	6670.00	5510.00
J39_48	6815.00	5510.00
J39_49	6960.00	5510.00
J39_50	7105.00	5510.00
J39_51	7250.00	5510.00
J39_52	7395.00	5510.00
J39_53	7540.00	5510.00
J39_54	7685.00	5510.00
J39_55	7830.00	5510.00
J39_56	7975.00	5510.00
J39_57	8120.00	5510.00
J39_58	8265.00	5510.00
J39_59	8410.00	5510.00
J39_60	8555.00	5510.00
J39_61	8700.00	5510.00
J39_62	8845.00	5510.00
J39_63	8990.00	5510.00
J39_64	9135.00	5510.00
J39_65	9280.00	5510.00
J39_66	9425.00	5510.00
J39_67	9570.00	5510.00
J39_68	9715.00	5510.00
J39_69	9860.00	5510.00
J39_70	10005.00	5510.00
J39_71	10150.00	5510.00
J39_72	10295.00	5510.00
J40_1	0.00	5655.00
J40_2	145.00	5655.00
J40_3	290.00	5655.00
J40_4	435.00	5655.00
J40_5	580.00	5655.00
J40_6	725.00	5655.00
J40_7	870.00	5655.00
J40_8	1015.00	5655.00
J40_9	1160.00	5655.00
J40_10	1305.00	5655.00
J40_11	1450.00	5655.00
J40_12	1595.00	5655.00
J40_13	1740.00	5655.00
J40_14	1885.00	5655.00
J40_15	2030.00	5655.00
J40_16	2175.00	5655.00
J40_17	2320.00	5655.00
J40_18	2465.00	5655.00
J40_19	2610.00	5655.00
J40_20	2755.00	5655.00
J40_21	2900.00	5655.00
J40_22	3045.00	5655.00
J40_23	3190.00	5655.00
J40_24	3335.00	5655.00
J40_25	3480.00	5655.00
J40_26	3625.00	5655.00
J40_27	3770.00	5655.00
J40_28	3915.00	5655.00
J40_29	4060.00	5655.00
J40_30	4205.00	5655.00
J40_31	4350.00	5655.00
J40_32	4495.00	5655.00
J40_33	4640.00	5655.00
J40_34	4785.00	5655.00
J40_35	4930.00	5655.00
J40_36	5075.00	5655.00
J40_37	5220.00	5655.00
J40_38	5365.00	5655.00
J40_39	5510.00	5655.00
J40_40	5655.00	5655.00
J40_41	5800.00	5655.00
J40_42	5945.00	5655.00
J40_43	6090.00	5655.00
J40_44	6235.00	5655.00
J40_45	6380.00	5655.00
J40_46	6525.00	5655.00
J40_47	6670.00	5655.00
J40_48	6815.00	5655.00
J40_49	6960.00	5655.00
J40_50	7105.00	5655.00
J40_51	7250.00	5655.00
J40_52	7395.00	5655.00
J40_53	7540.00	5655.00
J40_54	7685.00	5655.00
J40_55	7830.00	5655.00
J40_56	7975.00	5655.00
J40_57	8120.00	5655.00
J40_58	8265.00	5655.00
J40_59	8410.00	5655.00
J40_60	8555.00	5655.00
J40_61	8700.00	5655.00
J40_62	8845.00	5655.00
J40_63	8990.00	5655.00
J40_64	9135.00	5655.00
J40_65	9280.00	5655.00
J40_66	9425.00	5655.00
J40_67	9570.00	5655.00
J40_68	9715.00	5655.00
J40_69	9860.00	5655.00
J40_70	10005.00	5655.00
J40_71	10150.00	5655.00
J40_72	10295.00	5655.00
J41_1	0.00	5800.00
J41_2	145.00	5800.00
J41_3	290.00	5800.00
J41_4	435.00	5800.00
J41_5	580.00	5800.00
J41_6	725.00	5800.00
J41_7	870.00	5800.00
J41_8	1015.00	5800.00
J41_9	1160.00	5800.00
J41_10	1305.00	5800.00
J41_11	1450.00	5800.00
J41_12	1595.00	5800.00
J41_13	1740.00	5800.00
J41_14	1885.00	5800.00
J41_15	2030.00	5800.00
J41_16	2175.00	5800.00
J41_17	2320.00	5800.00
J41_18	2465.00	5800.00
J41_19	2610.00	5800.00
J41_20	2755.00	5800.00
J41_21	2900.00	5800.00
J41_22	3045.00	5800.00
J41_23	3190.00	5800.00
J41_24	3335.00	5800.00
J41_25	3480.00	5800.00
J41_26	3625.00	5800.00
J41_27	3770.00	5800.00
J41_28	3915.00	5800.00
J41_29	4060.00	5800.00
J41_30	4205.00	5800.00
J41_31	4350.00	5800.00
J41_32	4495.00	5800.00
J41_33	4640.00	5800.00
J41_34	4785.00	5800.00
J41_35	4930.00	5800.00
J41_36	5075.00	5800.00
J41_37	5220.00	5800.00
J41_38	5365.00	5800.00
J41_39	5510.00	5800.00
J41_40	5655.00	5800.00
J41_41	5800.00	5800.00
J41_42	5945.00	5800.00
J41_43	6090.00	5800.00
J41_44	6235.00	5800.00
J41_45	6380.00	5800.00
J41_46	6525.00	5800.00
J41_47	6670.00	5800.00
J41_48	6815.00	5800.00
J41_49	6960.00	5800.00
J41_50	7105.00	5800.00
J41_51	7250.00	5800.00
J41_52	7395.00	5800.00
J41_53	7540.00	5800.00
J41_54	7685.00	5800.00
J41_55	7830.00	5800.00
J41_56	7975.00	5800.00
J41_57	8120.00	5800.00
J41_58	8265.00	5800.00
J41_59	8410.00	5800.00
J41_60	8555.00	5800.00
J41_61	8700.00	5800.00
J41_62	8845.00	5800.00
J41_63	8990.00	5800.00
J41_64	9135.00	5800.00
J41_65	9280.00	5800.00
J41_66	9425.00	5800.00
J41_67	9570.00	5800.00
J41_68	9715.00	5800.00
J41_69	9860.00	5800.00
J41_70	10005.00	5800.00
J41_71	10150.00	5800.00
J41_72	10295.00	5800.00
J42_1	0.00	5945.00
J42_2	145.00	5945.00
J42_3	290.00	5945.00
J42_4	435.00	5945.00
J42_5	580.00	5945.00
J42_6	725.00	5945.00
J42_7	870.00	5945.00
J42_8	1015.00	5945.00
J42_9	1160.00	5945.00
J42_10	1305.00	5945.00
J42_11	1450.00	5945.00
J42_12	1595.00	5945.00
J42_13	1740.00	5945.00
J42_14	1885.00	5945.00
J42_15	2030.00	5945.00
J42_16	2175.00	5945.00
J42_17	2320.00	5945.00
J42_18	2465.00	5945.00
J42_19	2610.00	5945.00
J42_20	2755.00	5945.00
J42_21	2900.00	5945.00
J42_22	3045.00	5945.00
J42_23	3190.00	5945.00
J42_24	3335.00	5945.00
J42_25	3480.00	5945.00
J42_26	3625.00	5945.00
J42_27	3770.00	5945.00
J42_28	3915.00	5945.00
J42_29	4060.00	5945.00
J42_30	4205.00	5945.00
J42_31	4350.00	5945.00
J42_32	4495.00	5945.00
J42_33	4640.00	5945.00
J42_34	4785.00	5945.00
J42_35	4930.00	5945.00
J42_36	5075.00	5945.00
J42_37	5220.00	5945.00
J42_38	5365.00	5945.00
J42_39	5510.00	5945.00
J42_40	5655.00	5945.00
J42_41	5800.00	5945.00
J42_42	5945.00	5945.00
J42_43	6090.00	5945.00
J42_44	6235.00	5945.00
J42_45	6380.00	5945.00
J42_46	6525.00	5945.00
J42_47	6670.00	5945.00
J42_48	6815.00	5945.00
J42_49	6960.00	5945.00
J42_50	7105.00	5945.00
J42_51	7250.00	5945.00
J42_52	7395.00	5945.00
J42_53	7540.00	5945.00
J42_54	7685.00	5945.00
J42_55	7830.00	5945.00
J42_56	7975.00	5945.00
J42_57	8120.00	5945.00
J42_58	8265.00	5945.00
J42_59	8410.00	5945.00
J42_60	8555.00	5945.00
J42_61	8700.00	5945.00
J42_62	8845.00	5945.00
J42_63	8990.00	5945.00
J42_64	9135.00	5945.00
J42_65	9280.00	5945.00
J42_66	9425.00	5945.00
J42_67	9570.00	5945.00
J42_68	9715.00	5945.00
J42_69	9860.00	5945.00
J42_70	10005.00	5945.00
J42_71	10150.00	5945.00
J42_72	10295.00	5945.00
J43_1	0.00	6090.00
J43_2	145.00	6090.00
J43_3	290.00	6090.00
J43_4	435.00	6090.00
J43_5	580.00	6090.00
J43_6	725.00	6090.00
J43_7	870.00	6090.00
J43_8	1015.00	6090.00
J43_9	1160.00	6090.00
J43_10	1305.00	6090.00
J43_11	1450.00	6090.00
J43_12	1595.00	6090.00
J43_13	1740.00	6090.00
J43_14	1885.00	6090.00
J43_15	2030.00	6090.00
J43_16	2175.00	6090.00
J43_17	2320.00	6090.00
J43_18	2465.00	6090.00
J43_19	2610.00	6090.00
J43_20	2755.00	6090.00
J43_21	2900.00	6090.00
J43_22	3045.00	6090.00
J43_23	3190.00	6090.00
J43_24	3335.00	6090.00
J43_25	3480.00	6090.00
J43_26	3625.00	6090.00
J43_27	3770.00	6090.00
J43_28	3915.00	6090.00
J43_29	4060.00	6090.00
J43_30	4205.00	6090.00
J43_31	4350.00	6090.00
J43_32	4495.00	6090.00
J43_33	4640.00	6090.00
J43_34	4785.00	6090.00
J43_35	4930.00	6090.00
J43_36	5075.00	6090.00
J43_37	5220.00	6090.00
J43_38	5365.00	6090.00
J43_39	5510.00	6090.00
J43_40	5655.00	6090.00
J43_41	5800.00	6090.00
J43_42	5945.00	6090.00
J43_43	6090.00	6090.00
J43_44	6235.00	6090.00
J43_45	6380.00	6090.00
J43_46	6525.00	6090.00
J43_47	6670.00	6090.00
J43_48	6815.00	6090.00
J43_49	6960.00	6090.00
J43_50	7105.00	6090.00
J43_51	7250.00	6090.00
J43_52	7395.00	6090.00
J43_53	7540.00	6090.00
J43_54	7685.00	6090.00
J43_55	7830.00	6090.00
J43_56	7975.00	6090.00
J43_57	8120.00	6090.00
J43_58	8265.00	6090.00
J43_59	8410.00	6090.00
J43_60	8555.00	6090.00
J43_61	8700.00	6090.00
J43_62	8845.00	6090.00
J43_63	8990.00	6090.00
J43_64	9135.00	6090.00
J43_65	9280.00	6090.00
J43_66	9425.00	6090.00
J43_67	9570.00	6090.00
J43_68	9715.00	6090.00
J43_69	9860.00	6090.00
J43_70	10005.00	6090.00
J43_71	10150.00	6090.00
J43_72	10295.00	6090.00
J44_1	0.00	6235.00
J44_2	145.00	6235.00
J44_3	290.00	6235.00
J44_4	435.00	6235.00
J44_5	580.00	6235.00
J44_6	725.00	6235.00
J44_7	870.00	6235.00
J44_8	1015.00	6235.00
J44_9	1160.00	6235.00
J44_10	1305.00	6235.00
J44_11	1450.00	6235.00
J44_12	1595.00	6235.00
J44_13	1740.00	6235.00
J44_14	1885.00	6235.00
J44_15	2030.00	6235.00
J44_16	2175.00	6235.00
J44_17	2320.00	6235.00
J44_18	2465.00	6235.00
J44_19	2610.00	6235.00
J44_20	2755.00	6235.00
J44_21	2900.00	6235.00
J44_22	3045.00	6235.00
J44_23	3190.00	6235.00
J44_24	3335.00	6235.00
J44_25	3480.00	6235.00
J44_26	3625.00	6235.00
J44_27	3770.00	6235.00
J44_28	3915.00	6235.00
J44_29	4060.00	6235.00
J44_30	4205.00	6235.00
J44_31	4350.00	6235.00
J44_32	4495.00	6235.00
J44_33	4640.00	6235.00
J44_34	4785.00	6235.00
J44_35	4930.00	6235.00
J44_36	5075.00	6235.00
J44_37	5220.00	6235.00
J44_38	5365.00	6235.00
J44_39	5510.00	6235.00
J44_40	5655.00	6235.00
J44_41	5800.00	6235.00
J44_42	5945.00	6235.00
J44_43	6090.00	6235.00
J44_44	6235.00	6235.00
J44_45	6380.00	6235.00
J44_46	6525.00	6235.00
J44_47	6670.00	6235.00
J44_48	6815.00	6235.00
J44_49	6960.00	6235.00
J44_50	7105.00	6235.00
J44_51	7250.00	6235.00
J44_52	7395.00	6235.00
J44_53	7540.00	6235.00
J44_54	7685.00	6235.00
J44_55	7830.00	6235.00
J44_56	7975.00	6235.00
J44_57	8120.00	6235.00
J44_58	8265.00	6235.00
J44_59	8410.00	6235.00
J44_60	8555.00	6235.00
J44_61	8700.00	6235.00
J44_62	8845.00	6235.00
J44_63	8990.00	6235.00
J44_64	9135.00	6235.00
J44_65	9280.00	6235.00
J44_66	9425.00	6235.00
J44_67	9570.00	6235.00
J44_68	9715.00	6235.00
J44_69	9860.00	6235.00
J44_70	10005.00	6235.00
J44_71	10150.00	6235.00
J44_72	10295.00	6235.00
J45_1	0.00	6380.00
J45_2	145.00	6380.00
J45_3	290.00	6380.00
J45_4	435.00	6380.00
J45_5	580.00	6380.00
J45_6	725.00	6380.00
J45_7	870.00	6380.00
J45_8	1015.00	6380.00
J45_9	1160.00	6380.00
J45_10	1305.00	6380.00
J45_11	1450.00	6380.00
J45_12	1595.00	6380.00
J45_13	1740.00	6380.00
J45_14	1885.00	6380.00
J45_15	2030.00	6380.00
J45_16	2175.00	6380.00
J45_17	2320.00	6380.00
J45_18	2465.00	6380.00
J45_19	2610.00	6380.00
J45_20	2755.00	6380.00
J45_21	2900.00	6380.00
J45_22	3045.00	6380.00
J45_23	3190.00	6380.00
J45_24	3335.00	6380.00
J45_25	3480.00	6380.00
J45_26	3625.00	6380.00
J45_27	3770.00	6380.00
J45_28	3915.00	6380.00
J45_29	4060.00	6380.00
J45_30	4205.00	6380.00
J45_31	4350.00	6380.00
J45_32	4495.00	6380.00
J45_33	4640.00	6380.00
J45_34	4785.00	6380.00
J45_35	4930.00	6380.00
J45_36	5075.00	6380.00
J45_37	5220.00	6380.00
J45_38	5365.00	6380.00
J45_39	5510.00	6380.00
J45_40	5655.00	6380.00
J45_41	5800.00	6380.00
J45_42	5945.00	6380.00
J45_43	6090.00	6380.00
J45_44	6235.00	6380.00
J45_45	6380.00	6380.00
J45_46	6525.00	6380.00
J45_47	6670.00	6380.00
J45_48	6815.00	6380.00
J45_49	6960.00	6380.00
J45_50	7105.00	6380.00
J45_51	7250.00	6380.00
J45_52	7395.00	6380.00
J45_53	7540.00	6380.00
J45_54	7685.00	6380.00
J45_55	7830.00	6380.00
J45_56	7975.00	6380.00
J45_57	8120.00	6380.00
J45_58	8265.00	6380.00
J45_59	8410.00	6380.00
J45_60	8555.00	6380.00
J45_61	8700.00	6380.00
J45_62	8845.00	6380.00
J45_63	8990.00	6380.00
J45_64	9135.00	6380.00
J45_65	9280.00	6380.00
J45_66	9425.00	6380.00
J45_67	9570.00	6380.00
J45_68	9715.00	6380.00
J45_69	9860.00	6380.00
J45_70	10005.00	6380.00
J45_71	10150.00	6380.00
J45_72	10295.00	6380.00
J46_1	0.00	6525.00
J46_2	145.00	6525.00
J46_3	290.00	6525.00
J46_4	435.00	6525.00
J46_5	580.00	6525.00
J46_6	725.00	6525.00
J46_7	870.00	6525.00
J46_8	1015.00	6525.00
J46_9	1160.00	6525.00
J46_10	1305.00	6525.00
J46_11	1450.00	6525.00
J46_12	1595.00	6525.00
J46_13	1740.00	6525.00
J46_14	1885.00	6525.00
J46_15	2030.00	6525.00
J46_16	2175.00	6525.00
J46_17	2320.00	6525.00
J46_18	2465.00	6525.00
J46_19	2610.00	6525.00
J46_20	2755.00	6525.00
J46_21	2900.00	6525.00
J46_22	3045.00	6525.00
J46_23	3190.00	6525.00
J46_24	3335.00	6525.00
J46_25	3480.00	6525.00
J46_26	3625.00	6525.00
J46_27	3770.00	6525.00
J46_28	3915.00	6525.00
J46_29	4060.00	6525.00
J46_30	4205.00	6525.00
J46_31	4350.00	6525.00
J46_32	4495.00	6525.00
J46_33	4640.00	6525.00
J46_34	4785.00	6525.00
J46_35	4930.00	6525.00
J46_36	5075.00	6525.00
J46_37	5220.00	6525.00
J46_38	5365.00	6525.00
J46_39	5510.00	6525.00
J46_40	5655.00	6525.00
J46_41	5800.00	6525.00
J46_42	5945.00	6525.00
J46_43	6090.00	6525.00
J46_44	6235.00	6525.00
J46_45	6380.00	6525.00
J46_46	6525.00	6525.00
J46_47	6670.00	6525.00
J46_48	6815.00	6525.00
J46_49	6960.00	6525.00
J46_50	7105.00	6525.00
J46_51	7250.00	6525.00
J46_52	7395.00	6525.00
J46_53	7540.00	6525.00
J46_54	7685.00	6525.00
J46_55	7830.00	6525.00
J46_56	7975.00	6525.00
J46_57	8120.00	6525.00
J46_58	8265.00	6525.00
J46_59	8410.00	6525.00
J46_60	8555.00	6525.00
J46_61	8700.00	6525.00
J46_62	8845.00	6525.00
J46_63	8990.00	6525.00
J46_64	9135.00	6525.00
J46_65	9280.00	6525.00
J46_66	9425.00	6525.00
J46_67	9570.00	6525.00
J46_68	9715.00	6525.00
J46_69	9860.00	6525.00
J46_70	10005.00	6525.00
J46_71	10150.00	6525.00
J46_72	10295.00	6525.00
J47_1	0.00	6670.00
J47_2	145.00	6670.00
J47_3	290.00	6670.00
J47_4	435.00	6670.00
J47_5	580.00	6670.00
J47_6	725.00	6670.00
J47_7	870.00	6670.00
J47_8	1015.00	6670.00
J47_9	1160.00	6670.00
J47_10	1305.00	6670.00
J47_11	1450.00	6670.00
J47_12	1595.00	6670.00
J47_13	1740.00	6670.00
J47_14	1885.00	6670.00
J47_15	2030.00	6670.00
J47_16	2175.00	6670.00
J47_17	2320.00	6670.00
J47_18	2465.00	6670.00
J47_19	2610.00	6670.00
J47_20	2755.00	6670.00
J47_21	2900.00	6670.00
J47_22	3045.00	6670.00
J47_23	3190.00	6670.00
J47_24	3335.00	6670.00
J47_25	3480.00	6670.00
J47_26	3625.00	6670.00
J47_27	3770.00	6670.00
J47_28	3915.00	6670.00
J47_29	4060.00	6670.00
J47_30	4205.00	6670.00
J47_31	4350.00	6670.00
J47_32	4495.00	6670.00
J47_33	4640.00	6670.00
J47_34	4785.00	6670.00
J47_35	4930.00	6670.00
J47_36	5075.00	6670.00
J47_37	5220.00	6670.00
J47_38	5365.00	6670.00
J47_39	5510.00	6670.00
J47_40	5655.00	6670.00
J47_41	5800.00	6670.00
J47_42	5945.00	6670.00
J47_43	6090.00	6670.00
J47_44	6235.00	6670.00
J47_45	6380.00	6670.00
J47_46	6525.00	6670.00
J47_47	6670.00	6670.00
J47_48	6815.00	6670.00
J47_49	6960.00	6670.00
J47_50	7105.00	6670.00
J47_51	7250.00	6670.00
J47_52	7395.00	6670.00
J47_53	7540.00	6670.00
J47_54	7685.00	6670.00
J47_55	7830.00	6670.00
J47_56	7975.00	6670.00
J47_57	8120.00	6670.00
J47_58	8265.00	6670.00
J47_59	8410.00	6670.00
J47_60	8555.00	6670.00
J47_61	8700.00	6670.00
J47_62	8845.00	6670.00
J47_63	8990.00	6670.00
J47_64	9135.00	6670.00
J47_65	9280.00	6670.00
J47_66	9425.00	6670.00
J47_67	9570.00	6670.00
J47_68	9715.00	6670.00
J47_69	9860.00	6670.00
J47_70	10005.00	6670.00
J47_71	10150.00	6670.00
J47_72	10295.00	6670.00
J48_1	0.00	6815.00
J48_2	145.00	6815.00
J48_3	290.00	6815.00
J48_4	435.00	6815.00
J48_5	580.00	6815.00
J48_6	725.00	6815.00
J48_7	870.00	6815.00
J48_8	1015.00	6815.00
J48_9	1160.00	6815.00
J48_10	1305.00	6815.00
J48_11	1450.00	6815.00
J48_12	1595.00	6815.00
J48_13	1740.00	6815.00
J48_14	1885.00	6815.00
J48_15	2030.00	6815.00
J48_16	2175.00	6815.00
J48_17	2320.00	6815.00
J48_18	2465.00	6815.00
J48_19	2610.00	6815.00
J48_20	2755.00	6815.00
J48_21	2900.00	6815.00
J48_22	3045.00	6815.00
J48_23	3190.00	6815.00
J48_24	3335.00	6815.00
J48_25	3480.00	6815.00
J48_26	3625.00	6815.00
J48_27	3770.00	6815.00
J48_28	3915.00	6815.00
J48_29	4060.00	6815.00
J48_30	4205.00	6815.00
J48_31	4350.00	6815.00
J48_32	4495.00	6815.00
J48_33	4640.00	6815.00
J48_34	4785.00	6815.00
J48_35	4930.00	6815.00
J48_36	5075.00	6815.00
J48_37	5220.00	6815.00
J48_38	5365.00	6815.00
J48_39	5510.00	6815.00
J48_40	5655.00	6815.00
J48_41	5800.00	6815.00
J48_42	5945.00	6815.00
J48_43	6090.00	6815.00
J48_44	6235.00	6815.00
J48_45	6380.00	6815.00
J48_46	6525.00	6815.00
J48_47	6670.00	6815.00
J48_48	6815.00	6815.00
J48_49	6960.00	6815.00
J48_50	7105.00	6815.00
J48_51	7250.00	6815.00
J48_52	7395.00	6815.00
J48_53	7540.00	6815.00
J48_54	7685.00	6815.00
J48_55	7830.00	6815.00
J48_56	7975.00	6815.00
J48_57	8120.00	6815.00
J48_58	8265.00	6815.00
J48_59	8410.00	6815.00
J48_60	8555.00	6815.00
J48_61	8700.00	6815.00
J48_62	8845.00	6815.00
J48_63	8990.00	6815.00
J48_64	9135.00	6815.00
J48_65	9280.00	6815.00
J48_66	9425.00	6815.00
J48_67	9570.00	6815.00
J48_68	9715.00	6815.00
J48_69	9860.00	6815.00
J48_70	10005.00	6815.00
J48_71	10150.00	6815.00
J48_72	10295.00	6815.00
J49_1	0.00	6960.00
J49_2	145.00	6960.00
J49_3	290.00	6960.00
J49_4	435.00	6960.00
J49_5	580.00	6960.00
J49_6	725.00	6960.00
J49_7	870.00	6960.00
J49_8	1015.00	6960.00
J49_9	1160.00	6960.00
J49_10	1305.00	6960.00
J49_11	1450.00	6960.00
J49_12	1595.00	6960.00
J49_13	1740.00	6960.00
J49_14	1885.00	6960.00
J49_15	2030.00	6960.00
J49_16	2175.00	6960.00
J49_17	2320.00	6960.00
J49_18	2465.00	6960.00
J49_19	2610.00	6960.00
J49_20	2755.00	6960.00
J49_21	2900.00	6960.00
J49_22	3045.00	6960.00
J49_23	3190.00	6960.00
J49_24	3335.00	6960.00
J49_25	3480.00	6960.00
J49_26	3625.00	6960.00
J49_27	3770.00	6960.00
J49_28	3915.00	6960.00
J49_29	4060.00	6960.00
J49_30	4205.00	6960.00
J49_31	4350.00	6960.00
J49_32	4495.00	6960.00
J49_33	4640.00	6960.00
J49_34	4785.00	6960.00
J49_35	4930.00	6960.00
J49_36	5075.00	6960.00
J49_37	5220.00	6960.00
J49_38	5365.00	6960.00
J49_39	5510.00	6960.00
J49_40	5655.00	6960.00
J49_41	5800.00	6960.00
J49_42	5945.00	6960.00
J49_43	6090.00	6960.00
J49_44	6235.00	6960.00
J49_45	6380.00	6960.00
J49_46	6525.00	6960.00
J49_47	6670.00	6960.00
J49_48	6815.00	6960.00
J49_49	6960.00	6960.00
J49_50	7105.00	6960.00
J49_51	7250.00	6960.00
J49_52	7395.00	6960.00
J49_53	7540.00	6960.00
J49_54	7685.00	6960.00
J49_55	7830.00	6960.00
J49_56	7975.00	6960.00
J49_57	8120.00	6960.00
J49_58	8265.00	6960.00
J49_59	8410.00	6960.00
J49_60	8555.00	6960.00
J49_61	8700.00	6960.00
J49_62	8845.00	6960.00
J49_63	8990.00	6960.00
J49_64	9135.00	6960.00
J49_65	9280.00	6960.00
J49_66	9425.00	6960.00
J49_67	9570.00	6960.00
J49_68	9715.00	6960.00
J49_69	9860.00	6960.00
J49_70	10005.00	6960.00
J49_71	10150.00	6960.00
J49_72	10295.00	6960.00
J50_1	0.00	7105.00
J50_2	145.00	7105.00
J50_3	290.00	7105.00
J50_4	435.00	7105.00
J50_5	580.00	7105.00
J50_6	725.00	7105.00
J50_7	870.00	7105.00
J50_8	1015.00	7105.00
J50_9	1160.00	7105.00
J50_10	1305.00	7105.00
J50_11	1450.00	7105.00
J50_12	1595.00	7105.00
J50_13	1740.00	7105.00
J50_14	1885.00	7105.00
J50_15	2030.00	7105.00
J50_16	2175.00	7105.00
J50_17	2320.00	7105.00
J50_18	2465.00	7105.00
J50_19	2610.00	7105.00
J50_20	2755.00	7105.00
J50_21	2900.00	7105.00
J50_22	3045.00	7105.00
J50_23	3190.00	7105.00
J50_24	3335.00	7105.00
J50_25	3480.00	7105.00
J50_26	3625.00	7105.00
J50_27	3770.00	7105.00
J50_28	3915.00	7105.00
J50_29	4060.00	7105.00
J50_30	4205.00	7105.00
J50_31	4350.00	7105.00
J50_32	4495.00	7105.00
J50_33	4640.00	7105.00
J50_34	4785.00	7105.00
J50_35	4930.00	7105.00
J50_36	5075.00	7105.00
J50_37	5220.00	7105.00
J50_38	5365.00	7105.00
J50_39	5510.00	7105.00
J50_40	5655.00	7105.00
J50_41	5800.00	7105.00
J50_42	5945.00	7105.00
J50_43	6090.00	7105.00
J50_44	6235.00	7105.00
J50_45	6380.00	7105.00
J50_46	6525.00	7105.00
J50_47	6670.00	7105.00
J50_48	6815.00	7105.00
J50_49	6960.00	7105.00
J50_50	7105.00	7105.00
J50_51	7250.00	7105.00
J50_52	7395.00	7105.00
J50_53	7540.00	7105.00
J50_54	7685.00	7105.00
J50_55	7830.00	7105.00
J50_56	7975.00	7105.00
J50_57	8120.00	7105.00
J50_58	8265.00	7105.00
J50_59	8410.00	7105.00
J50_60	8555.00	7105.00
J50_61	8700.00	7105.00
J50_62	8845.00	7105.00
J50_63	8990.00	7105.00
J50_64	9135.00	7105.00
J50_65	9280.00	7105.00
J50_66	9425.00	7105.00
J50_67	9570.00	7105.00
J50_68	9715.00	7105.00
J50_69	9860.00	7105.00
J50_70	10005.00	7105.00
J50_71	10150.00	7105.00
J50_72	10295.00	7105.00
J51_1	0.00	7250.00
J51_2	145.00	7250.00
J51_3	290.00	7250.00
J51_4	435.00	7250.00
J51_5	580.00	7250.00
J51_6	725.00	7250.00
J51_7	870.00	7250.00
J51_8	1015.00	7250.00
J51_9	1160.00	7250.00
J51_10	1305.00	7250.00
J51_11	1450.00	7250.00
J51_12	1595.00	7250.00
J51_13	1740.00	7250.00
J51_14	1885.00	7250.00
J51_15	2030.00	7250.00
J51_16	2175.00	7250.00
J51_17	2320.00	7250.00
J51_18	2465.00	7250.00
J51_19	2610.00	7250.00
J51_20	2755.00	7250.00
J51_21	2900.00	7250.00
J51_22	3045.00	7250.00
J51_23	3190.00	7250.00
J51_24	3335.00	7250.00
J51_25	3480.00	7250.00
J51_26	3625.00	7250.00
J51_27	3770.00	7250.00
J51_28	3915.00	7250.00
J51_29	4060.00	7250.00
J51_30	4205.00	7250.00
J51_31	4350.00	7250.00
J51_32	4495.00	7250.00
J51_33	4640.00	7250.00
J51_34	4785.00	7250.00
J51_35	4930.00	7250.00
J51_36	5075.00	7250.00
J51_37	5220.00	7250.00
J51_38	5365.00	7250.00
J51_39	5510.00	7250.00
J51_40	5655.00	7250.00
J51_41	5800.00	7250.00
J51_42	5945.00	7250.00
J51_43	6090.00	7250.00
J51_44	6235.00	7250.00
J51_45	6380.00	7250.00
J51_46	6525.00	7250.00
J51_47	6670.00	7250.00
J51_48	6815.00	7250.00
J51_49	6960.00	7250.00
J51_50	7105.00	7250.00
J51_51	7250.00	7250.00
J51_52	7395.00	7250.00
J51_53	7540.00	7250.00
J51_54	7685.00	7250.00
J51_55	7830.00	7250.00
J51_56	7975.00	7250.00
J51_57	8120.00	7250.00
J51_58	8265.00	7250.00
J51_59	8410.00	7250.00
J51_60	8555.00	7250.00
J51_61	8700.00	7250.00
J51_62	8845.00	7250.00
J51_63	8990.00	7250.00
J51_64	9135.00	7250.00
J51_65	9280.00	7250.00
J51_66	9425.00	7250.00
J51_67	9570.00	7250.00
J51_68	9715.00	7250.00
J51_69	9860.00	7250.00
J51_70	10005.00	7250.00
J51_71	10150.00	7250.00
J51_72	10295.00	7250.00
J52_1	0.00	7395.00
J52_2	145.00	7395.00
J52_3	290.00	7395.00
J52_4	435.00	7395.00
J52_5	580.00	7395.00
J52_6	725.00	7395.00
J52_7	870.00	7395.00
J52_8	1015.00	7395.00
J52_9	1160.00	7395.00
J52_10	1305.00	7395.00
J52_11	1450.00	7395.00
J52_12	1595.00	7395.00
J52_13	1740.00	7395.00
J52_14	1885.00	7395.00
J52_15	2030.00	7395.00
J52_16	2175.00	7395.00
J52_17	2320.00	7395.00
J52_18	2465.00	7395.00
J52_19	2610.00	7395.00
J52_20	2755.00	7395.00
J52_21	2900.00	7395.00
J52_22	3045.00	7395.00
J52_23	3190.00	7395.00
J52_24	3335.00	7395.00
J52_25	3480.00	7395.00
J52_26	3625.00	7395.00
J52_27	3770.00	7395.00
J52_28	3915.00	7395.00
J52_29	4060.00	7395.00
J52_30	4205.00	7395.00
J52_31	4350.00	7395.00
J52_32	4495.00	7395.00
J52_33	4640.00	7395.00
J52_34	4785.00	7395.00
J52_35	4930.00	7395.00
J52_36	5075.00	7395.00
J52_37	5220.00	7395.00
J52_38	5365.00	7395.00
J52_39	5510.00	7395.00
J52_40	5655.00	7395.00
J52_41	5800.00	7395.00
J52_42	5945.00	7395.00
J52_43	6090.00	7395.00
J52_44	6235.00	7395.00
J52_45	6380.00	7395.00
J52_46	6525.00	7395.00
J52_47	6670.00	7395.00
J52_48	6815.00	7395.00
J52_49	6960.00	7395.00
J52_50	7105.00	7395.00
J52_51	7250.00	7395.00
J52_52	7395.00	7395.00
J52_53	7540.00	7395.00
J52_54	7685.00	7395.00
J52_55	7830.00	7395.00
J52_56	7975.00	7395.00
J52_57	8120.00	7395.00
J52_58	8265.00	7395.00
J52_59	8410.00	7395.00
J52_60	8555.00	7395.00
J52_61	8700.00	7395.00
J52_62	8845.00	7395.00
J52_63	8990.00	7395.00
J52_64	9135.00	7395.00
J52_65	9280.00	7395.00
J52_66	9425.00	7395.00
J52_67	9570.00	7395.00
J52_68	9715.00	7395.00
J52_69	9860.00	7395.00
J52_70	10005.00	7395.00
J52_71	10150.00	7395.00
J52_72	10295.00	7395.00
J53_1	0.00	7540.00
J53_2	145.00	7540.00
J53_3	290.00	7540.00
J53_4	435.00	7540.00
J53_5	580.00	7540.00
J53_6	725.00	7540.00
J53_7	870.00	7540.00
J53_8	1015.00	7540.00
J53_9	1160.00	7540.00
J53_10	1305.00	7540.00
J53_11	1450.00	7540.00
J53_12	1595.00	7540.00
J53_13	1740.00	7540.00
J53_14	1885.00	7540.00
J53_15	2030.00	7540.00
J53_16	2175.00	7540.00
J53_17	2320.00	7540.00
J53_18	2465.00	7540.00
J53_19	2610.00	7540.00
J53_20	2755.00	7540.00
J53_21	2900.00	7540.00
J53_22	3045.00	7540.00
J53_23	3190.00	7540.00
J53_24	3335.00	7540.00
J53_25	3480.00	7540.00
J53_26	3625.00	7540.00
J53_27	3770.00	7540.00
J53_28	3915.00	7540.00
J53_29	4060.00	7540.00
J53_30	4205.00	7540.00
J53_31	4350.00	7540.00
J53_32	4495.00	7540.00
J53_33	4640.00	7540.00
J53_34	4785.00	7540.00
J53_35	4930.00	7540.00
J53_36	5075.00	7540.00
J53_37	5220.00	7540.00
J53_38	5365.00	7540.00
J53_39	5510.00	7540.00
J53_40	5655.00	7540.00
J53_41	5800.00	7540.00
J53_42	5945.00	7540.00
J53_43	6090.00	7540.00
J53_44	6235.00	7540.00
J53_45	6380.00	7540.00
J53_46	6525.00	7540.00
J53_47	6670.00	7540.00
J53_48	6815.00	7540.00
J53_49	6960.00	7540.00
J53_50	7105.00	7540.00
J53_51	7250.00	7540.00
J53_52	7395.00	7540.00
J53_53	7540.00	7540.00
J53_54	7685.00	7540.00
J53_55	7830.00	7540.00
J53_56	7975.00	7540.00
J53_57	8120.00	7540.00
J53_58	8265.00	7540.00
J53_59	8410.00	7540.00
J53_60	8555.00	7540.00
J53_61	8700.00	7540.00
J53_62	8845.00	7540.00
J53_63	8990.00	7540.00
J53_64	9135.00	7540.00
J53_65	9280.00	7540.00
J53_66	9425.00	7540.00
J53_67	9570.00	7540.00
J53_68	9715.00	7540.00
J53_69	9860.00	7540.00
J53_70	10005.00	7540.00
J53_71	10150.00	7540.00
J53_72	10295.00	7540.00
J54_1	0.00	7685.00
J54_2	145.00	7685.00
J54_3	290.00	7685.00
J54_4	435.00	7685.00
J54_5	580.00	7685.00
J54_6	725.00	7685.00
J54_7	870.00	7685.00
J54_8	1015.00	7685.00
J54_9	1160.00	7685.00
J54_10	1305.00	7685.00
J54_11	1450.00	7685.00
J54_12	1595.00	7685.00
J54_13	1740.00	7685.00
J54_14	1885.00	7685.00
J54_15	2030.00	7685.00
J54_16	2175.00	7685.00
J54_17	2320.00	7685.00
J54_18	2465.00	7685.00
J54_19	2610.00	7685.00
J54_20	2755.00	7685.00
J54_21	2900.00	7685.00
J54_22	3045.00	7685.00
J54_23	3190.00	7685.00
J54_24	3335.00	7685.00
J54_25	3480.00	7685.00
J54_26	3625.00	7685.00
J54_27	3770.00	7685.00
J54_28	3915.00	7685.00
J54_29	4060.00	7685.00
J54_30	4205.00	7685.00
J54_31	4350.00	7685.00
J54_32	4495.00	7685.00
J54_33	4640.00	7685.00
J54_34	4785.00	7685.00
J54_35	4930.00	7685.00
J54_36	5075.00	7685.00
J54_37	5220.00	7685.00
J54_38	5365.00	7685.00
J54_39	5510.00	7685.00
J54_40	5655.00	7685.00
J54_41	5800.00	7685.00
J54_42	5945.00	7685.00
J54_43	6090.00	7685.00
J54_44	6235.00	7685.00
J54_45	6380.00	7685.00
J54_46	6525.00	7685.00
J54_47	6670.00	7685.00
J54_48	6815.00	7685.00
J54_49	6960.00	7685.00
J54_50	7105.00	7685.00
J54_51	7250.00	7685.00
J54_52	7395.00	7685.00
J54_53	7540.00	7685.00
J54_54	7685.00	7685.00
J54_55	7830.00	7685.00
J54_56	7975.00	7685.00
J54_57	8120.00	7685.00
J54_58	8265.00	7685.00
J54_59	8410.00	7685.00
J54_60	8555.00	7685.00
J54_61	8700.00	7685.00
J54_62	8845.00	7685.00
J54_63	8990.00	7685.00
J54_64	9135.00	7685.00
J54_65	9280.00	7685.00
J54_66	9425.00	7685.00
J54_67	9570.00	7685.00
J54_68	9715.00	7685.00
J54_69	9860.00	7685.00
J54_70	10005.00	7685.00
J54_71	10150.00	7685.00
J54_72	10295.00	7685.00
J55_1	0.00	7830.00
J55_2	145.00	7830.00
J55_3	290.00	7830.00
J55_4	435.00	7830.00
J55_5	580.00	7830.00
J55_6	725.00	7830.00
J55_7	870.00	7830.00
J55_8	1015.00	7830.00
J55_9	1160.00	7830.00
J55_10	1305.00	7830.00
J55_11	1450.00	7830.00
J55_12	1595.00	7830.00
J55_13	1740.00	7830.00
J55_14	1885.00	7830.00
J55_15	2030.00	7830.00
J55_16	2175.00	7830.00
J55_17	2320.00	7830.00
J55_18	2465.00	7830.00
J55_19	2610.00	7830.00
J55_20	2755.00	7830.00
J55_21	2900.00	7830.00
J55_22	3045.00	7830.00
J55_23	3190.00	7830.00
J55_24	3335.00	7830.00
J55_25	3480.00	7830.00
J55_26	3625.00	7830.00
J55_27	3770.00	7830.00
J55_28	3915.00	7830.00
J55_29	4060.00	7830.00
J55_30	4205.00	7830.00
J55_31	4350.00	7830.00
J55_32	4495.00	7830.00
J55_33	4640.00	7830.00
J55_34	4785.00	7830.00
J55_35	4930.00	7830.00
J55_36	5075.00	7830.00
J55_37	5220.00	7830.00
J55_38	5365.00	7830.00
J55_39	5510.00	7830.00
J55_40	5655.00	7830.00
J55_41	5800.00	7830.00
J55_42	5945.00	7830.00
J55_43	6090.00	7830.00
J55_44	6235.00	7830.00
J55_45	6380.00	7830.00
J55_46	6525.00	7830.00
J55_47	6670.00	7830.00
J55_48	6815.00	7830.00
J55_49	6960.00	7830.00
J55_50	7105.00	7830.00
J55_51	7250.00	7830.00
J55_52	7395.00	7830.00
J55_53	7540.00	7830.00
J55_54	7685.00	7830.00
J55_55	7830.00	7830.00
J55_56	7975.00	7830.00
J55_57	8120.00	7830.00
J55_58	8265.00	7830.00
J55_59	8410.00	7830.00
J55_60	8555.00	7830.00
J55_61	8700.00	7830.00
J55_62	8845.00	7830.00
J55_63	8990.00	7830.00
J55_64	9135.00	7830.00
J55_65	9280.00	7830.00
J55_66	9425.00	7830.00
J55_67	9570.00	7830.00
J55_68	9715.00	7830.00
J55_69	9860.00	7830.00
J55_70	10005.00	7830.00
J55_71	10150.00	7830.00
J55_72	10295.00	7830.00
J56_1	0.00	7975.00
J56_2	145.00	7975.00
J56_3	290.00	7975.00
J56_4	435.00	7975.00
J56_5	580.00	7975.00
J56_6	725.00	7975.00
J56_7	870.00	7975.00
J56_8	1015.00	7975.00
J56_9	1160.00	7975.00
J56_10	1305.00	7975.00
J56_11	1450.00	7975.00
J56_12	1595.00	7975.00
J56_13	1740.00	7975.00
J56_14	1885.00	7975.00
J56_15	2030.00	7975.00
J56_16	2175.00	7975.00
J56_17	2320.00	7975.00
J56_18	2465.00	7975.00
J56_19	2610.00	7975.00
J56_20	2755.00	7975.00
J56_21	2900.00	7975.00
J56_22	3045.00	7975.00
J56_23	3190.00	7975.00
J56_24	3335.00	7975.00
J56_25	3480.00	7975.00
J56_26	3625.00	7975.00
J56_27	3770.00	7975.00
J56_28	3915.00	7975.00
J56_29	4060.00	7975.00
J56_30	4205.00	7975.00
J56_31	4350.00	7975.00
J56_32	4495.00	7975.00
J56_33	4640.00	7975.00
J56_34	4785.00	7975.00
J56_35	4930.00	7975.00
J56_36	5075.00	7975.00
J56_37	5220.00	7975.00
J56_38	5365.00	7975.00
J56_39	5510.00	7975.00
J56_40	5655.00	7975.00
J56_41	5800.00	7975.00
J56_42	5945.00	7975.00
J56_43	6090.00	7975.00
J56_44	6235.00	7975.00
J56_45	6380.00	7975.00
J56_46	6525.00	7975.00
J56_47	6670.00	7975.00
J56_48	6815.00	7975.00
J56_49	6960.00	7975.00
J56_50	7105.00	7975.00
J56_51	7250.00	7975.00
J56_52	7395.00	7975.00
J56_53	7540.00	7975.00
J56_54	7685.00	7975.00
J56_55	7830.00	7975.00
J56_56	7975.00	7975.00
J56_57	8120.00	7975.00
J56_58	8265.00	7975.00
J56_59	8410.00	7975.00
J56_60	8555.00	7975.00
J56_61	8700.00	7975.00
J56_62	8845.00	7975.00
J56_63	8990.00	7975.00
J56_64	9135.00	7975.00
J56_65	9280.00	7975.00
J56_66	9425.00	7975.00
J56_67	9570.00	7975.00
J56_68	9715.00	7975.00
J56_69	9860.00	7975.00
J56_70	10005.00	7975.00
J56_71	10150.00	7975.00
J56_72	10295.00	7975.00
J57_1	0.00	8120.00
J57_2	145.00	8120.00
J57_3	290.00	8120.00
J57_4	435.00	8120.00
J57_5	580.00	8120.00
J57_6	725.00	8120.00
J57_7	870.00	8120.00
J57_8	1015.00	8120.00
J57_9	1160.00	8120.00
J57_10	1305.00	8120.00
J57_11	1450.00	8120.00
J57_12	1595.00	8120.00
J57_13	1740.00	8120.00
J57_14	1885.00	8120.00
J57_15	2030.00	8120.00
J57_16	2175.00	8120.00
J57_17	2320.00	8120.00
J57_18	2465.00	8120.00
J57_19	2610.00	8120.00
J57_20	2755.00	8120.00
J57_21	2900.00	8120.00
J57_22	3045.00	8120.00
J57_23	3190.00	8120.00
J57_24	3335.00	8120.00
J57_25	3480.00	8120.00
J57_26	3625.00	8120.00
J57_27	3770.00	8120.00
J57_28	3915.00	8120.00
J57_29	4060.00	8120.00
J57_30	4205.00	8120.00
J57_31	4350.00	8120.00
J57_32	4495.00	8120.00
J57_33	4640.00	8120.00
J57_34	4785.00	8120.00
J57_35	4930.00	8120.00
J57_36	5075.00	8120.00
J57_37	5220.00	8120.00
J57_38	5365.00	8120.00
J57_39	5510.00	8120.00
J57_40	5655.00	8120.00
J57_41	5800.00	8120.00
J57_42	5945.00	8120.00
J57_43	6090.00	8120.00
J57_44	6235.00	8120.00
J57_45	6380.00	8120.00
J57_46	6525.00	8120.00
J57_47	6670.00	8120.00
J57_48	6815.00	8120.00
J57_49	6960.00	8120.00
J57_50	7105.00	8120.00
J57_51	7250.00	8120.00
J57_52	7395.00	8120.00
J57_53	7540.00	8120.00
J57_54	7685.00	8120.00
J57_55	7830.00	8120.00
J57_56	7975.00	8120.00
J57_57	8120.00	8120.00
J57_58	8265.00	8120.00
J57_59	8410.00	8120.00
J57_60	8555.00	8120.00
J57_61	8700.00	8120.00
J57_62	8845.00	8120.00
J57_63	8990.00	8120.00
J57_64	9135.00	8120.00
J57_65	9280.00	8120.00
J57_66	9425.00	8120.00
J57_67	9570.00	8120.00
J57_68	9715.00	8120.00
J57_69	9860.00	8120.00
J57_70	10005.00	8120.00
J57_71	10150.00	8120.00
J57_72	10295.00	8120.00
J58_1	0.00	8265.00
J58_2	145.00	8265.00
J58_3	290.00	8265.00
J58_4	435.00	8265.00
J58_5	580.00	8265.00
J58_6	725.00	8265.00
J58_7	870.00	8265.00
J58_8	1015.00	8265.00
J58_9	1160.00	8265.00
J58_10	1305.00	8265.00
J58_11	1450.00	8265.00
J58_12	1595.00	8265.00
J58_13	1740.00	8265.00
J58_14	1885.00	8265.00
J58_15	2030.00	8265.00
J58_16	2175.00	8265.00
J58_17	2320.00	8265.00
J58_18	2465.00	8265.00
J58_19	2610.00	8265.00
J58_20	2755.00	8265.00
J58_21	2900.00	8265.00
J58_22	3045.00	8265.00
J58_23	3190.00	8265.00
J58_24	3335.00	8265.00
J58_25	3480.00	8265.00
J58_26	3625.00	8265.00
J58_27	3770.00	8265.00
J58_28	3915.00	8265.00
J58_29	4060.00	8265.00
J58_30	4205.00	8265.00
J58_31	4350.00	8265.00
J58_32	4495.00	8265.00
J58_33	4640.00	8265.00
J58_34	4785.00	8265.00
J58_35	4930.00	8265.00
J58_36	5075.00	8265.00
J58_37	5220.00	8265.00
J58_38	5365.00	8265.00
J58_39	5510.00	8265.00
J58_40	5655.00	8265.00
J58_41	5800.00	8265.00
J58_42	5945.00	8265.00
J58_43	6090.00	8265.00
J58_44	6235.00	8265.00
J58_45	6380.00	8265.00
J58_46	6525.00	8265.00
J58_47	6670.00	8265.00
J58_48	6815.00	8265.00
J58_49	6960.00	8265.00
J58_50	7105.00	8265.00
J58_51	7250.00	8265.00
J58_52	7395.00	8265.00
J58_53	7540.00	8265.00
J58_54	7685.00	8265.00
J58_55	7830.00	8265.00
J58_56	7975.00	8265.00
J58_57	8120.00	8265.00
J58_58	8265.00	8265.00
J58_59	8410.00	8265.00
J58_60	8555.00	8265.00
J58_61	8700.00	8265.00
J58_62	8845.00	8265.00
J58_63	8990.00	8265.00
J58_64	9135.00	8265.00
J58_65	9280.00	8265.00
J58_66	9425.00	8265.00
J58_67	9570.00	8265.00
J58_68	9715.00	8265.00
J58_69	9860.00	8265.00
J58_70	10005.00	8265.00
J58_71	10150.00	8265.00
J58_72	10295.00	8265.00
J59_1	0.00	8410.00
J59_2	145.00	8410.00
J59_3	290.00	8410.00
J59_4	435.00	8410.00
J59_5	580.00	8410.00
J59_6	725.00	8410.00
J59_7	870.00	8410.00
J59_8	1015.00	8410.00
J59_9	1160.00	8410.00
J59_10	1305.00	8410.00
J59_11	1450.00	8410.00
J59_12	1595.00	8410.00
J59_13	1740.00	8410.00
J59_14	1885.00	8410.00
J59_15	2030.00	8410.00
J59_16	2175.00	8410.00
J59_17	2320.00	8410.00
J59_18	2465.00	8410.00
J59_19	2610.00	8410.00
J59_20	2755.00	8410.00
J59_21	2900.00	8410.00
J59_22	3045.00	8410.00
J59_23	3190.00	8410.00
J59_24	3335.00	8410.00
J59_25	3480.00	8410.00
J59_26	3625.00	8410.00
J59_27	3770.00	8410.00
J59_28	3915.00	8410.00
J59_29	4060.00	8410.00
J59_30	4205.00	8410.00
J59_31	4350.00	8410.00
J59_32	4495.00	8410.00
J59_33	4640.00	8410.00
J59_34	4785.00	8410.00
J59_35	4930.00	8410.00
J59_36	5075.00	8410.00
J59_37	5220.00	8410.00
J59_38	5365.00	8410.00
J59_39	5510.00	8410.00
J59_40	5655.00	8410.00
J59_41	5800.00	8410.00
J59_42	5945.00	8410.00
J59_43	6090.00	8410.00
J59_44	6235.00	8410.00
J59_45	6380.00	8410.00
J59_46	6525.00	8410.00
J59_47	6670.00	8410.00
J59_48	6815.00	8410.00
J59_49	6960.00	8410.00
J59_50	7105.00	8410.00
J59_51	7250.00	8410.00
J59_52	7395.00	8410.00
J59_53	7540.00	8410.00
J59_54	7685.00	8410.00
J59_55	7830.00	8410.00
J59_56	7975.00	8410.00
J59_57	8120.00	8410.00
J59_58	8265.00	8410.00
J59_59	8410.00	8410.00
J59_60	8555.00	8410.00
J59_61	8700.00	8410.00
J59_62	8845.00	8410.00
J59_63	8990.00	8410.00
J59_64	9135.00	8410.00
J59_65	9280.00	8410.00
J59_66	9425.00	8410.00
J59_67	9570.00	8410.00
J59_68	9715.00	8410.00
J59_69	9860.00	8410.00
J59_70	10005.00	8410.00
J59_71	10150.00	8410.00
J59_72	10295.00	8410.00
J60_1	0.00	8555.00
J60_2	145.00	8555.00
J60_3	290.00	8555.00
J60_4	435.00	8555.00
J60_5	580.00	8555.00
J60_6	725.00	8555.00
J60_7	870.00	8555.00
J60_8	1015.00	8555.00
J60_9	1160.00	8555.00
J60_10	1305.00	8555.00
J60_11	1450.00	8555.00
J60_12	1595.00	8555.00
J60_13	1740.00	8555.00
J60_14	1885.00	8555.00
J60_15	2030.00	8555.00
J60_16	2175.00	8555.00
J60_17	2320.00	8555.00
J60_18	2465.00	8555.00
J60_19	2610.00	8555.00
J60_20	2755.00	8555.00
J60_21	2900.00	8555.00
J60_22	3045.00	8555.00
J60_23	3190.00	8555.00
J60_24	3335.00	8555.00
J60_25	3480.00	8555.00
J60_26	3625.00	8555.00
J60_27	3770.00	8555.00
J60_28	3915.00	8555.00
J60_29	4060.00	8555.00
J60_30	4205.00	8555.00
J60_31	4350.00	8555.00
J60_32	4495.00	8555.00
J60_33	4640.00	8555.00
J60_34	4785.00	8555.00
J60_35	4930.00	8555.00
J60_36	5075.00	8555.00
J60_37	5220.00	8555.00
J60_38	5365.00	8555.00
J60_39	5510.00	8555.00
J60_40	5655.00	8555.00
J60_41	5800.00	8555.00
J60_42	5945.00	8555.00
J60_43	6090.00	8555.00
J60_44	6235.00	8555.00
J60_45	6380.00	8555.00
J60_46	6525.00	8555.00
J60_47	6670.00	8555.00
J60_48	6815.00	8555.00
J60_49	6960.00	8555.00
J60_50	7105.00	8555.00
J60_51	7250.00	8555.00
J60_52	7395.00	8555.00
J60_53	7540.00	8555.00
J60_54	7685.00	8555.00
J60_55	7830.00	8555.00
J60_56	7975.00	8555.00
J60_57	8120.00	8555.00
J60_58	8265.00	8555.00
J60_59	8410.00	8555.00
J60_60	8555.00	8555.00
J60_61	8700.00	8555.00
J60_62	8845.00	8555.00
J60_63	8990.00	8555.00
J60_64	9135.00	8555.00
J60_65	9280.00	8555.00
J60_66	9425.00	8555.00
J60_67	9570.00	8555.00
J60_68	9715.00	8555.00
J60_69	9860.00	8555.00
J60_70	10005.00	8555.00
J60_71	10150.00	8555.00
J60_72	10295.00	8555.00
J61_1	0.00	8700.00
J61_2	145.00	8700.00
J61_3	290.00	8700.00
J61_4	435.00	8700.00
J61_5	580.00	8700.00
J61_6	725.00	8700.00
J61_7	870.00	8700.00
J61_8	1015.00	8700.00
J61_9	1160.00	8700.00
J61_10	1305.00	8700.00
J61_11	1450.00	8700.00
J61_12	1595.00	8700.00
J61_13	1740.00	8700.00
J61_14	1885.00	8700.00
J61_15	2030.00	8700.00
J61_16	2175.00	8700.00
J61_17	2320.00	8700.00
J61_18	2465.00	8700.00
J61_19	2610.00	8700.00
J61_20	2755.00	8700.00
J61_21	2900.00	8700.00
J61_22	3045.00	8700.00
J61_23	3190.00	8700.00
J61_24	3335.00	8700.00
J61_25	3480.00	8700.00
J61_26	3625.00	8700.00
J61_27	3770.00	8700.00
J61_28	3915.00	8700.00
J61_29	4060.00	8700.00
J61_30	4205.00	8700.00
J61_31	4350.00	8700.00
J61_32	4495.00	8700.00
J61_33	4640.00	8700.00
J61_34	4785.00	8700.00
J61_35	4930.00	8700.00
J61_36	5075.00	8700.00
J61_37	5220.00	8700.00
J61_38	5365.00	8700.00
J61_39	5510.00	8700.00
J61_40	5655.00	8700.00
J61_41	5800.00	8700.00
J61_42	5945.00	8700.00
J61_43	6090.00	8700.00
J61_44	6235.00	8700.00
J61_45	6380.00	8700.00
J61_46	6525.00	8700.00
J61_47	6670.00	8700.00
J61_48	6815.00	8700.00
J61_49	6960.00	8700.00
J61_50	7105.00	8700.00
J61_51	7250.00	8700.00
J61_52	7395.00	8700.00
J61_53	7540.00	8700.00
J61_54	7685.00	8700.00
J61_55	7830.00	8700.00
J61_56	7975.00	8700.00
J61_57	8120.00	8700.00
J61_58	8265.00	8700.00
J61_59	8410.00	8700.00
J61_60	8555.00	8700.00
J61_61	8700.00	8700.00
J61_62	8845.00	8700.00
J61_63	8990.00	8700.00
J61_64	9135.00	8700.00
J61_65	9280.00	8700.00
J61_66	9425.00	8700.00
J61_67	9570.00	8700.00
J61_68	9715.00	8700.00
J61_69	9860.00	8700.00
J61_70	10005.00	8700.00
J61_71	10150.00	8700.00
J61_72	10295.00	8700.00
J62_1	0.00	8845.00
J62_2	145.00	8845.00
J62_3	290.00	8845.00
J62_4	435.00	8845.00
J62_5	580.00	8845.00
J62_6	725.00	8845.00
J62_7	870.00	8845.00
J62_8	1015.00	8845.00
J62_9	1160.00	8845.00
J62_10	1305.00	8845.00
J62_11	1450.00	8845.00
J62_12	1595.00	8845.00
J62_13	1740.00	8845.00
J62_14	1885.00	8845.00
J62_15	2030.00	8845.00
J62_16	2175.00	8845.00
J62_17	2320.00	8845.00
J62_18	2465.00	8845.00
J62_19	2610.00	8845.00
J62_20	2755.00	8845.00
J62_21	2900.00	8845.00
J62_22	3045.00	8845.00
J62_23	3190.00	8845.00
J62_24	3335.00	8845.00
J62_25	3480.00	8845.00
J62_26	3625.00	8845.00
J62_27	3770.00	8845.00
J62_28	3915.00	8845.00
J62_29	4060.00	8845.00
J62_30	4205.00	8845.00
J62_31	4350.00	8845.00
J62_32	4495.00	8845.00
J62_33	4640.00	8845.00
J62_34	4785.00	8845.00
J62_35	4930.00	8845.00
J62_36	5075.00	8845.00
J62_37	5220.00	8845.00
J62_38	5365.00	8845.00
J62_39	5510.00	8845.00
J62_40	5655.00	8845.00
J62_41	5800.00	8845.00
J62_42	5945.00	8845.00
J62_43	6090.00	8845.00
J62_44	6235.00	8845.00
J62_45	6380.00	8845.00
J62_46	6525.00	8845.00
J62_47	6670.00	8845.00
J62_48	6815.00	8845.00
J62_49	6960.00	8845.00
J62_50	7105.00	8845.00
J62_51	7250.00	8845.00
J62_52	7395.00	8845.00
J62_53	7540.00	8845.00
J62_54	7685.00	8845.00
J62_55	7830.00	8845.00
J62_56	7975.00	8845.00
J62_57	8120.00	8845.00
J62_58	8265.00	8845.00
J62_59	8410.00	8845.00
J62_60	8555.00	8845.00
J62_61	8700.00	8845.00
J62_62	8845.00	8845.00
J62_63	8990.00	8845.00
J62_64	9135.00	8845.00
J62_65	9280.00	8845.00
J62_66	9425.00	8845.00
J62_67	9570.00	8845.00
J62_68	9715.00	8845.00
J62_69	9860.00	8845.00
J62_70	10005.00	8845.00
J62_71	10150.00	8845.00
J62_72	10295.00	8845.00
J63_1	0.00	8990.00
J63_2	145.00	8990.00
J63_3	290.00	8990.00
J63_4	435.00	8990.00
J63_5	580.00	8990.00
J63_6	725.00	8990.00
J63_7	870.00	8990.00
J63_8	1015.00	8990.00
J63_9	1160.00	8990.00
J63_10	1305.00	8990.00
J63_11	1450.00	8990.00
J63_12	1595.00	8990.00
J63_13	1740.00	8990.00
J63_14	1885.00	8990.00
J63_15	2030.00	8990.00
J63_16	2175.00	8990.00
J63_17	2320.00	8990.00
J63_18	2465.00	8990.00
J63_19	2610.00	8990.00
J63_20	2755.00	8990.00
J63_21	2900.00	8990.00
J63_22	3045.00	8990.00
J63_23	3190.00	8990.00
J63_24	3335.00	8990.00
J63_25	3480.00	8990.00
J63_26	3625.00	8990.00
J63_27	3770.00	8990.00
J63_28	3915.00	8990.00
J63_29	4060.00	8990.00
J63_30	4205.00	8990.00
J63_31	4350.00	8990.00
J63_32	4495.00	8990.00
J63_33	4640.00	8990.00
J63_34	4785.00	8990.00
J63_35	4930.00	8990.00
J63_36	5075.00	8990.00
J63_37	5220.00	8990.00
J63_38	5365.00	8990.00
J63_39	5510.00	8990.00
J63_40	5655.00	8990.00
J63_41	5800.00	8990.00
J63_42	5945.00	8990.00
J63_43	6090.00	8990.00
J63_44	6235.00	8990.00
J63_45	6380.00	8990.00
J63_46	6525.00	8990.00
J63_47	6670.00	8990.00
J63_48	6815.00	8990.00
J63_49	6960.00	8990.00
J63_50	7105.00	8990.00
J63_51	7250.00	8990.00
J63_52	7395.00	8990.00
J63_53	7540.00	8990.00
J63_54	7685.00	8990.00
J63_55	7830.00	8990.00
J63_56	7975.00	8990.00
J63_57	8120.00	8990.00
J63_58	8265.00	8990.00
J63_59	8410.00	8990.00
J63_60	8555.00	8990.00
J63_61	8700.00	8990.00
J63_62	8845.00	8990.00
J63_63	8990.00	8990.00
J63_64	9135.00	8990.00
J63_65	9280.00	8990.00
J63_66	9425.00	8990.00
J63_67	9570.00	8990.00
J63_68	9715.00	8990.00
J63_69	9860.00	8990.00
J63_70	10005.00	8990.00
J63_71	10150.00	8990.00
J63_72	10295.00	8990.00
J64_1	0.00	9135.00
J64_2	145.00	9135.00
J64_3	290.00	9135.00
J64_4	435.00	9135.00
J64_5	580.00	9135.00
J64_6	725.00	9135.00
J64_7	870.00	9135.00
J64_8	1015.00	9135.00
J64_9	1160.00	9135.00
J64_10	1305.00	9135.00
J64_11	1450.00	9135.00
J64_12	1595.00	9135.00
J64_13	1740.00	9135.00
J64_14	1885.00	9135.00
J64_15	2030.00	9135.00
J64_16	2175.00	9135.00
J64_17	2320.00	9135.00
J64_18	2465.00	9135.00
J64_19	2610.00	9135.00
J64_20	2755.00	9135.00
J64_21	2900.00	9135.00
J64_22	3045.00	9135.00
J64_23	3190.00	9135.00
J64_24	3335.00	9135.00
J64_25	3480.00	9135.00
J64_26	3625.00	9135.00
J64_27	3770.00	9135.00
J64_28	3915.00	9135.00
J64_29	4060.00	9135.00
J64_30	4205.00	9135.00
J64_31	4350.00	9135.00
J64_32	4495.00	9135.00
J64_33	4640.00	9135.00
J64_34	4785.00	9135.00
J64_35	4930.00	9135.00
J64_36	5075.00	9135.00
J64_37	5220.00	9135.00
J64_38	5365.00	9135.00
J64_39	5510.00	9135.00
J64_40	5655.00	9135.00
J64_41	5800.00	9135.00
J64_42	5945.00	9135.00
J64_43	6090.00	9135.00
J64_44	6235.00	9135.00
J64_45	6380.00	9135.00
J64_46	6525.00	9135.00
J64_47	6670.00	9135.00
J64_48	6815.00	9135.00
J64_49	6960.00	9135.00
J64_50	7105.00	9135.00
J64_51	7250.00	9135.00
J64_52	7395.00	9135.00
J64_53	7540.00	9135.00
J64_54	7685.00	9135.00
J64_55	7830.00	9135.00
J64_56	7975.00	9135.00
J64_57	8120.00	9135.00
J64_58	8265.00	9135.00
J64_59	8410.00	9135.00
J64_60	8555.00	9135.00
J64_61	8700.00	9135.00
J64_62	8845.00	9135.00
J64_63	8990.00	9135.00
J64_64	9135.00	9135.00
J64_65	9280.00	9135.00
J64_66	9425.00	9135.00
J64_67	9570.00	9135.00
J64_68	9715.00	9135.00
J64_69	9860.00	9135.00
J64_70	10005.00	9135.00
J64_71	10150.00	9135.00
J64_72	10295.00	9135.00
J65_1	0.00	9280.00
J65_2	145.00	9280.00
J65_3	290.00	9280.00
J65_4	435.00	9280.00
J65_5	580.00	9280.00
J65_6	725.00	9280.00
J65_7	870.00	9280.00
J65_8	1015.00	9280.00
J65_9	1160.00	9280.00
J65_10	1305.00	9280.00
J65_11	1450.00	9280.00
J65_12	1595.00	9280.00
J65_13	1740.00	9280.00
J65_14	1885.00	9280.00
J65_15	2030.00	9280.00
J65_16	2175.00	9280.00
J65_17	2320.00	9280.00
J65_18	2465.00	9280.00
J65_19	2610.00	9280.00
J65_20	2755.00	9280.00
J65_21	2900.00	9280.00
J65_22	3045.00	9280.00
J65_23	3190.00	9280.00
J65_24	3335.00	9280.00
J65_25	3480.00	9280.00
J65_26	3625.00	9280.00
J65_27	3770.00	9280.00
J65_28	3915.00	9280.00
J65_29	4060.00	9280.00
J65_30	4205.00	9280.00
J65_31	4350.00	9280.00
J65_32	4495.00	9280.00
J65_33	4640.00	9280.00
J65_34	4785.00	9280.00
J65_35	4930.00	9280.00
J65_36	5075.00	9280.00
J65_37	5220.00	9280.00
J65_38	5365.00	9280.00
J65_39	5510.00	9280.00
J65_40	5655.00	9280.00
J65_41	5800.00	9280.00
J65_42	5945.00	9280.00
J65_43	6090.00	9280.00
J65_44	6235.00	9280.00
J65_45	6380.00	9280.00
J65_46	6525.00	9280.00
J65_47	6670.00	9280.00
J65_48	6815.00	9280.00
J65_49	6960.00	9280.00
J65_50	7105.00	9280.00
J65_51	7250.00	9280.00
J65_52	7395.00	9280.00
J65_53	7540.00	9280.00
J65_54	7685.00	9280.00
J65_55	7830.00	9280.00
J65_56	7975.00	9280.00
J65_57	8120.00	9280.00
J65_58	8265.00	9280.00
J65_59	8410.00	9280.00
J65_60	8555.00	9280.00
J65_61	8700.00	9280.00
J65_62	8845.00	9280.00
J65_63	8990.00	9280.00
J65_64	9135.00	9280.00
J65_65	9280.00	9280.00
J65_66	9425.00	9280.00
J65_67	9570.00	9280.00
J65_68	9715.00	9280.00
J65_69	9860.00	9280.00
J65_70	10005.00	9280.00
J65_71	10150.00	9280.00
J65_72	10295.00	9280.00
J66_1	0.00	9425.00
J66_2	145.00	9425.00
J66_3	290.00	9425.00
J66_4	435.00	9425.00
J66_5	580.00	9425.00
J66_6	725.00	9425.00
J66_7	870.00	9425.00
J66_8	1015.00	9425.00
J66_9	1160.00	9425.00
J66_10	1305.00	9425.00
J66_11	1450.00	9425.00
J66_12	1595.00	9425.00
J66_13	1740.00	9425.00
J66_14	1885.00	9425.00
J66_15	2030.00	9425.00
J66_16	2175.00	9425.00
J66_17	2320.00	9425.00
J66_18	2465.00	9425.00
J66_19	2610.00	9425.00
J66_20	2755.00	9425.00
J66_21	2900.00	9425.00
J66_22	3045.00	9425.00
J66_23	3190.00	9425.00
J66_24	3335.00	9425.00
J66_25	3480.00	9425.00
J66_26	3625.00	9425.00
J66_27	3770.00	9425.00
J66_28	3915.00	9425.00
J66_29	4060.00	9425.00
J66_30	4205.00	9425.00
J66_31	4350.00	9425.00
J66_32	4495.00	9425.00
J66_33	4640.00	9425.00
J66_34	4785.00	9425.00
J66_35	4930.00	9425.00
J66_36	5075.00	9425.00
J66_37	5220.00	9425.00
J66_38	5365.00	9425.00
J66_39	5510.00	9425.00
J66_40	5655.00	9425.00
J66_41	5800.00	9425.00
J66_42	5945.00	9425.00
J66_43	6090.00	9425.00
J66_44	6235.00	9425.00
J66_45	6380.00	9425.00
J66_46	6525.00	9425.00
J66_47	6670.00	9425.00
J66_48	6815.00	9425.00
J66_49	6960.00	9425.00
J66_50	7105.00	9425.00
J66_51	7250.00	9425.00
J66_52	7395.00	9425.00
J66_53	7540.00	9425.00
J66_54	7685.00	9425.00
J66_55	7830.00	9425.00
J66_56	7975.00	9425.00
J66_57	8120.00	9425.00
J66_58	8265.00	9425.00
J66_59	8410.00	9425.00
J66_60	8555.00	9425.00
J66_61	8700.00	9425.00
J66_62	8845.00	9425.00
J66_63	8990.00	9425.00
J66_64	9135.00	9425.00
J66_65	9280.00	9425.00
J66_66	9425.00	9425.00
J66_67	9570.00	9425.00
J66_68	9715.00	9425.00
J66_69	9860.00	9425.00
J66_70	10005.00	9425.00
J66_71	10150.00	9425.00
J66_72	10295.00	9425.00
J67_1	0.00	9570.00
J67_2	145.00	9570.00
J67_3	290.00	9570.00
J67_4	435.00	9570.00
J67_5	580.00	9570.00
J67_6	725.00	9570.00
J67_7	870.00	9570.00
J67_8	1015.00	9570.00
J67_9	1160.00	9570.00
J67_10	1305.00	9570.00
J67_11	1450.00	9570.00
J67_12	1595.00	9570.00
J67_13	1740.00	9570.00
J67_14	1885.00	9570.00
J67_15	2030.00	9570.00
J67_16	2175.00	9570.00
J67_17	2320.00	9570.00
J67_18	2465.00	9570.00
J67_19	2610.00	9570.00
J67_20	2755.00	9570.00
J67_21	2900.00	9570.00
J67_22	3045.00	9570.00
J67_23	3190.00	9570.00
J67_24	3335.00	9570.00
J67_25	3480.00	9570.00
J67_26	3625.00	9570.00
J67_27	3770.00	9570.00
J67_28	3915.00	9570.00
J67_29	4060.00	9570.00
J67_30	4205.00	9570.00
J67_31	4350.00	9570.00
J67_32	4495.00	9570.00
J67_33	4640.00	9570.00
J67_34	4785.00	9570.00
J67_35	4930.00	9570.00
J67_36	5075.00	9570.00
J67_37	5220.00	9570.00
J67_38	5365.00	9570.00
J67_39	5510.00	9570.00
J67_40	5655.00	9570.00
J67_41	5800.00	9570.00
J67_42	5945.00	9570.00
J67_43	6090.00	9570.00
J67_44	6235.00	9570.00
J67_45	6380.00	9570.00
J67_46	6525.00	9570.00
J67_47	6670.00	9570.00
J67_48	6815.00	9570.00
J67_49	6960.00	9570.00
J67_50	7105.00	9570.00
J67_51	7250.00	9570.00
J67_52	7395.00	9570.00
J67_53	7540.00	9570.00
J67_54	7685.00	9570.00
J67_55	7830.00	9570.00
J67_56	7975.00	9570.00
J67_57	8120.00	9570.00
J67_58	8265.00	9570.00
J67_59	8410.00	9570.00
J67_60	8555.00	9570.00
J67_61	8700.00	9570.00
J67_62	8845.00	9570.00
J67_63	8990.00	9570.00
J67_64	9135.00	9570.00
J67_65	9280.00	9570.00
J67_66	9425.00	9570.00
J67_67	9570.00	9570.00
J67_68	9715.00	9570.00
J67_69	9860.00	9570.00
J67_70	10005.00	9570.00
J67_71	10150.00	9570.00
J67_72	10295.00	9570.00
J68_1	0.00	9715.00
J68_2	145.00	9715.00
J68_3	290.00	9715.00
J68_4	435.00	9715.00
J68_5	580.00	9715.00
J68_6	725.00	9715.00
J68_7	870.00	9715.00
J68_8	1015.00	9715.00
J68_9	1160.00	9715.00
J68_10	1305.00	9715.00
J68_11	1450.00	9715.00
J68_12	1595.00	9715.00
J68_13	1740.00	9715.00
J68_14	1885.00	9715.00
J68_15	2030.00	9715.00
J68_16	2175.00	9715.00
J68_17	2320.00	9715.00
J68_18	2465.00	9715.00
J68_19	2610.00	9715.00
J68_20	2755.00	9715.00
J68_21	2900.00	9715.00
J68_22	3045.00	9715.00
J68_23	3190.00	9715.00
J68_24	3335.00	9715.00
J68_25	3480.00	9715.00
J68_26	3625.00	9715.00
J68_27	3770.00	9715.00
J68_28	3915.00	9715.00
J68_29	4060.00	9715.00
J68_30	4205.00	9715.00
J68_31	4350.00	9715.00
J68_32	4495.00	9715.00
J68_33	4640.00	9715.00
J68_34	4785.00	9715.00
J68_35	4930.00	9715.00
J68_36	5075.00	9715.00
J68_37	5220.00	9715.00
J68_38	5365.00	9715.00
J68_39	5510.00	9715.00
J68_40	5655.00	9715.00
J68_41	5800.00	9715.00
J68_42	5945.00	9715.00
J68_43	6090.00	9715.00
J68_44	6235.00	9715.00
J68_45	6380.00	9715.00
J68_46	6525.00	9715.00
J68_47	6670.00	9715.00
J68_48	6815.00	9715.00
J68_49	6960.00	9715.00
J68_50	7105.00	9715.00
J68_51	7250.00	9715.00
J68_52	7395.00	9715.00
J68_53	7540.00	9715.00
J68_54	7685.00	9715.00
J68_55	7830.00	9715.00
J68_56	7975.00	9715.00
J68_57	8120.00	9715.00
J68_58	8265.00	9715.00
J68_59	8410.00	9715.00
J68_60	8555.00	9715.00
J68_61	8700.00	9715.00
J68_62	8845.00	9715.00
J68_63	8990.00	9715.00
J68_64	9135.00	9715.00
J68_65	9280.00	9715.00
J68_66	9425.00	9715.00
J68_67	9570.00	9715.00
J68_68	9715.00	9715.00
J68_69	9860.00	9715.00
J68_70	10005.00	9715.00
J68_71	10150.00	9715.00
J68_72	10295.00	9715.00
J69_1	0.00	9860.00
J69_2	145.00	9860.00
J69_3	290.00	9860.00
J69_4	435.00	9860.00
J69_5	580.00	9860.00
J69_6	725.00	9860.00
J69_7	870.00	9860.00
J69_8	1015.00	9860.00
J69_9	1160.00	9860.00
J69_10	1305.00	9860.00
J69_11	1450.00	9860.00
J69_12	1595.00	9860.00
J69_13	1740.00	9860.00
J69_14	1885.00	9860.00
J69_15	2030.00	9860.00
J69_16	2175.00	9860.00
J69_17	2320.00	9860.00
J69_18	2465.00	9860.00
J69_19	2610.00	9860.00
J69_20	2755.00	9860.00
J69_21	2900.00	9860.00
J69_22	3045.00	9860.00
J69_23	3190.00	9860.00
J69_24	3335.00	9860.00
J69_25	3480.00	9860.00
J69_26	3625.00	9860.00
J69_27	3770.00	9860.00
J69_28	3915.00	9860.00
J69_29	4060.00	9860.00
J69_30	4205.00	9860.00
J69_31	4350.00	9860.00
J69_32	4495.00	9860.00
J69_33	4640.00	9860.00
J69_34	4785.00	9860.00
J69_35	4930.00	9860.00
J69_36	5075.00	9860.00
J69_37	5220.00	9860.00
J69_38	5365.00	9860.00
J69_39	5510.00	9860.00
J69_40	5655.00	9860.00
J69_41	5800.00	9860.00
J69_42	5945.00	9860.00
J69_43	6090.00	9860.00
J69_44	6235.00	9860.00
J69_45	6380.00	9860.00
J69_46	6525.00	9860.00
J69_47	6670.00	9860.00
J69_48	6815.00	9860.00
J69_49	6960.00	9860.00
J69_50	7105.00	9860.00
J69_51	7250.00	9860.00
J69_52	7395.00	9860.00
J69_53	7540.00	9860.00
J69_54	7685.00	9860.00
J69_55	7830.00	9860.00
J69_56	7975.00	9860.00
J69_57	8120.00	9860.00
J69_58	8265.00	9860.00
J69_59	8410.00	9860.00
J69_60	8555.00	9860.00
J69_61	8700.00	9860.00
J69_62	8845.00	9860.00
J69_63	8990.00	9860.00
J69_64	9135.00	9860.00
J69_65	9280.00	9860.00
J69_66	9425.00	9860.00
J69_67	9570.00	9860.00
J69_68	9715.00	9860.00
J69_69	9860.00	9860.00
J69_70	10005.00	9860.00
J69_71	10150.00	9860.00
J69_72	10295.00	9860.00
J70_1	0.00	10005.00
J70_2	145.00	10005.00
J70_3	290.00	10005.00
J70_4	435.00	10005.00
J70_5	580.00	10005.00
J70_6	725.00	10005.00
J70_7	870.00	10005.00
J70_8	1015.00	10005.00
J70_9	1160.00	10005.00
J70_10	1305.00	10005.00
J70_11	1450.00	10005.00
J70_12	1595.00	10005.00
J70_13	1740.00	10005.00
J70_14	1885.00	10005.00
J70_15	2030.00	10005.00
J70_16	2175.00	10005.00
J70_17	2320.00	10005.00
J70_18	2465.00	10005.00
J70_19	2610.00	10005.00
J70_20	2755.00	10005.00
J70_21	2900.00	10005.00
J70_22	3045.00	10005.00
J70_23	3190.00	10005.00
J70_24	3335.00	10005.00
J70_25	3480.00	10005.00
J70_26	3625.00	10005.00
J70_27	3770.00	10005.00
J70_28	3915.00	10005.00
J70_29	4060.00	10005.00
J70_30	4205.00	10005.00
J70_31	4350.00	10005.00
J70_32	4495.00	10005.00
J70_33	4640.00	10005.00
J70_34	4785.00	10005.00
J70_35	4930.00	10005.00
J70_36	5075.00	10005.00
J70_37	5220.00	10005.00
J70_38	5365.00	10005.00
J70_39	5510.00	10005.00
J70_40	5655.00	10005.00
J70_41	5800.00	10005.00
J70_42	5945.00	10005.00
J70_43	6090.00	10005.00
J70_44	6235.00	10005.00
J70_45	6380.00	10005.00
J70_46	6525.00	10005.00
J70_47	6670.00	10005.00
J70_48	6815.00	10005.00
J70_49	6960.00	10005.00
J70_50	7105.00	10005.00
J70_51	7250.00	10005.00
J70_52	7395.00	10005.00
J70_53	7540.00	10005.00
J70_54	7685.00	10005.00
J70_55	7830.00	10005.00
J70_56	7975.00	10005.00
J70_57	8120.00	10005.00
J70_58	8265.00	10005.00
J70_59	8410.00	10005.00
J70_60	8555.00	10005.00
J70_61	8700.00	10005.00
J70_62	8845.00	10005.00
J70_63	8990.00	10005.00
J70_64	9135.00	10005.00
J70_65	9280.00	10005.00
J70_66	9425.00	10005.00
J70_67	9570.00	10005.00
J70_68	9715.00	10005.00
J70_69	9860.00	10005.00
J70_70	10005.00	10005.00
J70_71	10150.00	10005.00
J70_72	10295.00	10005.00
J71_1	0.00	10150.00
J71_2	145.00	10150.00
J71_3	290.00	10150.00
J71_4	435.00	10150.00
J71_5	580.00	10150.00
J71_6	725.00	10150.00
J71_7	870.00	10150.00
J71_8	1015.00	10150.00
J71_9	1160.00	10150.00
J71_10	1305.00	10150.00
J71_11	1450.00	10150.00
J71_12	1595.00	10150.00
J71_13	1740.00	10150.00
J71_14	1885.00	10150.00
J71_15	2030.00	10150.00
J71_16	2175.00	10150.00
J71_17	2320.00	10150.00
J71_18	2465.00	10150.00
J71_19	2610.00	10150.00
J71_20	2755.00	10150.00
J71_21	2900.00	10150.00
J71_22	3045.00	10150.00
J71_23	3190.00	10150.00
J71_24	3335.00	10150.00
J71_25	3480.00	10150.00
J71_26	3625.00	10150.00
J71_27	3770.00	10150.00
J71_28	3915.00	10150.00
J71_29	4060.00	10150.00
J71_30	4205.00	10150.00
J71_31	4350.00	10150.00
J71_32	4495.00	10150.00
J71_33	4640.00	10150.00
J71_34	4785.00	10150.00
J71_35	4930.00	10150.00
J71_36	5075.00	10150.00
J71_37	5220.00	10150.00
J71_38	5365.00	10150.00
J71_39	5510.00	10150.00
J71_40	5655.00	10150.00
J71_41	5800.00	10150.00
J71_42	5945.00	10150.00
J71_43	6090.00	10150.00
J71_44	6235.00	10150.00
J71_45	6380.00	10150.00
J71_46	6525.00	10150.00
J71_47	6670.00	10150.00
J71_48	6815.00	10150.00
J71_49	6960.00	10150.00
J71_50	7105.00	10150.00
J71_51	7250.00	10150.00
J71_52	7395.00	10150.00
J71_53	7540.00	10150.00
J71_54	7685.00	10150.00
J71_55	7830.00	10150.00
J71_56	7975.00	10150.00
J71_57	8120.00	10150.00
J71_58	8265.00	10150.00
J71_59	8410.00	10150.00
J71_60	8555.00	10150.00
J71_61	8700.00	10150.00
J71_62	8845.00	10150.00
J71_63	8990.00	10150.00
J71_64	9135.00	10150.00
J71_65	9280.00	10150.00
J71_66	9425.00	10150.00
J71_67	9570.00	10150.00
J71_68	9715.00	10150.00
J71_69	9860.00	10150.00
J71_70	10005.00	10150.00
J71_71	10150.00	10150.00
J71_72	10295.00	10150.00
J72_1	0.00	10295.00
J72_2	145.00	10295.00
J72_3	290.00	10295.00
J72_4	435.00	10295.00
J72_5	580.00	10295.00
J72_6	725.00	10295.00
J72_7	870.00	10295.00
J72_8	1015.00	10295.00
J72_9	1160.00	10295.00
J72_10	1305.00	10295.00
J72_11	1450.00	10295.00
J72_12	1595.00	10295.00
J72_13	1740.00	10295.00
J72_14	1885.00	10295.00
J72_15	2030.00	10295.00
J72_16	2175.00	10295.00
J72_17	2320.00	10295.00
J72_18	2465.00	10295.00
J72_19	2610.00	10295.00
J72_20	2755.00	10295.00
J72_21	2900.00	10295.00
J72_22	3045.00	10295.00
J72_23	3190.00	10295.00
J72_24	3335.00	10295.00
J72_25	3480.00	10295.00
J72_26	3625.00	10295.00
J72_27	3770.00	10295.00
J72_28	3915.00	10295.00
J72_29	4060.00	10295.00
J72_30	4205.00	10295.00
J72_31	4350.00	10295.00
J72_32	4495.00	10295.00
J72_33	4640.00	10295.00
J72_34	4785.00	10295.00
J72_35	4930.00	10295.00
J72_36	5075.00	10295.00
J72_37	5220.00	10295.00
J72_38	5365.00	10295.00
J72_39	5510.00	10295.00
J72_40	5655.00	10295.00
J72_41	5800.00	10295.00
J72_42	5945.00	10295.00
J72_43	6090.00	10295.00
J72_44	6235.00	10295.00
J72_45	6380.00	10295.00
J72_46	6525.00	10295.00
J72_47	6670.00	10295.00
J72_48	6815.00	10295.00
J72_49	6960.00	10295.00
J72_50	7105.00	10295.00
J72_51	7250.00	10295.00
J72_52	7395.00	10295.00
J72_53	7540.00	10295.00
J72_54	7685.00	10295.00
J72_55	7830.00	10295.00
J72_56	7975.00	10295.00
J72_57	8120.00	10295.00
J72_58	8265.00	10295.00
J72_59	8410.00	10295.00
J72_60	8555.00	10295.00
J72_61	8700.00	10295.00
J72_62	8845.00	10295.00
J72_63	8990.00	10295.00
J72_64	9135.00	10295.00
J72_65	9280.00	10295.00
J72_66	9425.00	10295.00
J72_67	9570.00	10295.00
J72_68	9715.00	10295.00
J72_69	9860.00	10295.00
J72_70	10005.00	10295.00
J72_71	10150.00	10295.00
J72_72	10295.00	10295.00
T1	1373.64	6133.15
T2	3851.90	5173.23
T3	6464.47	5181.06
T4	8905.80	4100.98


[END]
