[TITLE]
Complex Suite Scenario: dw_gpm_age_mixed
seed=202 districts=3x2 size=26

[JUNCTIONS]
;ID	Elev	Demand	Pattern
J1_1	185.633	0.0011915	P_RES
J1_2	192.517	0.0022427	P_IND
J1_3	198.071	0.0008243	P_RES
J1_4	206.543	0.0024809	P_COM
J1_5	212.949	0.0011821	P_RES
J1_6	220.950	0.0010021	P_RES
J1_7	227.466	0.0018658	P_COM
J1_8	235.569	0.0018022	P_COM
J1_9	242.685	0.0008989	P_RES
J1_10	249.458	0.0022294	P_RES
J1_11	256.185	0.0003944	P_RES
J1_12	264.077	0.0011492	P_RES
J1_13	269.202	0.0013506	P_RES
J1_14	276.619	0.0013888	P_RES
J1_15	283.645	0.0031639	P_IND
J1_16	292.143	0.0021288	P_IND
J1_17	299.123	0.0007509	P_RES
J1_18	304.197	0.0007332	P_RES
J1_19	312.437	0.0014119	P_RES
J1_20	318.111	0.0026308	P_RES
J1_21	324.863	0.0025532	P_RES
J1_22	332.311	0.0005968	P_RES
J1_23	340.589	0.0017332	P_RES
J1_24	347.318	0.0014171	P_RES
J1_25	353.742	0.0008206	P_RES
J1_26	359.620	0.0013487	P_RES
J1_27	368.145	0.0006060	P_RES
J1_28	374.730	0.0011563	P_RES
J1_29	380.713	0.0014772	P_RES
J1_30	388.202	0.0013763	P_RES
J1_31	396.285	0.0009606	P_RES
J1_32	402.834	0.0079846	P_IND
J1_33	409.577	0.0011546	P_RES
J1_34	414.577	0.0015713	P_RES
J1_35	422.064	0.0042164	P_IND
J1_36	428.576	0.0040533	P_IND
J1_37	435.262	0.0011218	P_RES
J1_38	443.209	0.0018348	P_COM
J1_39	450.598	0.0024628	P_RES
J1_40	455.061	0.0018371	P_RES
J1_41	462.053	0.0005769	P_RES
J1_42	469.292	0.0008684	P_RES
J1_43	476.419	0.0015922	P_RES
J1_44	483.558	0.0010345	P_RES
J1_45	489.238	0.0036748	P_IND
J1_46	497.084	0.0034271	P_RES
J1_47	503.860	0.0008261	P_RES
J1_48	510.499	0.0019831	P_RES
J1_49	515.670	0.0014569	P_RES
J1_50	522.529	0.0019048	P_COM
J1_51	530.344	0.0013516	P_RES
J1_52	536.382	0.0018056	P_RES
J2_1	184.222	0.0008137	P_RES
J2_2	190.250	0.0021848	P_RES
J2_3	198.096	0.0027307	P_COM
J2_4	204.514	0.0004510	P_RES
J2_5	212.085	0.0010475	P_RES
J2_6	218.699	0.0017976	P_RES
J2_7	226.065	0.0006027	P_RES
J2_8	233.668	0.0036775	P_COM
J2_9	240.169	0.0009615	P_RES
J2_10	246.077	0.0008385	P_RES
J2_11	252.961	0.0013408	P_RES
J2_12	261.135	0.0028860	P_IND
J2_13	269.031	0.0016525	P_RES
J2_14	276.088	0.0020715	P_COM
J2_15	283.197	0.0006127	P_RES
J2_16	288.299	0.0017673	P_COM
J2_17	297.067	0.0009575	P_RES
J2_18	303.768	0.0012045	P_RES
J2_19	310.484	0.0029138	P_RES
J2_20	316.637	0.0016631	P_RES
J2_21	324.266	0.0008876	P_RES
J2_22	331.926	0.0008101	P_RES
J2_23	339.356	0.0015945	P_RES
J2_24	344.534	0.0015555	P_RES
J2_25	352.555	0.0014318	P_RES
J2_26	358.402	0.0020121	P_RES
J2_27	366.731	0.0014957	P_RES
J2_28	373.029	0.0007741	P_RES
J2_29	379.194	0.0014400	P_RES
J2_30	386.443	0.0009856	P_RES
J2_31	393.269	0.0012177	P_RES
J2_32	400.681	0.0015739	P_RES
J2_33	407.197	0.0014237	P_RES
J2_34	412.787	0.0035912	P_COM
J2_35	420.277	0.0013895	P_RES
J2_36	427.863	0.0008932	P_RES
J2_37	434.206	0.0019028	P_RES
J2_38	440.773	0.0022850	P_COM
J2_39	447.004	0.0035952	P_COM
J2_40	454.856	0.0009833	P_RES
J2_41	459.930	0.0026986	P_RES
J2_42	468.394	0.0007732	P_RES
J2_43	474.522	0.0025546	P_RES
J2_44	481.632	0.0019604	P_RES
J2_45	488.037	0.0016237	P_RES
J2_46	493.693	0.0010894	P_RES
J2_47	502.246	0.0002793	P_RES
J2_48	507.342	0.0014295	P_COM
J2_49	515.171	0.0004473	P_RES
J2_50	520.144	0.0036562	P_RES
J2_51	527.933	0.0015033	P_RES
J2_52	533.434	0.0022718	P_COM
J3_1	182.485	0.0011879	P_RES
J3_2	187.422	0.0013384	P_COM
J3_3	195.653	0.0007989	P_RES
J3_4	202.271	0.0027841	P_RES
J3_5	210.825	0.0025782	P_RES
J3_6	216.143	0.0007982	P_RES
J3_7	224.636	0.0018273	P_RES
J3_8	231.205	0.0005943	P_RES
J3_9	237.456	0.0015880	P_RES
J3_10	245.790	0.0008980	P_RES
J3_11	253.029	0.0017162	P_RES
J3_12	258.340	0.0026490	P_RES
J3_13	266.950	0.0009064	P_RES
J3_14	273.483	0.0006607	P_RES
J3_15	280.059	0.0007573	P_RES
J3_16	288.591	0.0015767	P_COM
J3_17	295.546	0.0029801	P_RES
J3_18	302.219	0.0037265	P_IND
J3_19	307.324	0.0012025	P_RES
J3_20	315.377	0.0015281	P_RES
J3_21	322.345	0.0049949	P_RES
J3_22	330.132	0.0008927	P_RES
J3_23	335.448	0.0019569	P_RES
J3_24	342.522	0.0019171	P_COM
J3_25	349.851	0.0014308	P_RES
J3_26	358.216	0.0009492	P_RES
J3_27	365.036	0.0010742	P_RES
J3_28	371.175	0.0030988	P_IND
J3_29	376.750	0.0015767	P_COM
J3_30	385.004	0.0009021	P_RES
J3_31	390.542	0.0050087	P_IND
J3_32	398.948	0.0013232	P_IND
J3_33	406.042	0.0007867	P_RES
J3_34	412.148	0.0020009	P_IND
J3_35	418.045	0.0007276	P_RES
J3_36	425.207	0.0012120	P_RES
J3_37	432.812	0.0014590	P_RES
J3_38	438.786	0.0033541	P_COM
J3_39	446.375	0.0010287	P_RES
J3_40	452.109	0.0011215	P_RES
J3_41	459.072	0.0010735	P_COM
J3_42	465.827	0.0023957	P_RES
J3_43	472.652	0.0011263	P_COM
J3_44	478.188	0.0011655	P_RES
J3_45	484.966	0.0010607	P_COM
J3_46	491.628	0.0024721	P_COM
J3_47	499.064	0.0006406	P_RES
J3_48	505.185	0.0011473	P_RES
J3_49	513.202	0.0009165	P_RES
J3_50	519.832	0.0029684	P_IND
J3_51	526.102	0.0007716	P_RES
J3_52	533.035	0.0036359	P_IND
J4_1	180.281	0.0033358	P_IND
J4_2	187.369	0.0046440	P_IND
J4_3	193.397	0.0034425	P_COM
J4_4	201.886	0.0028476	P_RES
J4_5	208.038	0.0008784	P_RES
J4_6	214.416	0.0005984	P_RES
J4_7	222.921	0.0012893	P_RES
J4_8	227.966	0.0009075	P_RES
J4_9	236.934	0.0073971	P_IND
J4_10	242.984	0.0006656	P_RES
J4_11	251.263	0.0029183	P_IND
J4_12	256.727	0.0020729	P_COM
J4_13	264.404	0.0016643	P_RES
J4_14	271.914	0.0010759	P_RES
J4_15	278.014	0.0006128	P_RES
J4_16	284.946	0.0011550	P_RES
J4_17	292.125	0.0024042	P_COM
J4_18	298.753	0.0018319	P_RES
J4_19	306.822	0.0008258	P_RES
J4_20	313.473	0.0015301	P_RES
J4_21	319.497	0.0021282	P_RES
J4_22	327.228	0.0013390	P_RES
J4_23	334.416	0.0018984	P_RES
J4_24	340.867	0.0012542	P_RES
J4_25	349.475	0.0012019	P_RES
J4_26	354.149	0.0011899	P_RES
J4_27	361.922	0.0018420	P_COM
J4_28	369.717	0.0006917	P_RES
J4_29	374.925	0.0012708	P_RES
J4_30	382.864	0.0013591	P_RES
J4_31	388.912	0.0005230	P_RES
J4_32	396.310	0.0015678	P_COM
J4_33	403.372	0.0009402	P_RES
J4_34	409.925	0.0015281	P_COM
J4_35	416.264	0.0013245	P_RES
J4_36	424.452	0.0011596	P_RES
J4_37	429.692	0.0025407	P_RES
J4_38	438.461	0.0018913	P_COM
J4_39	442.878	0.0022636	P_COM
J4_40	449.744	0.0036953	P_RES
J4_41	458.394	0.0014925	P_RES
J4_42	462.981	0.0007674	P_RES
J4_43	471.463	0.0028816	P_IND
J4_44	478.468	0.0029581	P_COM
J4_45	484.195	0.0017748	P_COM
J4_46	490.653	0.0026383	P_RES
J4_47	496.212	0.0017475	P_COM
J4_48	503.756	0.0025431	P_RES
J4_49	509.475	0.0019145	P_RES
J4_50	516.704	0.0016176	P_RES
J4_51	523.477	0.0013517	P_RES
J4_52	530.111	0.0005265	P_RES
J5_1	178.724	0.0022341	P_RES
J5_2	185.424	0.0009201	P_RES
J5_3	192.114	0.0009283	P_RES
J5_4	199.932	0.0023567	P_COM
J5_5	205.659	0.0011981	P_RES
J5_6	213.612	0.0017105	P_RES
J5_7	220.336	0.0009852	P_RES
J5_8	227.840	0.0006469	P_RES
J5_9	233.291	0.0019505	P_COM
J5_10	241.350	0.0010805	P_RES
J5_11	248.891	0.0015501	P_RES
J5_12	256.491	0.0026689	P_COM
J5_13	262.258	0.0015847	P_COM
J5_14	269.729	0.0019367	P_RES
J5_15	275.806	0.0032848	P_COM
J5_16	282.932	0.0008109	P_RES
J5_17	290.413	0.0008884	P_RES
J5_18	298.070	0.0009631	P_RES
J5_19	303.763	0.0013907	P_RES
J5_20	311.600	0.0005670	P_RES
J5_21	317.911	0.0010398	P_RES
J5_22	324.841	0.0018105	P_RES
J5_23	332.133	0.0024747	P_COM
J5_24	339.670	0.0009480	P_RES
J5_25	346.658	0.0016258	P_RES
J5_26	353.600	0.0013548	P_RES
J5_27	361.172	0.0014075	P_RES
J5_28	368.399	0.0015874	P_RES
J5_29	375.002	0.0014430	P_RES
J5_30	381.832	0.0004551	P_RES
J5_31	388.344	0.0010927	P_RES
J5_32	395.873	0.0005431	P_RES
J5_33	400.981	0.0027021	P_RES
J5_34	407.787	0.0057017	P_IND
J5_35	414.529	0.0009442	P_RES
J5_36	420.821	0.0019876	P_RES
J5_37	427.507	0.0068184	P_IND
J5_38	436.042	0.0013162	P_RES
J5_39	442.122	0.0017181	P_RES
J5_40	448.357	0.0011718	P_RES
J5_41	455.007	0.0013380	P_RES
J5_42	463.313	0.0010513	P_RES
J5_43	469.557	0.0023286	P_IND
J5_44	475.989	0.0015370	P_RES
J5_45	482.886	0.0011853	P_RES
J5_46	489.841	0.0013879	P_RES
J5_47	496.751	0.0024396	P_COM
J5_48	502.002	0.0016463	P_COM
J5_49	509.062	0.0015378	P_RES
J5_50	516.442	0.0018555	P_RES
J5_51	521.060	0.0018774	P_IND
J5_52	529.163	0.0025835	P_IND
J6_1	175.392	0.0007498	P_RES
J6_2	182.700	0.0014278	P_RES
J6_3	190.830	0.0020034	P_COM
J6_4	198.141	0.0017073	P_COM
J6_5	204.371	0.0018670	P_RES
J6_6	210.318	0.0053325	P_COM
J6_7	217.380	0.0010668	P_RES
J6_8	224.486	0.0014344	P_RES
J6_9	233.055	0.0009859	P_RES
J6_10	238.465	0.0011753	P_COM
J6_11	246.580	0.0005667	P_RES
J6_12	254.348	0.0046708	P_COM
J6_13	260.421	0.0015846	P_RES
J6_14	268.594	0.0020175	P_RES
J6_15	275.495	0.0027290	P_IND
J6_16	281.079	0.0009550	P_COM
J6_17	290.063	0.0011649	P_RES
J6_18	296.004	0.0015000	P_RES
J6_19	303.994	0.0012752	P_RES
J6_20	310.366	0.0014496	P_RES
J6_21	316.147	0.0013753	P_RES
J6_22	324.170	0.0024619	P_IND
J6_23	331.277	0.0024770	P_IND
J6_24	337.847	0.0009194	P_RES
J6_25	345.735	0.0018558	P_RES
J6_26	350.611	0.0010354	P_RES
J6_27	358.704	0.0014350	P_RES
J6_28	365.204	0.0009148	P_RES
J6_29	373.341	0.0009620	P_RES
J6_30	379.352	0.0009554	P_RES
J6_31	386.391	0.0024497	P_RES
J6_32	392.152	0.0016127	P_RES
J6_33	400.188	0.0009684	P_RES
J6_34	407.106	0.0021564	P_COM
J6_35	413.108	0.0033046	P_RES
J6_36	420.494	0.0017078	P_RES
J6_37	427.181	0.0023376	P_COM
J6_38	432.631	0.0030026	P_COM
J6_39	441.128	0.0014937	P_RES
J6_40	446.359	0.0028989	P_IND
J6_41	452.944	0.0026065	P_RES
J6_42	459.951	0.0032816	P_COM
J6_43	468.284	0.0007036	P_RES
J6_44	474.571	0.0009869	P_RES
J6_45	480.682	0.0029655	P_IND
J6_46	486.697	0.0009206	P_RES
J6_47	492.789	0.0005482	P_RES
J6_48	501.417	0.0034152	P_IND
J6_49	505.984	0.0021698	P_RES
J6_50	514.617	0.0009188	P_COM
J6_51	520.301	0.0019917	P_COM
J6_52	527.549	0.0031923	P_COM
J7_1	173.787	0.0017162	P_RES
J7_2	180.108	0.0020892	P_RES
J7_3	189.086	0.0021983	P_RES
J7_4	195.163	0.0006210	P_RES
J7_5	202.429	0.0015251	P_RES
J7_6	208.677	0.0032105	P_IND
J7_7	216.171	0.0002597	P_RES
J7_8	223.790	0.0005664	P_RES
J7_9	231.688	0.0012718	P_RES
J7_10	236.583	0.0024824	P_RES
J7_11	245.012	0.0014414	P_RES
J7_12	252.429	0.0028734	P_IND
J7_13	258.381	0.0023534	P_COM
J7_14	266.374	0.0010654	P_RES
J7_15	272.331	0.0011857	P_RES
J7_16	280.572	0.0006712	P_RES
J7_17	288.060	0.0012085	P_RES
J7_18	295.152	0.0010847	P_RES
J7_19	299.984	0.0028794	P_IND
J7_20	308.076	0.0042802	P_RES
J7_21	315.189	0.0012343	P_RES
J7_22	321.560	0.0014971	P_RES
J7_23	329.391	0.0049050	P_IND
J7_24	336.459	0.0020400	P_RES
J7_25	343.633	0.0007035	P_COM
J7_26	349.595	0.0017031	P_RES
J7_27	355.613	0.0006547	P_RES
J7_28	363.918	0.0019466	P_RES
J7_29	370.938	0.0005857	P_RES
J7_30	376.833	0.0011557	P_COM
J7_31	384.151	0.0021632	P_RES
J7_32	391.730	0.0008596	P_RES
J7_33	396.768	0.0032609	P_RES
J7_34	404.744	0.0010732	P_RES
J7_35	410.991	0.0008886	P_RES
J7_36	417.800	0.0007951	P_RES
J7_37	423.928	0.0030216	P_RES
J7_38	432.812	0.0003697	P_RES
J7_39	437.303	0.0019192	P_RES
J7_40	445.073	0.0019237	P_COM
J7_41	452.719	0.0011100	P_RES
J7_42	458.251	0.0016902	P_RES
J7_43	464.713	0.0014743	P_RES
J7_44	472.136	0.0010320	P_RES
J7_45	478.362	0.0012926	P_RES
J7_46	484.885	0.0021199	P_RES
J7_47	492.735	0.0007835	P_RES
J7_48	497.969	0.0040881	P_IND
J7_49	505.292	0.0016033	P_RES
J7_50	511.724	0.0022090	P_RES
J7_51	518.889	0.0025779	P_IND
J7_52	523.674	0.0011457	P_RES
J8_1	170.894	0.0032146	P_COM
J8_2	178.594	0.0009530	P_RES
J8_3	187.027	0.0021044	P_COM
J8_4	193.732	0.0014729	P_RES
J8_5	199.304	0.0036858	P_COM
J8_6	208.453	0.0011988	P_RES
J8_7	214.120	0.0008201	P_RES
J8_8	221.782	0.0004835	P_RES
J8_9	229.330	0.0007365	P_RES
J8_10	235.274	0.0018359	P_RES
J8_11	243.442	0.0011634	P_RES
J8_12	250.106	0.0004451	P_RES
J8_13	256.713	0.0005694	P_RES
J8_14	264.287	0.0035290	P_IND
J8_15	271.600	0.0019138	P_RES
J8_16	279.061	0.0023709	P_COM
J8_17	285.890	0.0015342	P_RES
J8_18	293.064	0.0013384	P_COM
J8_19	300.198	0.0010131	P_RES
J8_20	304.979	0.0040943	P_COM
J8_21	313.665	0.0005766	P_RES
J8_22	319.436	0.0010387	P_RES
J8_23	326.022	0.0015241	P_RES
J8_24	333.011	0.0018593	P_RES
J8_25	341.003	0.0024688	P_IND
J8_26	348.607	0.0023805	P_COM
J8_27	355.016	0.0009303	P_RES
J8_28	361.038	0.0043566	P_COM
J8_29	368.139	0.0008932	P_RES
J8_30	376.082	0.0013825	P_RES
J8_31	381.254	0.0011825	P_RES
J8_32	389.542	0.0016437	P_RES
J8_33	395.282	0.0012472	P_RES
J8_34	403.168	0.0011756	P_RES
J8_35	408.886	0.0017804	P_RES
J8_36	416.162	0.0051474	P_COM
J8_37	423.098	0.0015065	P_RES
J8_38	430.317	0.0020756	P_IND
J8_39	437.250	0.0008300	P_RES
J8_40	444.325	0.0013244	P_RES
J8_41	450.650	0.0014619	P_RES
J8_42	456.639	0.0006400	P_RES
J8_43	463.818	0.0010333	P_RES
J8_44	469.515	0.0032177	P_RES
J8_45	477.320	0.0010537	P_RES
J8_46	483.247	0.0005943	P_RES
J8_47	489.592	0.0011099	P_RES
J8_48	496.882	0.0003834	P_RES
J8_49	503.809	0.0017756	P_IND
J8_50	510.847	0.0012126	P_COM
J8_51	515.219	0.0018021	P_COM
J8_52	523.870	0.0025405	P_IND
J9_1	169.906	0.0014356	P_RES
J9_2	177.504	0.0018163	P_RES
J9_3	185.245	0.0017615	P_RES
J9_4	191.498	0.0032934	P_COM
J9_5	198.623	0.0018406	P_COM
J9_6	205.249	0.0013770	P_RES
J9_7	211.784	0.0007222	P_RES
J9_8	218.900	0.0005565	P_RES
J9_9	226.312	0.0010849	P_RES
J9_10	233.207	0.0006258	P_RES
J9_11	240.853	0.0011683	P_RES
J9_12	247.961	0.0011441	P_RES
J9_13	255.870	0.0008266	P_RES
J9_14	262.575	0.0023155	P_RES
J9_15	269.715	0.0019965	P_RES
J9_16	277.337	0.0017159	P_RES
J9_17	282.909	0.0022828	P_RES
J9_18	290.194	0.0022906	P_RES
J9_19	296.607	0.0010326	P_RES
J9_20	303.224	0.0016692	P_RES
J9_21	311.468	0.0016239	P_RES
J9_22	319.209	0.0010270	P_RES
J9_23	325.605	0.0007502	P_RES
J9_24	332.587	0.0015525	P_RES
J9_25	339.869	0.0004437	P_RES
J9_26	345.845	0.0008265	P_RES
J9_27	351.722	0.0017098	P_COM
J9_28	359.631	0.0015974	P_RES
J9_29	366.267	0.0021251	P_COM
J9_30	373.654	0.0017100	P_RES
J9_31	379.505	0.0016502	P_RES
J9_32	388.099	0.0014372	P_IND
J9_33	393.180	0.0008524	P_RES
J9_34	400.468	0.0010620	P_RES
J9_35	407.203	0.0024645	P_RES
J9_36	414.161	0.0025012	P_RES
J9_37	421.054	0.0015044	P_COM
J9_38	427.989	0.0007936	P_RES
J9_39	434.427	0.0006458	P_RES
J9_40	440.792	0.0021592	P_RES
J9_41	448.672	0.0030381	P_IND
J9_42	454.860	0.0007067	P_RES
J9_43	461.454	0.0009326	P_RES
J9_44	468.714	0.0035387	P_IND
J9_45	473.731	0.0011224	P_RES
J9_46	481.482	0.0003603	P_RES
J9_47	488.436	0.0012327	P_COM
J9_48	495.243	0.0055735	P_IND
J9_49	500.764	0.0040886	P_IND
J9_50	507.840	0.0023223	P_RES
J9_51	515.258	0.0015042	P_RES
J9_52	521.558	0.0011366	P_COM
J10_1	167.258	0.0019160	P_RES
J10_2	175.001	0.0016921	P_COM
J10_3	183.006	0.0005608	P_RES
J10_4	188.463	0.0004479	P_RES
J10_5	196.838	0.0021905	P_IND
J10_6	203.654	0.0015312	P_RES
J10_7	210.535	0.0021035	P_RES
J10_8	218.180	0.0020705	P_IND
J10_9	225.178	0.0007878	P_RES
J10_10	231.892	0.0019401	P_RES
J10_11	238.098	0.0023940	P_RES
J10_12	245.633	0.0010728	P_RES
J10_13	253.661	0.0026468	P_IND
J10_14	261.069	0.0018383	P_RES
J10_15	268.118	0.0014713	P_RES
J10_16	274.777	0.0023021	P_RES
J10_17	280.323	0.0032232	P_COM
J10_18	289.269	0.0011216	P_RES
J10_19	295.827	0.0035254	P_COM
J10_20	302.220	0.0018363	P_RES
J10_21	310.303	0.0007947	P_RES
J10_22	316.756	0.0005951	P_RES
J10_23	322.915	0.0011042	P_RES
J10_24	331.083	0.0009936	P_RES
J10_25	336.309	0.0030464	P_RES
J10_26	344.297	0.0014691	P_RES
J10_27	351.768	0.0018608	P_COM
J10_28	358.408	0.0016647	P_RES
J10_29	364.166	0.0021444	P_RES
J10_30	370.498	0.0008011	P_RES
J10_31	379.407	0.0018084	P_RES
J10_32	385.031	0.0025595	P_COM
J10_33	391.737	0.0020882	P_RES
J10_34	399.931	0.0011083	P_RES
J10_35	406.348	0.0007807	P_RES
J10_36	413.404	0.0013618	P_RES
J10_37	418.866	0.0020579	P_RES
J10_38	425.207	0.0016043	P_RES
J10_39	433.250	0.0008117	P_RES
J10_40	440.396	0.0016285	P_RES
J10_41	446.502	0.0008659	P_RES
J10_42	451.734	0.0012127	P_COM
J10_43	459.386	0.0006794	P_RES
J10_44	466.094	0.0060744	P_COM
J10_45	473.790	0.0009884	P_COM
J10_46	479.945	0.0011492	P_RES
J10_47	487.253	0.0013509	P_RES
J10_48	491.743	0.0016351	P_RES
J10_49	499.229	0.0018666	P_RES
J10_50	505.513	0.0007564	P_RES
J10_51	512.873	0.0007089	P_RES
J10_52	519.887	0.0019647	P_RES
J11_1	166.277	0.0018441	P_COM
J11_2	174.039	0.0009169	P_RES
J11_3	180.905	0.0022195	P_RES
J11_4	188.212	0.0017289	P_RES
J11_5	193.708	0.0015366	P_COM
J11_6	202.356	0.0018491	P_COM
J11_7	209.135	0.0015126	P_RES
J11_8	216.502	0.0014190	P_RES
J11_9	223.885	0.0082072	P_IND
J11_10	229.570	0.0014454	P_RES
J11_11	237.780	0.0019551	P_RES
J11_12	244.375	0.0019812	P_RES
J11_13	252.048	0.0021381	P_COM
J11_14	259.418	0.0015338	P_COM
J11_15	264.267	0.0023355	P_RES
J11_16	272.280	0.0014103	P_RES
J11_17	278.245	0.0036716	P_IND
J11_18	285.234	0.0015701	P_COM
J11_19	292.302	0.0005923	P_RES
J11_20	301.376	0.0013728	P_RES
J11_21	307.147	0.0014598	P_RES
J11_22	313.276	0.0016623	P_RES
J11_23	320.594	0.0028193	P_RES
J11_24	327.552	0.0005046	P_RES
J11_25	335.181	0.0009489	P_RES
J11_26	341.954	0.0015288	P_RES
J11_27	349.268	0.0035660	P_RES
J11_28	356.314	0.0020312	P_COM
J11_29	361.736	0.0008405	P_RES
J11_30	370.188	0.0006309	P_RES
J11_31	377.533	0.0010007	P_RES
J11_32	384.409	0.0012678	P_RES
J11_33	389.425	0.0011626	P_RES
J11_34	397.569	0.0011019	P_RES
J11_35	402.998	0.0025944	P_COM
J11_36	410.403	0.0021982	P_RES
J11_37	418.089	0.0017710	P_COM
J11_38	423.083	0.0016931	P_RES
J11_39	430.199	0.0014806	P_RES
J11_40	437.463	0.0021350	P_RES
J11_41	444.693	0.0028096	P_IND
J11_42	450.982	0.0011241	P_RES
J11_43	457.537	0.0031452	P_IND
J11_44	464.087	0.0007629	P_RES
J11_45	471.958	0.0029933	P_COM
J11_46	477.480	0.0004591	P_RES
J11_47	483.793	0.0017431	P_COM
J11_48	490.125	0.0006566	P_RES
J11_49	497.851	0.0033371	P_IND
J11_50	504.123	0.0012042	P_COM
J11_51	510.666	0.0005772	P_RES
J11_52	516.440	0.0018466	P_RES
J12_1	163.352	0.0018666	P_RES
J12_2	171.194	0.0053894	P_IND
J12_3	177.821	0.0011084	P_RES
J12_4	184.928	0.0007849	P_RES
J12_5	191.578	0.0012118	P_RES
J12_6	199.018	0.0011556	P_RES
J12_7	206.489	0.0016180	P_COM
J12_8	213.462	0.0020986	P_COM
J12_9	220.526	0.0008348	P_RES
J12_10	228.838	0.0019751	P_RES
J12_11	234.087	0.0010081	P_RES
J12_12	241.517	0.0022984	P_IND
J12_13	250.125	0.0022646	P_COM
J12_14	256.391	0.0043910	P_COM
J12_15	264.442	0.0017733	P_RES
J12_16	270.965	0.0022561	P_COM
J12_17	278.515	0.0026157	P_RES
J12_18	284.913	0.0011903	P_COM
J12_19	291.891	0.0025336	P_IND
J12_20	298.101	0.0007225	P_RES
J12_21	305.343	0.0010537	P_RES
J12_22	312.420	0.0006934	P_COM
J12_23	319.527	0.0020051	P_RES
J12_24	326.655	0.0019118	P_RES
J12_25	332.966	0.0019515	P_COM
J12_26	339.476	0.0011838	P_RES
J12_27	347.173	0.0043627	P_IND
J12_28	354.436	0.0006291	P_RES
J12_29	361.123	0.0010237	P_COM
J12_30	368.227	0.0014609	P_RES
J12_31	375.119	0.0027987	P_COM
J12_32	382.569	0.0019727	P_IND
J12_33	387.462	0.0020929	P_RES
J12_34	395.825	0.0011305	P_COM
J12_35	400.741	0.0024799	P_COM
J12_36	409.772	0.0030038	P_IND
J12_37	414.907	0.0030990	P_RES
J12_38	423.352	0.0008435	P_RES
J12_39	428.850	0.0012986	P_RES
J12_40	436.776	0.0011427	P_COM
J12_41	441.381	0.0035512	P_COM
J12_42	449.845	0.0006636	P_RES
J12_43	454.560	0.0015296	P_RES
J12_44	463.565	0.0012557	P_RES
J12_45	467.952	0.0011332	P_RES
J12_46	475.972	0.0043034	P_COM
J12_47	482.316	0.0010551	P_RES
J12_48	488.956	0.0023498	P_RES
J12_49	494.916	0.0010886	P_COM
J12_50	502.884	0.0011268	P_RES
J12_51	507.582	0.0017903	P_RES
J12_52	516.334	0.0011586	P_RES
J13_1	161.352	0.0010044	P_RES
J13_2	168.636	0.0014209	P_COM
J13_3	175.497	0.0020348	P_COM
J13_4	182.971	0.0012258	P_RES
J13_5	191.943	0.0027784	P_RES
J13_6	199.106	0.0038293	P_IND
J13_7	205.274	0.0010255	P_RES
J13_8	213.208	0.0017347	P_COM
J13_9	218.431	0.0035973	P_RES
J13_10	227.382	0.0030914	P_COM
J13_11	233.574	0.0029678	P_COM
J13_12	241.328	0.0033204	P_COM
J13_13	248.307	0.0012479	P_RES
J13_14	254.531	0.0011602	P_RES
J13_15	262.280	0.0010433	P_RES
J13_16	268.863	0.0012115	P_RES
J13_17	276.350	0.0028673	P_COM
J13_18	281.872	0.0031487	P_COM
J13_19	290.729	0.0017738	P_RES
J13_20	297.096	0.0026479	P_RES
J13_21	304.189	0.0022454	P_RES
J13_22	309.285	0.0021579	P_IND
J13_23	317.724	0.0032119	P_COM
J13_24	323.663	0.0016646	P_RES
J13_25	330.928	0.0018893	P_RES
J13_26	338.758	0.0026151	P_IND
J13_27	345.679	0.0009558	P_RES
J13_28	352.361	0.0010561	P_RES
J13_29	359.599	0.0010467	P_RES
J13_30	365.647	0.0009692	P_COM
J13_31	372.376	0.0015942	P_COM
J13_32	379.574	0.0031566	P_IND
J13_33	386.110	0.0035133	P_IND
J13_34	394.201	0.0007065	P_RES
J13_35	400.450	0.0028716	P_COM
J13_36	407.610	0.0017319	P_COM
J13_37	413.739	0.0011793	P_RES
J13_38	420.660	0.0018182	P_RES
J13_39	426.028	0.0018997	P_RES
J13_40	434.635	0.0010952	P_RES
J13_41	440.587	0.0008855	P_RES
J13_42	446.446	0.0015687	P_RES
J13_43	452.692	0.0013606	P_RES
J13_44	460.657	0.0016165	P_RES
J13_45	467.142	0.0012659	P_RES
J13_46	473.291	0.0010489	P_RES
J13_47	480.812	0.0007098	P_RES
J13_48	487.682	0.0016879	P_RES
J13_49	494.008	0.0010203	P_RES
J13_50	500.617	0.0018095	P_RES
J13_51	505.504	0.0010455	P_RES
J13_52	514.138	0.0015660	P_COM
J14_1	160.153	0.0020030	P_RES
J14_2	168.264	0.0021900	P_COM
J14_3	174.420	0.0013744	P_RES
J14_4	180.730	0.0015617	P_RES
J14_5	187.984	0.0016808	P_RES
J14_6	195.353	0.0023886	P_IND
J14_7	204.028	0.0023679	P_COM
J14_8	210.564	0.0026778	P_RES
J14_9	216.084	0.0012250	P_RES
J14_10	224.567	0.0009455	P_COM
J14_11	232.372	0.0043543	P_IND
J14_12	238.560	0.0009538	P_RES
J14_13	244.792	0.0006934	P_RES
J14_14	252.502	0.0020322	P_RES
J14_15	259.683	0.0010382	P_RES
J14_16	267.363	0.0010331	P_COM
J14_17	274.196	0.0010321	P_RES
J14_18	280.510	0.0012635	P_RES
J14_19	287.519	0.0011392	P_RES
J14_20	293.982	0.0007002	P_RES
J14_21	300.846	0.0022967	P_COM
J14_22	307.882	0.0013226	P_RES
J14_23	316.205	0.0030008	P_IND
J14_24	322.416	0.0022375	P_COM
J14_25	329.202	0.0006951	P_RES
J14_26	336.823	0.0041202	P_COM
J14_27	342.125	0.0005981	P_RES
J14_28	349.416	0.0029681	P_COM
J14_29	357.134	0.0012519	P_RES
J14_30	364.088	0.0027152	P_RES
J14_31	371.367	0.0008471	P_RES
J14_32	378.254	0.0032920	P_IND
J14_33	383.163	0.0013652	P_COM
J14_34	392.194	0.0019148	P_RES
J14_35	397.301	0.0013581	P_RES
J14_36	405.748	0.0024710	P_IND
J14_37	412.087	0.0024345	P_RES
J14_38	418.306	0.0039151	P_IND
J14_39	426.055	0.0008163	P_RES
J14_40	430.991	0.0025876	P_COM
J14_41	438.154	0.0008101	P_RES
J14_42	445.232	0.0022789	P_COM
J14_43	450.948	0.0050012	P_IND
J14_44	458.161	0.0011800	P_RES
J14_45	464.797	0.0014367	P_RES
J14_46	471.538	0.0009754	P_RES
J14_47	479.233	0.0018266	P_RES
J14_48	484.700	0.0032893	P_COM
J14_49	490.493	0.0005674	P_RES
J14_50	497.465	0.0010059	P_RES
J14_51	504.068	0.0008885	P_RES
J14_52	511.282	0.0006330	P_RES
J15_1	157.610	0.0016732	P_RES
J15_2	166.826	0.0007889	P_RES
J15_3	172.986	0.0029934	P_COM
J15_4	178.798	0.0017212	P_RES
J15_5	187.256	0.0013120	P_RES
J15_6	192.994	0.0011022	P_RES
J15_7	200.286	0.0011509	P_RES
J15_8	207.446	0.0014930	P_COM
J15_9	214.157	0.0009890	P_RES
J15_10	222.827	0.0011387	P_RES
J15_11	228.411	0.0020974	P_RES
J15_12	236.630	0.0017593	P_RES
J15_13	243.964	0.0011343	P_RES
J15_14	250.068	0.0009484	P_RES
J15_15	258.403	0.0011147	P_RES
J15_16	264.548	0.0011667	P_RES
J15_17	272.220	0.0023491	P_COM
J15_18	279.528	0.0004584	P_RES
J15_19	286.412	0.0016528	P_IND
J15_20	292.362	0.0018769	P_RES
J15_21	298.748	0.0009157	P_RES
J15_22	305.740	0.0013916	P_COM
J15_23	312.946	0.0008292	P_RES
J15_24	321.399	0.0012365	P_RES
J15_25	328.007	0.0022395	P_COM
J15_26	334.093	0.0007628	P_RES
J15_27	341.026	0.0008943	P_RES
J15_28	349.233	0.0020569	P_RES
J15_29	354.836	0.0023510	P_COM
J15_30	361.668	0.0007985	P_RES
J15_31	369.396	0.0018941	P_RES
J15_32	374.691	0.0007624	P_RES
J15_33	381.700	0.0010083	P_RES
J15_34	388.239	0.0018249	P_RES
J15_35	397.160	0.0056181	P_IND
J15_36	402.364	0.0016591	P_RES
J15_37	410.571	0.0022336	P_COM
J15_38	416.581	0.0035615	P_IND
J15_39	423.096	0.0037458	P_COM
J15_40	430.009	0.0008886	P_RES
J15_41	437.113	0.0019857	P_COM
J15_42	443.004	0.0009158	P_RES
J15_43	449.457	0.0018516	P_COM
J15_44	457.694	0.0018628	P_COM
J15_45	462.358	0.0017140	P_COM
J15_46	468.641	0.0021665	P_IND
J15_47	475.608	0.0011342	P_COM
J15_48	483.901	0.0044058	P_COM
J15_49	489.421	0.0017889	P_COM
J15_50	497.399	0.0013449	P_RES
J15_51	502.081	0.0009225	P_RES
J15_52	508.762	0.0005366	P_RES
J16_1	156.157	0.0025021	P_COM
J16_2	163.605	0.0018587	P_COM
J16_3	171.704	0.0010658	P_RES
J16_4	178.447	0.0012819	P_RES
J16_5	184.768	0.0017544	P_RES
J16_6	192.910	0.0019101	P_RES
J16_7	198.228	0.0008992	P_RES
J16_8	204.985	0.0012516	P_RES
J16_9	214.405	0.0027802	P_COM
J16_10	220.618	0.0028240	P_RES
J16_11	228.317	0.0015905	P_RES
J16_12	233.894	0.0008825	P_RES
J16_13	240.599	0.0028731	P_COM
J16_14	249.532	0.0017377	P_COM
J16_15	255.144	0.0028265	P_RES
J16_16	263.270	0.0019222	P_RES
J16_17	268.537	0.0013122	P_RES
J16_18	276.276	0.0002578	P_RES
J16_19	283.772	0.0018687	P_IND
J16_20	291.091	0.0020237	P_RES
J16_21	297.763	0.0011799	P_RES
J16_22	304.914	0.0014769	P_RES
J16_23	312.357	0.0025778	P_RES
J16_24	318.152	0.0019841	P_COM
J16_25	324.859	0.0013447	P_RES
J16_26	332.645	0.0016197	P_RES
J16_27	339.637	0.0018742	P_COM
J16_28	345.728	0.0008066	P_RES
J16_29	353.002	0.0015578	P_RES
J16_30	358.959	0.0007964	P_RES
J16_31	367.070	0.0024752	P_RES
J16_32	374.150	0.0012031	P_RES
J16_33	381.308	0.0005120	P_RES
J16_34	386.054	0.0014899	P_RES
J16_35	394.619	0.0012943	P_COM
J16_36	400.454	0.0006035	P_RES
J16_37	408.437	0.0017577	P_COM
J16_38	414.450	0.0008203	P_RES
J16_39	422.103	0.0013756	P_RES
J16_40	428.662	0.0009855	P_RES
J16_41	434.398	0.0048844	P_RES
J16_42	441.754	0.0025922	P_IND
J16_43	447.125	0.0017824	P_RES
J16_44	455.578	0.0016576	P_RES
J16_45	461.093	0.0020434	P_RES
J16_46	468.996	0.0013693	P_RES
J16_47	473.699	0.0014567	P_RES
J16_48	481.144	0.0024670	P_RES
J16_49	487.109	0.0011580	P_RES
J16_50	494.545	0.0020850	P_COM
J16_51	499.956	0.0039484	P_COM
J16_52	506.764	0.0030251	P_IND
J17_1	153.652	0.0013271	P_RES
J17_2	162.759	0.0023902	P_COM
J17_3	169.906	0.0030556	P_IND
J17_4	176.312	0.0025817	P_IND
J17_5	183.413	0.0011239	P_RES
J17_6	190.388	0.0018683	P_RES
J17_7	197.746	0.0010393	P_RES
J17_8	203.695	0.0020144	P_RES
J17_9	212.264	0.0014306	P_RES
J17_10	218.493	0.0014581	P_RES
J17_11	224.761	0.0018119	P_COM
J17_12	232.237	0.0011091	P_RES
J17_13	240.680	0.0008010	P_RES
J17_14	246.061	0.0027346	P_COM
J17_15	252.450	0.0015458	P_RES
J17_16	260.080	0.0008826	P_RES
J17_17	267.404	0.0035797	P_IND
J17_18	273.834	0.0011767	P_IND
J17_19	281.449	0.0015429	P_RES
J17_20	289.413	0.0018843	P_RES
J17_21	296.311	0.0023670	P_RES
J17_22	303.728	0.0015460	P_RES
J17_23	308.952	0.0012112	P_RES
J17_24	317.607	0.0028882	P_IND
J17_25	323.282	0.0063463	P_COM
J17_26	329.296	0.0026992	P_IND
J17_27	336.598	0.0011113	P_RES
J17_28	343.859	0.0016473	P_RES
J17_29	351.712	0.0019045	P_RES
J17_30	358.781	0.0048066	P_IND
J17_31	364.050	0.0026289	P_IND
J17_32	371.617	0.0015015	P_RES
J17_33	377.804	0.0006267	P_RES
J17_34	386.110	0.0035243	P_IND
J17_35	393.052	0.0040122	P_COM
J17_36	398.499	0.0011504	P_RES
J17_37	405.562	0.0010899	P_RES
J17_38	411.152	0.0018770	P_COM
J17_39	417.984	0.0029243	P_COM
J17_40	424.955	0.0017678	P_RES
J17_41	432.972	0.0012691	P_RES
J17_42	439.317	0.0007162	P_RES
J17_43	444.877	0.0010554	P_RES
J17_44	452.017	0.0022755	P_IND
J17_45	459.588	0.0029938	P_RES
J17_46	465.427	0.0036854	P_RES
J17_47	473.646	0.0026833	P_RES
J17_48	478.004	0.0018178	P_COM
J17_49	486.121	0.0006891	P_RES
J17_50	491.526	0.0028044	P_IND
J17_51	498.130	0.0021069	P_RES
J17_52	505.973	0.0013539	P_COM
J18_1	153.574	0.0034008	P_COM
J18_2	160.079	0.0048858	P_IND
J18_3	167.733	0.0013501	P_RES
J18_4	173.751	0.0035350	P_IND
J18_5	179.851	0.0018788	P_RES
J18_6	188.966	0.0009810	P_RES
J18_7	195.555	0.0026024	P_RES
J18_8	202.503	0.0024512	P_RES
J18_9	208.574	0.0011931	P_RES
J18_10	215.744	0.0006993	P_RES
J18_11	223.580	0.0007255	P_RES
J18_12	229.898	0.0028759	P_RES
J18_13	236.626	0.0026478	P_IND
J18_14	244.503	0.0022717	P_IND
J18_15	251.253	0.0044960	P_RES
J18_16	259.790	0.0011737	P_RES
J18_17	266.245	0.0007417	P_RES
J18_18	273.338	0.0012435	P_RES
J18_19	279.225	0.0006918	P_RES
J18_20	286.451	0.0024963	P_RES
J18_21	293.180	0.0016666	P_RES
J18_22	300.770	0.0040465	P_COM
J18_23	306.562	0.0021022	P_RES
J18_24	315.533	0.0030749	P_COM
J18_25	321.913	0.0019553	P_IND
J18_26	328.075	0.0033476	P_RES
J18_27	336.263	0.0029436	P_COM
J18_28	343.133	0.0008151	P_RES
J18_29	349.299	0.0016502	P_RES
J18_30	356.451	0.0011565	P_RES
J18_31	361.572	0.0006826	P_RES
J18_32	369.784	0.0018466	P_RES
J18_33	375.953	0.0023383	P_COM
J18_34	382.438	0.0009260	P_RES
J18_35	390.539	0.0005999	P_RES
J18_36	397.669	0.0009343	P_RES
J18_37	404.302	0.0010815	P_RES
J18_38	410.642	0.0020890	P_RES
J18_39	418.020	0.0023070	P_RES
J18_40	423.225	0.0005676	P_RES
J18_41	430.072	0.0013170	P_RES
J18_42	437.755	0.0013036	P_RES
J18_43	443.068	0.0032349	P_IND
J18_44	450.073	0.0013683	P_RES
J18_45	456.366	0.0014469	P_RES
J18_46	464.561	0.0015109	P_RES
J18_47	470.765	0.0015917	P_COM
J18_48	477.940	0.0016297	P_RES
J18_49	482.814	0.0010387	P_RES
J18_50	489.877	0.0028252	P_RES
J18_51	497.899	0.0005419	P_RES
J18_52	504.047	0.0022644	P_COM
J19_1	149.937	0.0021321	P_IND
J19_2	158.121	0.0015516	P_RES
J19_3	164.291	0.0006067	P_RES
J19_4	172.818	0.0018131	P_RES
J19_5	178.798	0.0018941	P_COM
J19_6	185.721	0.0011954	P_RES
J19_7	193.922	0.0032245	P_IND
J19_8	200.642	0.0011298	P_RES
J19_9	207.919	0.0024278	P_RES
J19_10	215.332	0.0023024	P_COM
J19_11	221.694	0.0013645	P_RES
J19_12	228.883	0.0007172	P_RES
J19_13	235.451	0.0023703	P_RES
J19_14	242.954	0.0006719	P_RES
J19_15	250.246	0.0021974	P_IND
J19_16	255.889	0.0006570	P_RES
J19_17	263.971	0.0019729	P_COM
J19_18	269.600	0.0007709	P_RES
J19_19	278.216	0.0015536	P_RES
J19_20	283.491	0.0020269	P_RES
J19_21	291.741	0.0027719	P_RES
J19_22	298.347	0.0015993	P_COM
J19_23	306.502	0.0009964	P_RES
J19_24	312.298	0.0029996	P_COM
J19_25	318.514	0.0009381	P_RES
J19_26	326.043	0.0006538	P_RES
J19_27	333.285	0.0025179	P_COM
J19_28	340.279	0.0037092	P_RES
J19_29	347.920	0.0011443	P_RES
J19_30	354.792	0.0009220	P_RES
J19_31	360.452	0.0006932	P_RES
J19_32	367.588	0.0008596	P_RES
J19_33	375.533	0.0035292	P_IND
J19_34	381.311	0.0033838	P_IND
J19_35	388.280	0.0010215	P_RES
J19_36	395.843	0.0032965	P_COM
J19_37	400.473	0.0010033	P_RES
J19_38	408.903	0.0027478	P_COM
J19_39	415.585	0.0020101	P_RES
J19_40	422.049	0.0005092	P_RES
J19_41	428.165	0.0027236	P_IND
J19_42	435.573	0.0019517	P_COM
J19_43	441.238	0.0012569	P_RES
J19_44	447.859	0.0035537	P_IND
J19_45	454.909	0.0034871	P_IND
J19_46	461.104	0.0007298	P_RES
J19_47	467.519	0.0012417	P_RES
J19_48	474.412	0.0010219	P_COM
J19_49	480.805	0.0016836	P_RES
J19_50	488.000	0.0015990	P_RES
J19_51	494.419	0.0010126	P_RES
J19_52	502.419	0.0013264	P_RES
J20_1	148.660	0.0011149	P_RES
J20_2	156.143	0.0012995	P_RES
J20_3	161.622	0.0011724	P_RES
J20_4	169.399	0.0026416	P_IND
J20_5	177.581	0.0028427	P_IND
J20_6	183.837	0.0007759	P_RES
J20_7	191.966	0.0014333	P_COM
J20_8	199.250	0.0020400	P_RES
J20_9	205.786	0.0024310	P_RES
J20_10	211.284	0.0005018	P_RES
J20_11	219.158	0.0007302	P_RES
J20_12	225.755	0.0021059	P_COM
J20_13	233.384	0.0028767	P_COM
J20_14	239.994	0.0011069	P_RES
J20_15	247.440	0.0026212	P_RES
J20_16	254.833	0.0014173	P_RES
J20_17	262.436	0.0021871	P_RES
J20_18	268.785	0.0032042	P_IND
J20_19	275.505	0.0026468	P_RES
J20_20	283.063	0.0012529	P_RES
J20_21	289.225	0.0024921	P_COM
J20_22	297.410	0.0015188	P_RES
J20_23	304.667	0.0013709	P_RES
J20_24	311.569	0.0013291	P_RES
J20_25	318.309	0.0026885	P_COM
J20_26	323.913	0.0037866	P_IND
J20_27	330.429	0.0020471	P_IND
J20_28	337.706	0.0020177	P_COM
J20_29	344.471	0.0012276	P_RES
J20_30	351.705	0.0047107	P_IND
J20_31	359.774	0.0017367	P_RES
J20_32	364.783	0.0018681	P_RES
J20_33	373.483	0.0033184	P_COM
J20_34	378.927	0.0016216	P_RES
J20_35	384.925	0.0015132	P_RES
J20_36	392.086	0.0032330	P_RES
J20_37	400.727	0.0017065	P_COM
J20_38	405.547	0.0011319	P_RES
J20_39	412.385	0.0006267	P_RES
J20_40	419.650	0.0010221	P_COM
J20_41	426.905	0.0012887	P_RES
J20_42	433.820	0.0011387	P_RES
J20_43	441.064	0.0015735	P_RES
J20_44	446.754	0.0021313	P_COM
J20_45	453.118	0.0010690	P_RES
J20_46	460.698	0.0005696	P_RES
J20_47	467.006	0.0020155	P_COM
J20_48	472.575	0.0007220	P_RES
J20_49	479.199	0.0031739	P_RES
J20_50	485.689	0.0011861	P_RES
J20_51	493.348	0.0020963	P_RES
J20_52	499.914	0.0007647	P_RES
J21_1	145.911	0.0011604	P_RES
J21_2	154.793	0.0013449	P_RES
J21_3	159.784	0.0012935	P_RES
J21_4	167.399	0.0017182	P_RES
J21_5	173.905	0.0006679	P_RES
J21_6	181.583	0.0004639	P_RES
J21_7	188.575	0.0006400	P_RES
J21_8	197.109	0.0021529	P_COM
J21_9	202.094	0.0008026	P_RES
J21_10	209.143	0.0006901	P_RES
J21_11	217.353	0.0016367	P_RES
J21_12	225.478	0.0040999	P_IND
J21_13	231.990	0.0022031	P_RES
J21_14	237.551	0.0028512	P_RES
J21_15	244.544	0.0008689	P_RES
J21_16	253.437	0.0025088	P_RES
J21_17	258.497	0.0010300	P_RES
J21_18	266.553	0.0006285	P_RES
J21_19	274.126	0.0018467	P_RES
J21_20	280.956	0.0014621	P_IND
J21_21	286.873	0.0018528	P_RES
J21_22	295.536	0.0021749	P_RES
J21_23	301.578	0.0009158	P_RES
J21_24	308.422	0.0014710	P_RES
J21_25	315.627	0.0025259	P_IND
J21_26	323.038	0.0030311	P_COM
J21_27	328.725	0.0016145	P_COM
J21_28	336.675	0.0012209	P_RES
J21_29	343.790	0.0031916	P_COM
J21_30	348.872	0.0009172	P_RES
J21_31	356.133	0.0011212	P_RES
J21_32	364.659	0.0009445	P_RES
J21_33	371.391	0.0019124	P_RES
J21_34	377.200	0.0019804	P_COM
J21_35	382.909	0.0029506	P_IND
J21_36	391.661	0.0014530	P_RES
J21_37	397.370	0.0022079	P_RES
J21_38	404.272	0.0008169	P_RES
J21_39	410.577	0.0016577	P_RES
J21_40	417.034	0.0008221	P_RES
J21_41	423.741	0.0007462	P_RES
J21_42	430.871	0.0011908	P_RES
J21_43	436.836	0.0016038	P_COM
J21_44	445.196	0.0009032	P_RES
J21_45	451.549	0.0006613	P_RES
J21_46	457.339	0.0036391	P_IND
J21_47	464.215	0.0010656	P_RES
J21_48	470.202	0.0024808	P_COM
J21_49	476.533	0.0012913	P_RES
J21_50	483.719	0.0006833	P_RES
J21_51	489.941	0.0015835	P_RES
J21_52	497.049	0.0004478	P_RES
J22_1	144.375	0.0009403	P_RES
J22_2	151.955	0.0035062	P_COM
J22_3	159.679	0.0011982	P_RES
J22_4	165.950	0.0012094	P_RES
J22_5	173.856	0.0010802	P_RES
J22_6	180.065	0.0009563	P_RES
J22_7	186.745	0.0007170	P_RES
J22_8	194.144	0.0024861	P_RES
J22_9	202.277	0.0007186	P_RES
J22_10	208.547	0.0009000	P_RES
J22_11	215.550	0.0008195	P_RES
J22_12	223.134	0.0017910	P_RES
J22_13	230.297	0.0021020	P_COM
J22_14	235.750	0.0028786	P_RES
J22_15	243.231	0.0023122	P_RES
J22_16	250.820	0.0019851	P_RES
J22_17	256.438	0.0010989	P_RES
J22_18	263.835	0.0042259	P_COM
J22_19	270.698	0.0016767	P_COM
J22_20	278.031	0.0010127	P_RES
J22_21	286.237	0.0012044	P_RES
J22_22	293.129	0.0007362	P_RES
J22_23	298.608	0.0006358	P_RES
J22_24	306.177	0.0006616	P_RES
J22_25	314.234	0.0030205	P_RES
J22_26	319.599	0.0023131	P_RES
J22_27	327.512	0.0012060	P_RES
J22_28	335.037	0.0008249	P_RES
J22_29	341.435	0.0008685	P_RES
J22_30	348.889	0.0017220	P_COM
J22_31	354.532	0.0007261	P_RES
J22_32	361.058	0.0020465	P_COM
J22_33	368.456	0.0016873	P_COM
J22_34	375.578	0.0011399	P_RES
J22_35	381.676	0.0029254	P_COM
J22_36	389.693	0.0018616	P_RES
J22_37	394.486	0.0010203	P_RES
J22_38	402.391	0.0018681	P_RES
J22_39	409.488	0.0008733	P_RES
J22_40	416.668	0.0014080	P_RES
J22_41	422.280	0.0014838	P_RES
J22_42	429.853	0.0004245	P_RES
J22_43	435.783	0.0012319	P_RES
J22_44	442.161	0.0041505	P_COM
J22_45	449.815	0.0042509	P_RES
J22_46	454.950	0.0008383	P_RES
J22_47	461.571	0.0007577	P_RES
J22_48	469.934	0.0020213	P_RES
J22_49	476.377	0.0013321	P_RES
J22_50	482.407	0.0029972	P_RES
J22_51	488.093	0.0013761	P_RES
J22_52	494.505	0.0017735	P_RES
J23_1	143.058	0.0017519	P_RES
J23_2	149.067	0.0014510	P_RES
J23_3	156.283	0.0011369	P_RES
J23_4	163.827	0.0011209	P_RES
J23_5	171.969	0.0011199	P_RES
J23_6	177.465	0.0009488	P_RES
J23_7	184.373	0.0007814	P_RES
J23_8	191.617	0.0023982	P_RES
J23_9	200.138	0.0016169	P_RES
J23_10	205.702	0.0036038	P_COM
J23_11	212.738	0.0025995	P_RES
J23_12	220.367	0.0016558	P_RES
J23_13	227.515	0.0021471	P_RES
J23_14	234.599	0.0027149	P_RES
J23_15	241.491	0.0016539	P_RES
J23_16	249.282	0.0017847	P_RES
J23_17	254.389	0.0019732	P_IND
J23_18	262.050	0.0037729	P_IND
J23_19	269.550	0.0025763	P_RES
J23_20	276.436	0.0005570	P_RES
J23_21	284.009	0.0013107	P_RES
J23_22	290.153	0.0026527	P_IND
J23_23	298.273	0.0005615	P_RES
J23_24	305.499	0.0013647	P_RES
J23_25	311.501	0.0024346	P_IND
J23_26	318.254	0.0018107	P_RES
J23_27	326.251	0.0008155	P_RES
J23_28	331.173	0.0011830	P_RES
J23_29	338.994	0.0004697	P_RES
J23_30	346.565	0.0014871	P_RES
J23_31	352.326	0.0037012	P_COM
J23_32	359.709	0.0045098	P_IND
J23_33	365.823	0.0012334	P_RES
J23_34	372.904	0.0033463	P_RES
J23_35	379.224	0.0012369	P_RES
J23_36	387.439	0.0021204	P_COM
J23_37	393.838	0.0014772	P_RES
J23_38	399.792	0.0010165	P_RES
J23_39	405.843	0.0016219	P_RES
J23_40	413.497	0.0008938	P_RES
J23_41	420.603	0.0014006	P_RES
J23_42	427.262	0.0015239	P_COM
J23_43	433.302	0.0016197	P_COM
J23_44	441.325	0.0010342	P_RES
J23_45	447.556	0.0021347	P_IND
J23_46	454.599	0.0015348	P_RES
J23_47	460.214	0.0035960	P_COM
J23_48	468.163	0.0034228	P_IND
J23_49	472.409	0.0018629	P_COM
J23_50	480.945	0.0023862	P_IND
J23_51	487.054	0.0015876	P_COM
J23_52	492.117	0.0019744	P_RES
J24_1	140.720	0.0013372	P_RES
J24_2	147.573	0.0016893	P_RES
J24_3	154.748	0.0009746	P_RES
J24_4	162.365	0.0012117	P_COM
J24_5	168.216	0.0022721	P_COM
J24_6	176.821	0.0055129	P_IND
J24_7	182.003	0.0007648	P_RES
J24_8	189.822	0.0031890	P_RES
J24_9	198.207	0.0008894	P_RES
J24_10	204.163	0.0017427	P_RES
J24_11	211.819	0.0012527	P_RES
J24_12	218.694	0.0021365	P_COM
J24_13	226.500	0.0013122	P_RES
J24_14	231.309	0.0012549	P_COM
J24_15	238.593	0.0013981	P_RES
J24_16	246.094	0.0013053	P_RES
J24_17	252.736	0.0025414	P_RES
J24_18	259.962	0.0010024	P_RES
J24_19	268.675	0.0038691	P_COM
J24_20	274.181	0.0036426	P_COM
J24_21	281.194	0.0023466	P_RES
J24_22	287.773	0.0013936	P_IND
J24_23	295.968	0.0009917	P_RES
J24_24	303.098	0.0004068	P_RES
J24_25	309.797	0.0010890	P_RES
J24_26	317.255	0.0023218	P_RES
J24_27	323.763	0.0012260	P_RES
J24_28	329.195	0.0039742	P_IND
J24_29	337.655	0.0021182	P_COM
J24_30	344.682	0.0018810	P_COM
J24_31	350.935	0.0055077	P_COM
J24_32	357.291	0.0007059	P_RES
J24_33	363.204	0.0026437	P_COM
J24_34	371.511	0.0020041	P_RES
J24_35	376.991	0.0006508	P_RES
J24_36	385.449	0.0035471	P_IND
J24_37	392.643	0.0013946	P_RES
J24_38	397.865	0.0008371	P_RES
J24_39	405.744	0.0018629	P_IND
J24_40	411.159	0.0028174	P_IND
J24_41	419.015	0.0012731	P_COM
J24_42	424.281	0.0009975	P_RES
J24_43	432.001	0.0011162	P_RES
J24_44	437.645	0.0005960	P_RES
J24_45	444.737	0.0018634	P_COM
J24_46	451.004	0.0019958	P_RES
J24_47	458.646	0.0021004	P_COM
J24_48	465.038	0.0023674	P_RES
J24_49	470.572	0.0012211	P_RES
J24_50	478.171	0.0006832	P_RES
J24_51	485.190	0.0010928	P_RES
J24_52	490.500	0.0006427	P_RES
J25_1	138.345	0.0015466	P_RES
J25_2	145.097	0.0012512	P_RES
J25_3	151.611	0.0012086	P_RES
J25_4	160.614	0.0037638	P_COM
J25_5	167.058	0.0017988	P_COM
J25_6	173.712	0.0025416	P_RES
J25_7	180.261	0.0019881	P_RES
J25_8	186.904	0.0009086	P_RES
J25_9	196.260	0.0006142	P_RES
J25_10	203.319	0.0016236	P_RES
J25_11	210.310	0.0013008	P_RES
J25_12	216.768	0.0014777	P_RES
J25_13	222.625	0.0012986	P_RES
J25_14	229.790	0.0026064	P_COM
J25_15	237.013	0.0008509	P_RES
J25_16	243.266	0.0008440	P_RES
J25_17	250.443	0.0021474	P_COM
J25_18	258.108	0.0034592	P_COM
J25_19	266.192	0.0007237	P_RES
J25_20	273.346	0.0011613	P_RES
J25_21	280.100	0.0019906	P_RES
J25_22	285.986	0.0010902	P_RES
J25_23	294.540	0.0008491	P_RES
J25_24	300.345	0.0020050	P_RES
J25_25	308.256	0.0037966	P_RES
J25_26	313.783	0.0006853	P_RES
J25_27	319.938	0.0033777	P_COM
J25_28	328.044	0.0027484	P_COM
J25_29	335.720	0.0012558	P_RES
J25_30	341.094	0.0038233	P_IND
J25_31	348.965	0.0018265	P_RES
J25_32	355.422	0.0013190	P_RES
J25_33	362.393	0.0009360	P_RES
J25_34	369.750	0.0023529	P_COM
J25_35	376.326	0.0012909	P_RES
J25_36	381.622	0.0017117	P_RES
J25_37	390.216	0.0005550	P_RES
J25_38	394.996	0.0017160	P_COM
J25_39	402.620	0.0019429	P_COM
J25_40	409.121	0.0022908	P_COM
J25_41	416.261	0.0010516	P_RES
J25_42	423.317	0.0010752	P_RES
J25_43	430.284	0.0016780	P_COM
J25_44	435.870	0.0020104	P_RES
J25_45	442.571	0.0016381	P_RES
J25_46	449.995	0.0008427	P_RES
J25_47	456.884	0.0005385	P_RES
J25_48	463.200	0.0026649	P_COM
J25_49	469.521	0.0032263	P_RES
J25_50	475.281	0.0031217	P_COM
J25_51	483.401	0.0072441	P_COM
J25_52	489.326	0.0007738	P_RES
J26_1	137.485	0.0028822	P_COM
J26_2	142.634	0.0011605	P_RES
J26_3	150.800	0.0023073	P_COM
J26_4	157.173	0.0013014	P_RES
J26_5	163.727	0.0008372	P_RES
J26_6	171.392	0.0024139	P_COM
J26_7	178.713	0.0022271	P_COM
J26_8	185.595	0.0017369	P_RES
J26_9	192.581	0.0027472	P_RES
J26_10	200.922	0.0016702	P_COM
J26_11	207.466	0.0014240	P_RES
J26_12	214.832	0.0007997	P_RES
J26_13	222.320	0.0021008	P_RES
J26_14	229.159	0.0015570	P_RES
J26_15	236.434	0.0021270	P_RES
J26_16	242.864	0.0026276	P_COM
J26_17	249.171	0.0014127	P_RES
J26_18	255.436	0.0032776	P_COM
J26_19	263.055	0.0004065	P_RES
J26_20	270.964	0.0027278	P_COM
J26_21	276.416	0.0010560	P_RES
J26_22	283.260	0.0010166	P_RES
J26_23	290.868	0.0039190	P_RES
J26_24	298.699	0.0030372	P_COM
J26_25	306.211	0.0003692	P_RES
J26_26	312.426	0.0021017	P_RES
J26_27	318.415	0.0015208	P_RES
J26_28	325.852	0.0014172	P_RES
J26_29	332.288	0.0058466	P_IND
J26_30	338.846	0.0022448	P_RES
J26_31	346.663	0.0007657	P_RES
J26_32	353.930	0.0012196	P_RES
J26_33	361.025	0.0040764	P_COM
J26_34	366.895	0.0021905	P_RES
J26_35	374.361	0.0013914	P_RES
J26_36	379.865	0.0015017	P_RES
J26_37	387.643	0.0022873	P_RES
J26_38	393.279	0.0043555	P_RES
J26_39	400.542	0.0025239	P_RES
J26_40	408.745	0.0050033	P_IND
J26_41	413.506	0.0017289	P_RES
J26_42	420.439	0.0008502	P_RES
J26_43	427.974	0.0007930	P_RES
J26_44	434.674	0.0009995	P_RES
J26_45	440.277	0.0011074	P_RES
J26_46	447.476	0.0024992	P_COM
J26_47	455.074	0.0016271	P_RES
J26_48	461.872	0.0019126	P_RES
J26_49	466.258	0.0010806	P_RES
J26_50	474.603	0.0014448	P_RES
J26_51	479.712	0.0004334	P_RES
J26_52	487.964	0.0009722	P_RES
J27_1	134.279	0.0007087	P_RES
J27_2	140.571	0.0010681	P_RES
J27_3	147.836	0.0013532	P_COM
J27_4	154.984	0.0039766	P_RES
J27_5	161.531	0.0018580	P_COM
J27_6	168.884	0.0017078	P_COM
J27_7	176.057	0.0018106	P_RES
J27_8	183.284	0.0007039	P_RES
J27_9	192.057	0.0012512	P_RES
J27_10	197.944	0.0012134	P_RES
J27_11	206.259	0.0008948	P_RES
J27_12	211.607	0.0023227	P_COM
J27_13	219.908	0.0009620	P_RES
J27_14	226.972	0.0012359	P_RES
J27_15	232.526	0.0032547	P_IND
J27_16	240.784	0.0027188	P_COM
J27_17	246.985	0.0023811	P_RES
J27_18	253.383	0.0010382	P_RES
J27_19	261.084	0.0011785	P_RES
J27_20	268.709	0.0028561	P_IND
J27_21	275.685	0.0024864	P_IND
J27_22	283.141	0.0020578	P_COM
J27_23	290.277	0.0021889	P_RES
J27_24	296.494	0.0007066	P_RES
J27_25	303.712	0.0011186	P_RES
J27_26	309.273	0.0015337	P_COM
J27_27	316.500	0.0009339	P_RES
J27_28	324.738	0.0020989	P_RES
J27_29	331.752	0.0010289	P_RES
J27_30	338.278	0.0030228	P_RES
J27_31	345.384	0.0007821	P_RES
J27_32	351.865	0.0010608	P_RES
J27_33	359.207	0.0012578	P_RES
J27_34	365.009	0.0037603	P_RES
J27_35	371.925	0.0013386	P_RES
J27_36	378.289	0.0011405	P_COM
J27_37	386.415	0.0027307	P_COM
J27_38	391.207	0.0034724	P_RES
J27_39	398.618	0.0008120	P_RES
J27_40	405.126	0.0018023	P_RES
J27_41	413.307	0.0012761	P_RES
J27_42	419.605	0.0011253	P_RES
J27_43	425.303	0.0013362	P_RES
J27_44	432.839	0.0023942	P_IND
J27_45	439.937	0.0011873	P_RES
J27_46	445.451	0.0012070	P_RES
J27_47	452.944	0.0029597	P_COM
J27_48	458.156	0.0031521	P_RES
J27_49	465.052	0.0028501	P_IND
J27_50	472.081	0.0013478	P_RES
J27_51	478.882	0.0016987	P_COM
J27_52	484.021	0.0023898	P_RES
J28_1	132.882	0.0022175	P_COM
J28_2	140.024	0.0021723	P_RES
J28_3	146.616	0.0007448	P_RES
J28_4	153.902	0.0037006	P_COM
J28_5	160.054	0.0029254	P_RES
J28_6	167.748	0.0009091	P_RES
J28_7	174.042	0.0021515	P_IND
J28_8	182.264	0.0020183	P_RES
J28_9	188.477	0.0007302	P_RES
J28_10	195.584	0.0014453	P_RES
J28_11	203.065	0.0036067	P_COM
J28_12	210.981	0.0005628	P_RES
J28_13	217.745	0.0009268	P_COM
J28_14	223.644	0.0038910	P_IND
J28_15	230.792	0.0010357	P_RES
J28_16	238.273	0.0034411	P_COM
J28_17	244.411	0.0019013	P_RES
J28_18	253.532	0.0015025	P_RES
J28_19	258.226	0.0014297	P_RES
J28_20	267.363	0.0017356	P_COM
J28_21	272.582	0.0047677	P_IND
J28_22	280.404	0.0024301	P_RES
J28_23	286.654	0.0005264	P_RES
J28_24	295.340	0.0014778	P_RES
J28_25	300.705	0.0018721	P_RES
J28_26	308.754	0.0010558	P_RES
J28_27	313.960	0.0012157	P_RES
J28_28	321.527	0.0007720	P_RES
J28_29	329.001	0.0017945	P_COM
J28_30	334.777	0.0012040	P_RES
J28_31	343.262	0.0023457	P_RES
J28_32	349.691	0.0018616	P_COM
J28_33	357.250	0.0013499	P_COM
J28_34	362.182	0.0014689	P_RES
J28_35	370.393	0.0021506	P_RES
J28_36	375.733	0.0012751	P_RES
J28_37	383.873	0.0027801	P_IND
J28_38	390.149	0.0016831	P_RES
J28_39	396.824	0.0013377	P_RES
J28_40	403.752	0.0005492	P_RES
J28_41	410.977	0.0018060	P_RES
J28_42	417.495	0.0004170	P_RES
J28_43	422.887	0.0017709	P_RES
J28_44	430.186	0.0006885	P_RES
J28_45	436.559	0.0013905	P_RES
J28_46	442.756	0.0008932	P_RES
J28_47	450.737	0.0004904	P_RES
J28_48	456.358	0.0014653	P_RES
J28_49	464.358	0.0028249	P_COM
J28_50	470.310	0.0018541	P_RES
J28_51	475.368	0.0011710	P_RES
J28_52	483.570	0.0027687	P_COM
J29_1	130.530	0.0009666	P_RES
J29_2	136.387	0.0014617	P_RES
J29_3	144.627	0.0010972	P_RES
J29_4	152.545	0.0025183	P_RES
J29_5	158.220	0.0009992	P_RES
J29_6	166.718	0.0029022	P_IND
J29_7	173.465	0.0016654	P_RES
J29_8	180.243	0.0025867	P_RES
J29_9	186.119	0.0015798	P_COM
J29_10	192.921	0.0013474	P_RES
J29_11	202.055	0.0037869	P_RES
J29_12	209.252	0.0008928	P_RES
J29_13	215.957	0.0016139	P_RES
J29_14	222.612	0.0036585	P_IND
J29_15	230.403	0.0041297	P_COM
J29_16	235.346	0.0013364	P_RES
J29_17	242.750	0.0009371	P_RES
J29_18	249.156	0.0008457	P_RES
J29_19	256.808	0.0008552	P_RES
J29_20	264.653	0.0006002	P_RES
J29_21	270.217	0.0014255	P_RES
J29_22	277.324	0.0014262	P_RES
J29_23	285.796	0.0007885	P_RES
J29_24	292.055	0.0008415	P_COM
J29_25	298.212	0.0004402	P_RES
J29_26	305.739	0.0021740	P_RES
J29_27	313.348	0.0008208	P_RES
J29_28	319.330	0.0021785	P_RES
J29_29	325.533	0.0008783	P_RES
J29_30	334.238	0.0041077	P_IND
J29_31	339.260	0.0015966	P_RES
J29_32	348.161	0.0061888	P_IND
J29_33	354.532	0.0011291	P_RES
J29_34	361.378	0.0020450	P_COM
J29_35	367.940	0.0013348	P_RES
J29_36	373.590	0.0027058	P_COM
J29_37	381.440	0.0014571	P_IND
J29_38	389.159	0.0003823	P_RES
J29_39	395.538	0.0029050	P_RES
J29_40	401.612	0.0010720	P_RES
J29_41	409.051	0.0016380	P_RES
J29_42	414.367	0.0016757	P_RES
J29_43	421.447	0.0018621	P_COM
J29_44	427.146	0.0007708	P_RES
J29_45	435.929	0.0018071	P_RES
J29_46	441.020	0.0016352	P_COM
J29_47	449.056	0.0017581	P_RES
J29_48	455.532	0.0014514	P_RES
J29_49	461.769	0.0023864	P_COM
J29_50	468.008	0.0012775	P_RES
J29_51	474.081	0.0019202	P_RES
J29_52	480.220	0.0015833	P_RES
J30_1	128.143	0.0046139	P_COM
J30_2	134.577	0.0041801	P_COM
J30_3	142.886	0.0029593	P_IND
J30_4	150.303	0.0021743	P_RES
J30_5	156.185	0.0021577	P_COM
J30_6	164.412	0.0011278	P_RES
J30_7	171.086	0.0009824	P_RES
J30_8	178.291	0.0010914	P_RES
J30_9	185.277	0.0005250	P_RES
J30_10	192.003	0.0022976	P_COM
J30_11	198.086	0.0035885	P_RES
J30_12	204.843	0.0014022	P_RES
J30_13	212.910	0.0024164	P_RES
J30_14	220.480	0.0020961	P_RES
J30_15	227.996	0.0016832	P_RES
J30_16	234.803	0.0020815	P_RES
J30_17	241.924	0.0013890	P_COM
J30_18	248.127	0.0018970	P_RES
J30_19	255.428	0.0025243	P_RES
J30_20	262.802	0.0008808	P_RES
J30_21	268.042	0.0027519	P_RES
J30_22	277.120	0.0019042	P_RES
J30_23	284.013	0.0016559	P_COM
J30_24	291.236	0.0009804	P_RES
J30_25	296.478	0.0025960	P_COM
J30_26	303.423	0.0019840	P_RES
J30_27	310.480	0.0014503	P_COM
J30_28	317.316	0.0019107	P_COM
J30_29	324.327	0.0023482	P_IND
J30_30	330.334	0.0016671	P_RES
J30_31	337.259	0.0022979	P_COM
J30_32	344.788	0.0020131	P_RES
J30_33	351.509	0.0033193	P_COM
J30_34	358.952	0.0026799	P_RES
J30_35	366.324	0.0008599	P_RES
J30_36	371.336	0.0024157	P_COM
J30_37	379.977	0.0026441	P_RES
J30_38	386.134	0.0010454	P_RES
J30_39	392.724	0.0016952	P_RES
J30_40	399.772	0.0008258	P_RES
J30_41	405.576	0.0033915	P_COM
J30_42	412.643	0.0023913	P_RES
J30_43	420.113	0.0007056	P_RES
J30_44	426.625	0.0022834	P_RES
J30_45	433.318	0.0045622	P_COM
J30_46	438.577	0.0022748	P_COM
J30_47	447.175	0.0010951	P_RES
J30_48	452.980	0.0008810	P_RES
J30_49	459.777	0.0011937	P_RES
J30_50	465.905	0.0007500	P_RES
J30_51	473.221	0.0008585	P_RES
J30_52	478.400	0.0005534	P_RES
J31_1	125.600	0.0040990	P_IND
J31_2	132.536	0.0019141	P_RES
J31_3	141.277	0.0010884	P_RES
J31_4	146.902	0.0007048	P_RES
J31_5	154.895	0.0062024	P_COM
J31_6	162.242	0.0018185	P_RES
J31_7	168.079	0.0003984	P_RES
J31_8	175.026	0.0018998	P_RES
J31_9	182.018	0.0011957	P_RES
J31_10	189.959	0.0014009	P_RES
J31_11	197.749	0.0012627	P_RES
J31_12	204.325	0.0016285	P_RES
J31_13	210.016	0.0004371	P_RES
J31_14	218.702	0.0022554	P_COM
J31_15	226.106	0.0012843	P_RES
J31_16	232.490	0.0014952	P_RES
J31_17	238.061	0.0013007	P_RES
J31_18	245.727	0.0021142	P_RES
J31_19	253.514	0.0009312	P_RES
J31_20	259.179	0.0009990	P_RES
J31_21	267.621	0.0006033	P_RES
J31_22	273.234	0.0009735	P_RES
J31_23	280.422	0.0008967	P_RES
J31_24	288.878	0.0006982	P_RES
J31_25	294.374	0.0005151	P_RES
J31_26	302.832	0.0008506	P_RES
J31_27	308.648	0.0009695	P_RES
J31_28	316.588	0.0013799	P_RES
J31_29	321.518	0.0015399	P_RES
J31_30	329.689	0.0027043	P_IND
J31_31	337.016	0.0026497	P_COM
J31_32	343.392	0.0009796	P_RES
J31_33	349.591	0.0013973	P_COM
J31_34	357.738	0.0008995	P_RES
J31_35	362.443	0.0021345	P_RES
J31_36	369.819	0.0024385	P_COM
J31_37	377.964	0.0043114	P_IND
J31_38	383.103	0.0015906	P_RES
J31_39	391.136	0.0018304	P_RES
J31_40	396.566	0.0025364	P_RES
J31_41	403.965	0.0020831	P_RES
J31_42	411.132	0.0011369	P_RES
J31_43	418.056	0.0016557	P_RES
J31_44	423.183	0.0025565	P_IND
J31_45	429.885	0.0014804	P_RES
J31_46	438.252	0.0010728	P_RES
J31_47	443.847	0.0012950	P_RES
J31_48	450.292	0.0013985	P_COM
J31_49	458.170	0.0009709	P_RES
J31_50	464.896	0.0026817	P_IND
J31_51	469.340	0.0008698	P_RES
J31_52	476.613	0.0009232	P_RES
J32_1	123.838	0.0022674	P_RES
J32_2	130.290	0.0021499	P_RES
J32_3	137.284	0.0012111	P_RES
J32_4	146.358	0.0014388	P_RES
J32_5	153.381	0.0015503	P_RES
J32_6	159.390	0.0044090	P_IND
J32_7	166.717	0.0022771	P_COM
J32_8	174.160	0.0011494	P_RES
J32_9	181.520	0.0033302	P_IND
J32_10	186.626	0.0013064	P_RES
J32_11	195.669	0.0019781	P_COM
J32_12	201.226	0.0010734	P_RES
J32_13	209.456	0.0006718	P_RES
J32_14	215.738	0.0009099	P_RES
J32_15	222.486	0.0027393	P_RES
J32_16	229.136	0.0016788	P_COM
J32_17	238.086	0.0029681	P_RES
J32_18	244.492	0.0017898	P_RES
J32_19	250.724	0.0018823	P_RES
J32_20	259.143	0.0020228	P_RES
J32_21	264.273	0.0009194	P_RES
J32_22	272.025	0.0009851	P_RES
J32_23	278.286	0.0040408	P_COM
J32_24	286.681	0.0031951	P_COM
J32_25	293.054	0.0009456	P_COM
J32_26	300.875	0.0005917	P_RES
J32_27	306.296	0.0022294	P_RES
J32_28	312.826	0.0013951	P_RES
J32_29	319.339	0.0036661	P_COM
J32_30	327.517	0.0009850	P_RES
J32_31	334.147	0.0016430	P_RES
J32_32	341.189	0.0027064	P_IND
J32_33	348.195	0.0026386	P_COM
J32_34	355.112	0.0016241	P_RES
J32_35	361.517	0.0037788	P_COM
J32_36	368.608	0.0036284	P_COM
J32_37	375.980	0.0024067	P_IND
J32_38	381.490	0.0011678	P_COM
J32_39	389.219	0.0010081	P_RES
J32_40	396.229	0.0009976	P_RES
J32_41	403.063	0.0031302	P_IND
J32_42	408.785	0.0026814	P_IND
J32_43	414.135	0.0005338	P_RES
J32_44	422.898	0.0010094	P_RES
J32_45	428.135	0.0019192	P_RES
J32_46	436.137	0.0020487	P_RES
J32_47	442.987	0.0019987	P_RES
J32_48	449.198	0.0010322	P_RES
J32_49	454.461	0.0013762	P_RES
J32_50	461.733	0.0014090	P_RES
J32_51	469.463	0.0008403	P_RES
J32_52	475.422	0.0025005	P_COM
J33_1	121.041	0.0019148	P_RES
J33_2	129.063	0.0007939	P_RES
J33_3	136.998	0.0039442	P_COM
J33_4	142.830	0.0016374	P_COM
J33_5	149.791	0.0025287	P_COM
J33_6	157.670	0.0017912	P_COM
J33_7	164.239	0.0016877	P_RES
J33_8	171.137	0.0006344	P_RES
J33_9	177.793	0.0022957	P_IND
J33_10	185.428	0.0025853	P_IND
J33_11	193.063	0.0007018	P_RES
J33_12	198.955	0.0017185	P_RES
J33_13	206.992	0.0043290	P_IND
J33_14	215.139	0.0010792	P_RES
J33_15	221.248	0.0048045	P_COM
J33_16	228.332	0.0005811	P_RES
J33_17	235.261	0.0037601	P_COM
J33_18	241.921	0.0032115	P_RES
J33_19	250.121	0.0039198	P_COM
J33_20	255.122	0.0011382	P_RES
J33_21	262.385	0.0009460	P_RES
J33_22	270.226	0.0031317	P_COM
J33_23	277.027	0.0015507	P_RES
J33_24	284.797	0.0036211	P_IND
J33_25	290.096	0.0012645	P_COM
J33_26	297.557	0.0010608	P_RES
J33_27	304.959	0.0020350	P_COM
J33_28	312.603	0.0012965	P_RES
J33_29	318.540	0.0007572	P_RES
J33_30	325.445	0.0008926	P_RES
J33_31	331.542	0.0035506	P_COM
J33_32	340.177	0.0028160	P_IND
J33_33	345.100	0.0019791	P_COM
J33_34	352.985	0.0021570	P_RES
J33_35	360.222	0.0026437	P_COM
J33_36	365.897	0.0011190	P_RES
J33_37	373.528	0.0007850	P_RES
J33_38	378.732	0.0014826	P_RES
J33_39	385.730	0.0021519	P_RES
J33_40	393.471	0.0006040	P_RES
J33_41	399.114	0.0021641	P_RES
J33_42	407.087	0.0018375	P_COM
J33_43	412.786	0.0033476	P_IND
J33_44	420.669	0.0023274	P_RES
J33_45	425.959	0.0014777	P_RES
J33_46	433.722	0.0010783	P_RES
J33_47	439.636	0.0039139	P_RES
J33_48	445.995	0.0013703	P_COM
J33_49	452.518	0.0014882	P_RES
J33_50	459.668	0.0022392	P_RES
J33_51	466.545	0.0007947	P_RES
J33_52	472.003	0.0020368	P_RES
J34_1	120.885	0.0012290	P_RES
J34_2	127.712	0.0014674	P_RES
J34_3	134.852	0.0020618	P_COM
J34_4	140.567	0.0026790	P_IND
J34_5	147.462	0.0009916	P_RES
J34_6	156.383	0.0013927	P_COM
J34_7	163.174	0.0026310	P_IND
J34_8	169.258	0.0021445	P_RES
J34_9	175.865	0.0031015	P_COM
J34_10	184.457	0.0009720	P_RES
J34_11	189.720	0.0020622	P_RES
J34_12	198.611	0.0016249	P_RES
J34_13	203.814	0.0010724	P_RES
J34_14	211.718	0.0018415	P_RES
J34_15	218.431	0.0033324	P_COM
J34_16	226.729	0.0024931	P_RES
J34_17	231.961	0.0018629	P_RES
J34_18	240.180	0.0011177	P_RES
J34_19	247.201	0.0018816	P_RES
J34_20	254.034	0.0014159	P_RES
J34_21	261.790	0.0009878	P_RES
J34_22	266.954	0.0004981	P_RES
J34_23	275.881	0.0008119	P_RES
J34_24	280.893	0.0013764	P_RES
J34_25	288.644	0.0015918	P_RES
J34_26	295.270	0.0008985	P_RES
J34_27	301.418	0.0018156	P_COM
J34_28	310.224	0.0008222	P_RES
J34_29	315.641	0.0024346	P_IND
J34_30	322.179	0.0047785	P_IND
J34_31	331.148	0.0005326	P_RES
J34_32	337.013	0.0018118	P_RES
J34_33	343.827	0.0014237	P_COM
J34_34	350.983	0.0021762	P_RES
J34_35	357.648	0.0016693	P_RES
J34_36	364.090	0.0012263	P_RES
J34_37	370.164	0.0009457	P_COM
J34_38	376.594	0.0032117	P_COM
J34_39	384.765	0.0024476	P_RES
J34_40	391.158	0.0008263	P_RES
J34_41	398.506	0.0019309	P_RES
J34_42	403.682	0.0010908	P_RES
J34_43	410.025	0.0011673	P_RES
J34_44	417.084	0.0008324	P_RES
J34_45	425.562	0.0012390	P_RES
J34_46	431.697	0.0010981	P_RES
J34_47	437.435	0.0008129	P_RES
J34_48	443.792	0.0024258	P_RES
J34_49	450.881	0.0037903	P_IND
J34_50	456.714	0.0015624	P_RES
J34_51	464.869	0.0019726	P_RES
J34_52	471.637	0.0005734	P_RES
J35_1	116.911	0.0008459	P_RES
J35_2	125.773	0.0021640	P_RES
J35_3	132.498	0.0006754	P_RES
J35_4	139.371	0.0019797	P_RES
J35_5	146.931	0.0013813	P_RES
J35_6	153.776	0.0010945	P_RES
J35_7	160.027	0.0026657	P_IND
J35_8	167.231	0.0017205	P_RES
J35_9	173.701	0.0028431	P_RES
J35_10	181.617	0.0017509	P_IND
J35_11	189.785	0.0017674	P_IND
J35_12	194.673	0.0007083	P_RES
J35_13	201.627	0.0010739	P_RES
J35_14	209.805	0.0022206	P_RES
J35_15	215.792	0.0007119	P_RES
J35_16	225.052	0.0016376	P_RES
J35_17	231.187	0.0016049	P_RES
J35_18	238.593	0.0008018	P_RES
J35_19	245.491	0.0013121	P_RES
J35_20	252.831	0.0013797	P_RES
J35_21	259.294	0.0023691	P_COM
J35_22	265.945	0.0011855	P_RES
J35_23	273.254	0.0017573	P_RES
J35_24	280.060	0.0036914	P_COM
J35_25	286.761	0.0026509	P_IND
J35_26	293.944	0.0015232	P_RES
J35_27	301.739	0.0017493	P_COM
J35_28	306.444	0.0019498	P_RES
J35_29	314.636	0.0021267	P_COM
J35_30	321.191	0.0009349	P_RES
J35_31	328.442	0.0032939	P_RES
J35_32	335.919	0.0010944	P_RES
J35_33	340.616	0.0020118	P_RES
J35_34	347.854	0.0008757	P_RES
J35_35	355.842	0.0013377	P_RES
J35_36	363.219	0.0011423	P_RES
J35_37	368.697	0.0023177	P_COM
J35_38	376.311	0.0025205	P_IND
J35_39	382.275	0.0031297	P_COM
J35_40	388.645	0.0006671	P_RES
J35_41	395.073	0.0008500	P_RES
J35_42	403.379	0.0012156	P_COM
J35_43	408.382	0.0028087	P_IND
J35_44	416.666	0.0020364	P_COM
J35_45	422.930	0.0018596	P_COM
J35_46	429.761	0.0044369	P_COM
J35_47	436.461	0.0031796	P_RES
J35_48	442.359	0.0022030	P_RES
J35_49	448.757	0.0016302	P_COM
J35_50	455.458	0.0047242	P_IND
J35_51	462.267	0.0017873	P_COM
J35_52	468.785	0.0013989	P_RES
J36_1	114.690	0.0035177	P_COM
J36_2	122.355	0.0012675	P_RES
J36_3	129.762	0.0016050	P_RES
J36_4	136.963	0.0045766	P_IND
J36_5	143.381	0.0040667	P_IND
J36_6	151.190	0.0012073	P_RES
J36_7	158.719	0.0011536	P_RES
J36_8	166.346	0.0009277	P_RES
J36_9	173.322	0.0023139	P_RES
J36_10	180.288	0.0009530	P_RES
J36_11	185.928	0.0009240	P_RES
J36_12	194.488	0.0025838	P_COM
J36_13	200.369	0.0024476	P_COM
J36_14	208.449	0.0004495	P_RES
J36_15	214.593	0.0052745	P_IND
J36_16	221.321	0.0010210	P_RES
J36_17	230.063	0.0015954	P_RES
J36_18	236.271	0.0013385	P_COM
J36_19	243.057	0.0016591	P_RES
J36_20	250.641	0.0007754	P_RES
J36_21	256.922	0.0005963	P_RES
J36_22	264.440	0.0011123	P_RES
J36_23	271.627	0.0009266	P_RES
J36_24	277.509	0.0029953	P_IND
J36_25	283.759	0.0023443	P_COM
J36_26	292.069	0.0032775	P_COM
J36_27	297.677	0.0012101	P_RES
J36_28	306.067	0.0011462	P_RES
J36_29	311.745	0.0044188	P_IND
J36_30	319.276	0.0016719	P_COM
J36_31	325.438	0.0008908	P_RES
J36_32	333.764	0.0030841	P_RES
J36_33	339.898	0.0006856	P_RES
J36_34	347.329	0.0023272	P_RES
J36_35	352.915	0.0034565	P_COM
J36_36	360.620	0.0018588	P_RES
J36_37	367.961	0.0026307	P_COM
J36_38	373.473	0.0009753	P_RES
J36_39	379.413	0.0008210	P_RES
J36_40	387.356	0.0015987	P_RES
J36_41	393.282	0.0029068	P_COM
J36_42	400.311	0.0008176	P_RES
J36_43	408.023	0.0021796	P_RES
J36_44	414.137	0.0016426	P_RES
J36_45	421.549	0.0012486	P_RES
J36_46	428.256	0.0019722	P_RES
J36_47	434.686	0.0011440	P_RES
J36_48	441.332	0.0017468	P_COM
J36_49	447.232	0.0017538	P_RES
J36_50	452.687	0.0008752	P_COM
J36_51	459.693	0.0026223	P_IND
J36_52	467.012	0.0006627	P_RES
J37_1	114.611	0.0020397	P_COM
J37_2	120.795	0.0011244	P_RES
J37_3	128.964	0.0011445	P_RES
J37_4	135.848	0.0016227	P_COM
J37_5	143.236	0.0009381	P_RES
J37_6	149.210	0.0029572	P_COM
J37_7	155.351	0.0013174	P_RES
J37_8	163.350	0.0009145	P_RES
J37_9	169.823	0.0007082	P_RES
J37_10	178.403	0.0011321	P_COM
J37_11	183.544	0.0042176	P_COM
J37_12	190.847	0.0025960	P_RES
J37_13	198.192	0.0005489	P_RES
J37_14	204.767	0.0018753	P_IND
J37_15	213.618	0.0008290	P_RES
J37_16	220.950	0.0014594	P_COM
J37_17	225.946	0.0014899	P_RES
J37_18	232.780	0.0016726	P_RES
J37_19	240.749	0.0005429	P_RES
J37_20	247.814	0.0013011	P_RES
J37_21	253.967	0.0017549	P_RES
J37_22	261.670	0.0033181	P_RES
J37_23	268.225	0.0005944	P_RES
J37_24	275.040	0.0043922	P_COM
J37_25	281.451	0.0049300	P_COM
J37_26	289.037	0.0014555	P_RES
J37_27	295.771	0.0013223	P_RES
J37_28	303.173	0.0016017	P_COM
J37_29	310.164	0.0008317	P_RES
J37_30	317.821	0.0016139	P_RES
J37_31	325.047	0.0030389	P_COM
J37_32	330.946	0.0017236	P_COM
J37_33	338.792	0.0016255	P_COM
J37_34	344.727	0.0016907	P_RES
J37_35	350.213	0.0040253	P_COM
J37_36	358.157	0.0073541	P_IND
J37_37	365.357	0.0012078	P_RES
J37_38	372.317	0.0017921	P_RES
J37_39	378.959	0.0010418	P_RES
J37_40	384.116	0.0015197	P_RES
J37_41	392.634	0.0011862	P_RES
J37_42	398.043	0.0020452	P_COM
J37_43	405.160	0.0009800	P_RES
J37_44	410.849	0.0029666	P_COM
J37_45	418.844	0.0007016	P_RES
J37_46	425.884	0.0006685	P_RES
J37_47	431.633	0.0011775	P_RES
J37_48	438.960	0.0015348	P_COM
J37_49	443.892	0.0008643	P_RES
J37_50	450.408	0.0025176	P_COM
J37_51	457.290	0.0030932	P_IND
J37_52	465.730	0.0007872	P_RES
J38_1	111.835	0.0013585	P_COM
J38_2	119.096	0.0019849	P_RES
J38_3	125.515	0.0009695	P_RES
J38_4	133.645	0.0016733	P_RES
J38_5	140.168	0.0011708	P_RES
J38_6	146.767	0.0019113	P_IND
J38_7	153.933	0.0020888	P_RES
J38_8	161.745	0.0009611	P_RES
J38_9	168.486	0.0012775	P_COM
J38_10	174.287	0.0020136	P_RES
J38_11	181.399	0.0024538	P_IND
J38_12	190.554	0.0021486	P_RES
J38_13	196.243	0.0014605	P_RES
J38_14	203.432	0.0020890	P_RES
J38_15	211.924	0.0013423	P_RES
J38_16	217.007	0.0020948	P_IND
J38_17	223.855	0.0021419	P_COM
J38_18	231.756	0.0020736	P_IND
J38_19	238.574	0.0009552	P_RES
J38_20	246.675	0.0019530	P_COM
J38_21	251.586	0.0019448	P_RES
J38_22	258.543	0.0024357	P_RES
J38_23	267.200	0.0019873	P_RES
J38_24	272.441	0.0012946	P_RES
J38_25	279.674	0.0006987	P_RES
J38_26	286.582	0.0017006	P_RES
J38_27	293.972	0.0011058	P_RES
J38_28	301.988	0.0011128	P_RES
J38_29	307.244	0.0013783	P_COM
J38_30	315.806	0.0007067	P_RES
J38_31	322.255	0.0007610	P_RES
J38_32	329.486	0.0013474	P_RES
J38_33	334.545	0.0009748	P_RES
J38_34	341.267	0.0010381	P_RES
J38_35	347.969	0.0011019	P_RES
J38_36	355.257	0.0023238	P_RES
J38_37	362.676	0.0020583	P_RES
J38_38	370.495	0.0009752	P_RES
J38_39	375.123	0.0012249	P_RES
J38_40	382.323	0.0029265	P_IND
J38_41	389.443	0.0009712	P_COM
J38_42	396.566	0.0020318	P_RES
J38_43	403.915	0.0021596	P_IND
J38_44	409.532	0.0047079	P_IND
J38_45	416.524	0.0012593	P_RES
J38_46	423.961	0.0016832	P_COM
J38_47	429.457	0.0009740	P_RES
J38_48	435.523	0.0006747	P_RES
J38_49	441.881	0.0026241	P_COM
J38_50	450.404	0.0015106	P_COM
J38_51	456.198	0.0008719	P_RES
J38_52	463.071	0.0012092	P_RES
J39_1	108.871	0.0036012	P_COM
J39_2	117.434	0.0013780	P_COM
J39_3	124.303	0.0015242	P_COM
J39_4	130.162	0.0018290	P_COM
J39_5	138.637	0.0008188	P_RES
J39_6	144.549	0.0006682	P_RES
J39_7	153.037	0.0021701	P_RES
J39_8	160.366	0.0029307	P_IND
J39_9	167.408	0.0025238	P_RES
J39_10	174.172	0.0009213	P_RES
J39_11	179.425	0.0009193	P_RES
J39_12	187.328	0.0011757	P_RES
J39_13	194.778	0.0010148	P_COM
J39_14	202.821	0.0019435	P_IND
J39_15	207.553	0.0011247	P_RES
J39_16	216.849	0.0016670	P_RES
J39_17	223.023	0.0022059	P_RES
J39_18	228.631	0.0006180	P_RES
J39_19	237.185	0.0013382	P_RES
J39_20	243.676	0.0014421	P_RES
J39_21	250.842	0.0042766	P_IND
J39_22	256.865	0.0017011	P_RES
J39_23	264.351	0.0018252	P_RES
J39_24	270.837	0.0009719	P_RES
J39_25	278.590	0.0008730	P_RES
J39_26	285.577	0.0023966	P_COM
J39_27	291.599	0.0029604	P_COM
J39_28	299.909	0.0014698	P_RES
J39_29	306.198	0.0005056	P_RES
J39_30	313.616	0.0011738	P_RES
J39_31	318.928	0.0013091	P_COM
J39_32	326.338	0.0047449	P_COM
J39_33	333.284	0.0010732	P_RES
J39_34	339.472	0.0004037	P_RES
J39_35	347.378	0.0006734	P_RES
J39_36	353.194	0.0017920	P_COM
J39_37	360.643	0.0020120	P_RES
J39_38	368.178	0.0006713	P_RES
J39_39	373.095	0.0009890	P_RES
J39_40	380.245	0.0012907	P_RES
J39_41	388.252	0.0015062	P_RES
J39_42	394.396	0.0010054	P_RES
J39_43	400.651	0.0007471	P_RES
J39_44	408.529	0.0057449	P_COM
J39_45	415.121	0.0048151	P_COM
J39_46	421.095	0.0019180	P_RES
J39_47	427.334	0.0006788	P_RES
J39_48	434.989	0.0011249	P_RES
J39_49	440.236	0.0011400	P_RES
J39_50	446.221	0.0013678	P_RES
J39_51	453.474	0.0019558	P_RES
J39_52	459.818	0.0026434	P_RES
J40_1	108.601	0.0027833	P_COM
J40_2	114.221	0.0013101	P_RES
J40_3	122.475	0.0011610	P_RES
J40_4	129.777	0.0008909	P_RES
J40_5	135.222	0.0004323	P_RES
J40_6	143.802	0.0013298	P_RES
J40_7	150.582	0.0027118	P_RES
J40_8	156.391	0.0011140	P_RES
J40_9	164.992	0.0020854	P_RES
J40_10	172.098	0.0018195	P_RES
J40_11	179.422	0.0027525	P_RES
J40_12	186.467	0.0012636	P_RES
J40_13	193.504	0.0027640	P_IND
J40_14	199.560	0.0003577	P_RES
J40_15	207.209	0.0034869	P_IND
J40_16	213.142	0.0026757	P_RES
J40_17	219.790	0.0010912	P_RES
J40_18	228.299	0.0018465	P_COM
J40_19	234.191	0.0006213	P_RES
J40_20	240.521	0.0016941	P_RES
J40_21	248.953	0.0010977	P_RES
J40_22	255.478	0.0025898	P_RES
J40_23	262.568	0.0025802	P_COM
J40_24	268.754	0.0009262	P_RES
J40_25	275.780	0.0022640	P_RES
J40_26	283.206	0.0021043	P_IND
J40_27	290.121	0.0015195	P_RES
J40_28	297.920	0.0006988	P_RES
J40_29	303.597	0.0015904	P_RES
J40_30	310.315	0.0012676	P_RES
J40_31	317.685	0.0023418	P_RES
J40_32	325.446	0.0014790	P_RES
J40_33	330.501	0.0028061	P_RES
J40_34	338.274	0.0012466	P_RES
J40_35	343.924	0.0016643	P_COM
J40_36	351.776	0.0013438	P_RES
J40_37	357.684	0.0025405	P_RES
J40_38	364.610	0.0012051	P_RES
J40_39	371.367	0.0047696	P_IND
J40_40	379.672	0.0012739	P_RES
J40_41	386.268	0.0009597	P_RES
J40_42	391.271	0.0047589	P_COM
J40_43	397.834	0.0009081	P_RES
J40_44	404.900	0.0006580	P_COM
J40_45	412.361	0.0027136	P_COM
J40_46	418.212	0.0012772	P_RES
J40_47	426.217	0.0007823	P_RES
J40_48	432.904	0.0010631	P_RES
J40_49	437.544	0.0021029	P_RES
J40_50	445.462	0.0026641	P_RES
J40_51	450.900	0.0017530	P_COM
J40_52	458.127	0.0011373	P_RES
J41_1	106.687	0.0028378	P_COM
J41_2	112.221	0.0026271	P_IND
J41_3	119.324	0.0007028	P_RES
J41_4	126.862	0.0006953	P_RES
J41_5	135.009	0.0009904	P_RES
J41_6	141.439	0.0048162	P_RES
J41_7	147.527	0.0023301	P_RES
J41_8	156.041	0.0010441	P_RES
J41_9	162.119	0.0030373	P_IND
J41_10	169.546	0.0007438	P_RES
J41_11	176.921	0.0028616	P_COM
J41_12	182.557	0.0011769	P_COM
J41_13	190.267	0.0037108	P_IND
J41_14	198.119	0.0020165	P_COM
J41_15	205.128	0.0029259	P_RES
J41_16	211.092	0.0007710	P_RES
J41_17	219.515	0.0050969	P_IND
J41_18	225.676	0.0012943	P_COM
J41_19	232.103	0.0015579	P_RES
J41_20	240.024	0.0006885	P_RES
J41_21	247.557	0.0011024	P_RES
J41_22	254.578	0.0014408	P_RES
J41_23	259.435	0.0023592	P_RES
J41_24	266.882	0.0013141	P_COM
J41_25	273.672	0.0015255	P_RES
J41_26	280.831	0.0015098	P_RES
J41_27	288.647	0.0035694	P_IND
J41_28	294.999	0.0014602	P_RES
J41_29	302.316	0.0013114	P_RES
J41_30	308.784	0.0013714	P_RES
J41_31	315.328	0.0019998	P_COM
J41_32	323.524	0.0007272	P_RES
J41_33	328.351	0.0027882	P_RES
J41_34	337.101	0.0017524	P_COM
J41_35	344.052	0.0058705	P_IND
J41_36	349.236	0.0011569	P_RES
J41_37	356.192	0.0013482	P_RES
J41_38	362.938	0.0008856	P_RES
J41_39	369.641	0.0021037	P_RES
J41_40	377.412	0.0016213	P_RES
J41_41	383.747	0.0009989	P_RES
J41_42	389.229	0.0014856	P_RES
J41_43	396.399	0.0018271	P_COM
J41_44	403.880	0.0008702	P_RES
J41_45	409.142	0.0026458	P_RES
J41_46	416.877	0.0018592	P_RES
J41_47	424.062	0.0006070	P_RES
J41_48	431.069	0.0007652	P_RES
J41_49	437.322	0.0039847	P_IND
J41_50	443.499	0.0006935	P_RES
J41_51	450.062	0.0038250	P_COM
J41_52	457.367	0.0017729	P_IND
J42_1	102.849	0.0012287	P_RES
J42_2	110.551	0.0008847	P_COM
J42_3	118.212	0.0018755	P_COM
J42_4	125.239	0.0024608	P_RES
J42_5	130.965	0.0004680	P_RES
J42_6	139.027	0.0013944	P_RES
J42_7	147.199	0.0005229	P_RES
J42_8	153.362	0.0014836	P_RES
J42_9	159.790	0.0023574	P_COM
J42_10	167.266	0.0006719	P_RES
J42_11	175.391	0.0011909	P_RES
J42_12	181.721	0.0018780	P_RES
J42_13	187.758	0.0015722	P_RES
J42_14	195.005	0.0013335	P_COM
J42_15	203.664	0.0020260	P_COM
J42_16	210.406	0.0011353	P_RES
J42_17	217.105	0.0009588	P_RES
J42_18	224.646	0.0033098	P_COM
J42_19	231.040	0.0007477	P_RES
J42_20	237.689	0.0004764	P_RES
J42_21	245.364	0.0025088	P_IND
J42_22	251.392	0.0019293	P_COM
J42_23	258.826	0.0028081	P_RES
J42_24	265.750	0.0010219	P_RES
J42_25	273.513	0.0031500	P_COM
J42_26	278.305	0.0011227	P_RES
J42_27	285.130	0.0016937	P_RES
J42_28	293.206	0.0028025	P_COM
J42_29	299.697	0.0032629	P_RES
J42_30	307.859	0.0022700	P_IND
J42_31	314.012	0.0030656	P_RES
J42_32	319.697	0.0017477	P_RES
J42_33	326.526	0.0013259	P_RES
J42_34	333.779	0.0006519	P_RES
J42_35	341.090	0.0015697	P_RES
J42_36	347.588	0.0008504	P_RES
J42_37	354.778	0.0010316	P_RES
J42_38	360.223	0.0019048	P_RES
J42_39	367.244	0.0012958	P_RES
J42_40	375.823	0.0013234	P_RES
J42_41	380.655	0.0029285	P_RES
J42_42	388.886	0.0012420	P_RES
J42_43	395.701	0.0005541	P_RES
J42_44	401.978	0.0014139	P_IND
J42_45	409.285	0.0012347	P_RES
J42_46	415.553	0.0008026	P_RES
J42_47	420.699	0.0006065	P_RES
J42_48	426.970	0.0007332	P_RES
J42_49	433.637	0.0008983	P_RES
J42_50	440.794	0.0011566	P_RES
J42_51	448.225	0.0009970	P_RES
J42_52	453.728	0.0019437	P_RES
J43_1	101.421	0.0011816	P_IND
J43_2	108.899	0.0021071	P_RES
J43_3	114.699	0.0008340	P_RES
J43_4	122.392	0.0015768	P_RES
J43_5	128.896	0.0027546	P_RES
J43_6	136.065	0.0017442	P_COM
J43_7	144.797	0.0029869	P_RES
J43_8	150.462	0.0041838	P_IND
J43_9	159.048	0.0016892	P_COM
J43_10	165.118	0.0014567	P_RES
J43_11	172.956	0.0015485	P_COM
J43_12	179.950	0.0019530	P_IND
J43_13	185.930	0.0012476	P_RES
J43_14	193.970	0.0042475	P_IND
J43_15	201.502	0.0010925	P_COM
J43_16	207.708	0.0009754	P_RES
J43_17	214.007	0.0021094	P_RES
J43_18	222.696	0.0022237	P_COM
J43_19	227.645	0.0012112	P_RES
J43_20	235.397	0.0007114	P_RES
J43_21	243.604	0.0017397	P_IND
J43_22	248.441	0.0035925	P_IND
J43_23	255.520	0.0008276	P_RES
J43_24	263.129	0.0041493	P_IND
J43_25	270.761	0.0042909	P_COM
J43_26	277.083	0.0010288	P_RES
J43_27	285.368	0.0024344	P_RES
J43_28	291.851	0.0012870	P_RES
J43_29	298.994	0.0025483	P_COM
J43_30	303.694	0.0007128	P_RES
J43_31	311.896	0.0024577	P_COM
J43_32	317.779	0.0011926	P_RES
J43_33	324.214	0.0019498	P_COM
J43_34	333.119	0.0014589	P_RES
J43_35	339.647	0.0019793	P_RES
J43_36	346.306	0.0027598	P_COM
J43_37	353.613	0.0015905	P_RES
J43_38	358.783	0.0013578	P_RES
J43_39	366.943	0.0010685	P_RES
J43_40	373.545	0.0018829	P_RES
J43_41	379.513	0.0034149	P_RES
J43_42	385.322	0.0016735	P_RES
J43_43	393.527	0.0010689	P_RES
J43_44	399.789	0.0020622	P_RES
J43_45	406.215	0.0008686	P_RES
J43_46	413.489	0.0006225	P_RES
J43_47	419.847	0.0009577	P_RES
J43_48	425.277	0.0012510	P_RES
J43_49	431.517	0.0033033	P_COM
J43_50	438.172	0.0047910	P_COM
J43_51	445.834	0.0008989	P_RES
J43_52	453.371	0.0005142	P_RES
J44_1	100.664	0.0008876	P_RES
J44_2	105.958	0.0030406	P_RES
J44_3	114.794	0.0020064	P_RES
J44_4	120.106	0.0010110	P_RES
J44_5	127.213	0.0019342	P_RES
J44_6	134.839	0.0013350	P_RES
J44_7	142.473	0.0038212	P_IND
J44_8	148.686	0.0010304	P_RES
J44_9	155.197	0.0022738	P_RES
J44_10	163.033	0.0022151	P_COM
J44_11	169.519	0.0016855	P_RES
J44_12	177.385	0.0017113	P_RES
J44_13	184.438	0.0032647	P_COM
J44_14	191.424	0.0008511	P_RES
J44_15	198.588	0.0010481	P_RES
J44_16	204.914	0.0009543	P_RES
J44_17	213.637	0.0009562	P_RES
J44_18	220.013	0.0008643	P_RES
J44_19	225.438	0.0015480	P_COM
J44_20	232.854	0.0007593	P_RES
J44_21	241.687	0.0031237	P_COM
J44_22	246.879	0.0041885	P_COM
J44_23	253.657	0.0008378	P_RES
J44_24	261.946	0.0021673	P_RES
J44_25	267.745	0.0014541	P_RES
J44_26	275.420	0.0061416	P_COM
J44_27	283.252	0.0005474	P_RES
J44_28	289.658	0.0013033	P_COM
J44_29	296.269	0.0006493	P_RES
J44_30	303.991	0.0013042	P_RES
J44_31	310.612	0.0033868	P_COM
J44_32	317.189	0.0018663	P_RES
J44_33	322.777	0.0015226	P_RES
J44_34	329.711	0.0011282	P_RES
J44_35	337.591	0.0031537	P_IND
J44_36	343.993	0.0017157	P_COM
J44_37	350.052	0.0008437	P_RES
J44_38	357.282	0.0022773	P_COM
J44_39	363.858	0.0019751	P_RES
J44_40	370.317	0.0015988	P_RES
J44_41	378.301	0.0010982	P_RES
J44_42	384.526	0.0018087	P_COM
J44_43	390.818	0.0014585	P_RES
J44_44	397.660	0.0042861	P_COM
J44_45	403.385	0.0007341	P_COM
J44_46	411.669	0.0013341	P_RES
J44_47	417.639	0.0017873	P_RES
J44_48	423.172	0.0020552	P_COM
J44_49	431.802	0.0010960	P_RES
J44_50	436.319	0.0018923	P_RES
J44_51	444.095	0.0009265	P_RES
J44_52	449.911	0.0025501	P_RES
J45_1	98.757	0.0020321	P_RES
J45_2	103.999	0.0006375	P_RES
J45_3	110.867	0.0014285	P_RES
J45_4	119.957	0.0035534	P_RES
J45_5	125.195	0.0032467	P_RES
J45_6	133.834	0.0016416	P_RES
J45_7	141.041	0.0013741	P_RES
J45_8	147.583	0.0027106	P_RES
J45_9	153.981	0.0020018	P_RES
J45_10	160.132	0.0004796	P_RES
J45_11	167.969	0.0034218	P_COM
J45_12	174.359	0.0007749	P_RES
J45_13	182.148	0.0006501	P_RES
J45_14	190.596	0.0008806	P_RES
J45_15	196.637	0.0009184	P_RES
J45_16	202.518	0.0012272	P_RES
J45_17	209.455	0.0029017	P_IND
J45_18	217.322	0.0009439	P_RES
J45_19	224.295	0.0012577	P_RES
J45_20	230.692	0.0009882	P_RES
J45_21	237.827	0.0054108	P_COM
J45_22	245.911	0.0023587	P_COM
J45_23	252.529	0.0010550	P_RES
J45_24	259.701	0.0016602	P_RES
J45_25	265.752	0.0020856	P_COM
J45_26	273.027	0.0012530	P_RES
J45_27	281.084	0.0027427	P_COM
J45_28	288.201	0.0011381	P_RES
J45_29	294.865	0.0005008	P_RES
J45_30	301.619	0.0030831	P_RES
J45_31	308.002	0.0029645	P_IND
J45_32	315.679	0.0022380	P_RES
J45_33	320.772	0.0006690	P_RES
J45_34	328.970	0.0028408	P_RES
J45_35	334.204	0.0022241	P_COM
J45_36	342.088	0.0035180	P_IND
J45_37	348.718	0.0013183	P_RES
J45_38	355.546	0.0017168	P_COM
J45_39	360.882	0.0021880	P_COM
J45_40	367.637	0.0005645	P_RES
J45_41	375.516	0.0008872	P_RES
J45_42	381.322	0.0016115	P_RES
J45_43	388.078	0.0019506	P_COM
J45_44	394.911	0.0011295	P_RES
J45_45	401.381	0.0015813	P_RES
J45_46	407.676	0.0023146	P_RES
J45_47	415.780	0.0010484	P_RES
J45_48	422.781	0.0033859	P_COM
J45_49	429.386	0.0024312	P_COM
J45_50	434.348	0.0028728	P_IND
J45_51	441.619	0.0010584	P_RES
J45_52	448.840	0.0005085	P_RES
J46_1	95.545	0.0021911	P_RES
J46_2	102.792	0.0011910	P_RES
J46_3	109.812	0.0019580	P_RES
J46_4	117.501	0.0017334	P_COM
J46_5	122.991	0.0017913	P_RES
J46_6	131.712	0.0010388	P_RES
J46_7	137.217	0.0011623	P_RES
J46_8	145.396	0.0054854	P_IND
J46_9	151.240	0.0013531	P_RES
J46_10	158.480	0.0067638	P_IND
J46_11	166.430	0.0036338	P_COM
J46_12	173.626	0.0020122	P_COM
J46_13	180.981	0.0031158	P_RES
J46_14	188.437	0.0019324	P_RES
J46_15	195.395	0.0011454	P_RES
J46_16	202.276	0.0047722	P_COM
J46_17	209.516	0.0027966	P_IND
J46_18	215.632	0.0017623	P_RES
J46_19	221.876	0.0021463	P_COM
J46_20	230.627	0.0006331	P_RES
J46_21	236.125	0.0028377	P_COM
J46_22	243.578	0.0019285	P_COM
J46_23	250.415	0.0010827	P_RES
J46_24	256.375	0.0005941	P_RES
J46_25	263.674	0.0013701	P_RES
J46_26	271.598	0.0015626	P_RES
J46_27	277.371	0.0011140	P_RES
J46_28	285.264	0.0008440	P_RES
J46_29	291.774	0.0027762	P_COM
J46_30	298.995	0.0008986	P_RES
J46_31	305.616	0.0020339	P_RES
J46_32	313.282	0.0024791	P_COM
J46_33	320.403	0.0010622	P_RES
J46_34	326.750	0.0015447	P_RES
J46_35	334.139	0.0017137	P_COM
J46_36	340.446	0.0011253	P_RES
J46_37	347.539	0.0023961	P_IND
J46_38	353.675	0.0029485	P_IND
J46_39	360.087	0.0010469	P_RES
J46_40	365.982	0.0010109	P_RES
J46_41	373.973	0.0009373	P_RES
J46_42	380.654	0.0009613	P_RES
J46_43	387.748	0.0026479	P_RES
J46_44	394.520	0.0019426	P_RES
J46_45	399.586	0.0012117	P_RES
J46_46	407.884	0.0007904	P_RES
J46_47	413.029	0.0008353	P_RES
J46_48	419.272	0.0018372	P_RES
J46_49	425.498	0.0026796	P_COM
J46_50	432.738	0.0009328	P_RES
J46_51	440.305	0.0034097	P_IND
J46_52	445.999	0.0038384	P_RES
J47_1	94.009	0.0021648	P_COM
J47_2	101.180	0.0028654	P_IND
J47_3	107.904	0.0009159	P_RES
J47_4	114.657	0.0008925	P_RES
J47_5	120.824	0.0011606	P_RES
J47_6	128.570	0.0022451	P_RES
J47_7	135.833	0.0012824	P_RES
J47_8	142.843	0.0022381	P_COM
J47_9	150.118	0.0012499	P_COM
J47_10	157.314	0.0006000	P_RES
J47_11	165.146	0.0008730	P_RES
J47_12	171.828	0.0007671	P_RES
J47_13	179.663	0.0016218	P_RES
J47_14	184.644	0.0014145	P_COM
J47_15	191.442	0.0020265	P_COM
J47_16	198.580	0.0004789	P_RES
J47_17	207.032	0.0007856	P_RES
J47_18	214.081	0.0018255	P_RES
J47_19	220.648	0.0039331	P_COM
J47_20	226.661	0.0021688	P_COM
J47_21	235.496	0.0025295	P_COM
J47_22	241.721	0.0038745	P_COM
J47_23	247.474	0.0020009	P_COM
J47_24	255.341	0.0014391	P_RES
J47_25	262.185	0.0020781	P_IND
J47_26	269.875	0.0005430	P_RES
J47_27	275.925	0.0009208	P_RES
J47_28	283.101	0.0027355	P_IND
J47_29	291.021	0.0007783	P_RES
J47_30	297.696	0.0028087	P_RES
J47_31	302.682	0.0016535	P_COM
J47_32	309.944	0.0010406	P_RES
J47_33	317.072	0.0015092	P_RES
J47_34	325.207	0.0025634	P_RES
J47_35	331.654	0.0022168	P_RES
J47_36	337.331	0.0020382	P_RES
J47_37	343.706	0.0016734	P_IND
J47_38	351.676	0.0015914	P_COM
J47_39	356.909	0.0025123	P_IND
J47_40	364.962	0.0024129	P_COM
J47_41	370.882	0.0019646	P_IND
J47_42	377.128	0.0010062	P_RES
J47_43	384.946	0.0007420	P_RES
J47_44	392.044	0.0013401	P_RES
J47_45	399.389	0.0013176	P_RES
J47_46	405.069	0.0015150	P_RES
J47_47	412.079	0.0012545	P_RES
J47_48	417.023	0.0039350	P_COM
J47_49	425.080	0.0012762	P_RES
J47_50	431.705	0.0010735	P_RES
J47_51	438.618	0.0020918	P_RES
J47_52	443.719	0.0017346	P_COM
J48_1	92.221	0.0039371	P_COM
J48_2	98.400	0.0015845	P_RES
J48_3	106.722	0.0029856	P_RES
J48_4	111.770	0.0010566	P_RES
J48_5	118.788	0.0015488	P_RES
J48_6	126.412	0.0032353	P_IND
J48_7	133.877	0.0034076	P_COM
J48_8	140.692	0.0013192	P_RES
J48_9	147.858	0.0019641	P_COM
J48_10	155.505	0.0033796	P_RES
J48_11	162.711	0.0012824	P_RES
J48_12	169.338	0.0013458	P_COM
J48_13	175.459	0.0018821	P_COM
J48_14	184.755	0.0015772	P_RES
J48_15	191.753	0.0014503	P_RES
J48_16	196.539	0.0009079	P_RES
J48_17	204.771	0.0012213	P_RES
J48_18	211.262	0.0005211	P_RES
J48_19	217.934	0.0022438	P_RES
J48_20	225.182	0.0014209	P_RES
J48_21	233.051	0.0013033	P_COM
J48_22	240.361	0.0026505	P_RES
J48_23	247.773	0.0012687	P_RES
J48_24	254.722	0.0025107	P_RES
J48_25	259.583	0.0013427	P_RES
J48_26	266.903	0.0009371	P_RES
J48_27	275.282	0.0009590	P_RES
J48_28	282.211	0.0034023	P_COM
J48_29	288.769	0.0019860	P_RES
J48_30	294.759	0.0006451	P_RES
J48_31	301.306	0.0035599	P_IND
J48_32	307.594	0.0020133	P_IND
J48_33	314.273	0.0021839	P_IND
J48_34	322.494	0.0032126	P_IND
J48_35	328.607	0.0015336	P_RES
J48_36	336.231	0.0010913	P_RES
J48_37	342.272	0.0024676	P_COM
J48_38	349.038	0.0012256	P_RES
J48_39	355.464	0.0019910	P_COM
J48_40	362.276	0.0006039	P_RES
J48_41	369.749	0.0015857	P_RES
J48_42	377.202	0.0019083	P_RES
J48_43	382.063	0.0010841	P_RES
J48_44	390.586	0.0019915	P_COM
J48_45	396.479	0.0035684	P_COM
J48_46	403.954	0.0034690	P_IND
J48_47	410.381	0.0007851	P_RES
J48_48	417.267	0.0009328	P_RES
J48_49	423.082	0.0010347	P_RES
J48_50	430.122	0.0014130	P_RES
J48_51	434.692	0.0019211	P_COM
J48_52	441.274	0.0014945	P_RES
J49_1	88.747	0.0013324	P_RES
J49_2	95.608	0.0042126	P_RES
J49_3	104.341	0.0008000	P_RES
J49_4	109.723	0.0008492	P_RES
J49_5	118.266	0.0035784	P_IND
J49_6	125.875	0.0011673	P_RES
J49_7	133.031	0.0017331	P_RES
J49_8	139.962	0.0026357	P_RES
J49_9	145.806	0.0012315	P_RES
J49_10	153.607	0.0011757	P_RES
J49_11	159.499	0.0023856	P_RES
J49_12	168.323	0.0014876	P_RES
J49_13	175.669	0.0008826	P_RES
J49_14	181.353	0.0020001	P_RES
J49_15	187.592	0.0028036	P_COM
J49_16	195.162	0.0019834	P_RES
J49_17	202.408	0.0011789	P_RES
J49_18	208.907	0.0017566	P_RES
J49_19	216.960	0.0010367	P_RES
J49_20	223.812	0.0016135	P_RES
J49_21	229.661	0.0030595	P_COM
J49_22	236.888	0.0030832	P_RES
J49_23	243.651	0.0023144	P_COM
J49_24	252.060	0.0025552	P_RES
J49_25	259.138	0.0016700	P_RES
J49_26	264.282	0.0009970	P_RES
J49_27	273.250	0.0025850	P_RES
J49_28	279.271	0.0022780	P_RES
J49_29	286.251	0.0026515	P_COM
J49_30	292.993	0.0011403	P_RES
J49_31	301.014	0.0011767	P_RES
J49_32	306.612	0.0007852	P_RES
J49_33	312.476	0.0009414	P_RES
J49_34	321.152	0.0033972	P_COM
J49_35	326.443	0.0018873	P_RES
J49_36	333.002	0.0011482	P_RES
J49_37	340.368	0.0011332	P_RES
J49_38	347.161	0.0028973	P_RES
J49_39	353.595	0.0020204	P_IND
J49_40	360.865	0.0012577	P_RES
J49_41	367.008	0.0038872	P_COM
J49_42	374.535	0.0017613	P_RES
J49_43	379.843	0.0011950	P_RES
J49_44	386.518	0.0022239	P_COM
J49_45	393.699	0.0016911	P_RES
J49_46	400.989	0.0011999	P_RES
J49_47	408.536	0.0007424	P_RES
J49_48	414.960	0.0019668	P_COM
J49_49	419.834	0.0010353	P_RES
J49_50	426.475	0.0007806	P_RES
J49_51	433.213	0.0020166	P_COM
J49_52	441.610	0.0017635	P_COM
J50_1	87.987	0.0014430	P_COM
J50_2	93.858	0.0037527	P_COM
J50_3	102.991	0.0008958	P_RES
J50_4	109.219	0.0013977	P_RES
J50_5	115.429	0.0016739	P_RES
J50_6	123.358	0.0026524	P_RES
J50_7	129.454	0.0020614	P_IND
J50_8	137.982	0.0013179	P_RES
J50_9	144.034	0.0013119	P_RES
J50_10	151.669	0.0022613	P_COM
J50_11	158.864	0.0012104	P_RES
J50_12	166.153	0.0016130	P_RES
J50_13	173.826	0.0016702	P_RES
J50_14	179.060	0.0015896	P_RES
J50_15	186.810	0.0013014	P_RES
J50_16	193.080	0.0051562	P_IND
J50_17	199.655	0.0012500	P_RES
J50_18	208.732	0.0012212	P_RES
J50_19	214.081	0.0025551	P_COM
J50_20	222.161	0.0017035	P_COM
J50_21	228.140	0.0012759	P_RES
J50_22	236.699	0.0035419	P_COM
J50_23	243.277	0.0009907	P_RES
J50_24	248.583	0.0012096	P_RES
J50_25	257.308	0.0008816	P_RES
J50_26	263.764	0.0011353	P_RES
J50_27	270.224	0.0018501	P_COM
J50_28	277.565	0.0025152	P_RES
J50_29	283.798	0.0025905	P_RES
J50_30	292.140	0.0019041	P_RES
J50_31	296.947	0.0015200	P_COM
J50_32	305.265	0.0030574	P_RES
J50_33	311.685	0.0011855	P_RES
J50_34	318.311	0.0012488	P_RES
J50_35	326.306	0.0009007	P_RES
J50_36	333.089	0.0009299	P_RES
J50_37	339.202	0.0023923	P_COM
J50_38	344.481	0.0014874	P_RES
J50_39	351.333	0.0025030	P_RES
J50_40	359.452	0.0012268	P_RES
J50_41	366.782	0.0008673	P_RES
J50_42	372.425	0.0024058	P_COM
J50_43	378.068	0.0010586	P_RES
J50_44	385.796	0.0020575	P_COM
J50_45	393.052	0.0021453	P_IND
J50_46	399.552	0.0016363	P_RES
J50_47	404.455	0.0022877	P_COM
J50_48	413.140	0.0018181	P_RES
J50_49	419.132	0.0009779	P_RES
J50_50	425.324	0.0025806	P_RES
J50_51	431.091	0.0018182	P_RES
J50_52	437.902	0.0032812	P_COM
J51_1	84.908	0.0013532	P_RES
J51_2	93.622	0.0020462	P_COM
J51_3	100.199	0.0044120	P_RES
J51_4	107.053	0.0014234	P_RES
J51_5	114.881	0.0010980	P_RES
J51_6	121.823	0.0018578	P_RES
J51_7	127.366	0.0019835	P_COM
J51_8	135.380	0.0025630	P_IND
J51_9	143.204	0.0011302	P_RES
J51_10	149.557	0.0036912	P_IND
J51_11	156.354	0.0023568	P_COM
J51_12	162.495	0.0013339	P_RES
J51_13	169.558	0.0011589	P_RES
J51_14	176.706	0.0009951	P_RES
J51_15	184.674	0.0019368	P_RES
J51_16	192.369	0.0016335	P_COM
J51_17	198.220	0.0040657	P_COM
J51_18	206.772	0.0021261	P_COM
J51_19	213.670	0.0029523	P_COM
J51_20	220.949	0.0018915	P_RES
J51_21	226.426	0.0016961	P_RES
J51_22	232.688	0.0018528	P_RES
J51_23	241.336	0.0012422	P_RES
J51_24	247.422	0.0006444	P_RES
J51_25	254.005	0.0009015	P_RES
J51_26	262.353	0.0016895	P_IND
J51_27	267.735	0.0038021	P_IND
J51_28	275.832	0.0029566	P_COM
J51_29	282.410	0.0043377	P_COM
J51_30	289.582	0.0016460	P_RES
J51_31	296.233	0.0017012	P_RES
J51_32	302.929	0.0016809	P_COM
J51_33	309.837	0.0029830	P_IND
J51_34	316.004	0.0017632	P_RES
J51_35	323.267	0.0011446	P_RES
J51_36	328.997	0.0010189	P_RES
J51_37	337.241	0.0006416	P_RES
J51_38	342.321	0.0020591	P_RES
J51_39	351.198	0.0008937	P_RES
J51_40	355.808	0.0013375	P_RES
J51_41	364.713	0.0024737	P_COM
J51_42	371.163	0.0027345	P_RES
J51_43	376.004	0.0009278	P_RES
J51_44	383.156	0.0023174	P_COM
J51_45	390.222	0.0010295	P_RES
J51_46	397.596	0.0037982	P_IND
J51_47	403.823	0.0009357	P_RES
J51_48	411.302	0.0008341	P_RES
J51_49	417.280	0.0012509	P_IND
J51_50	424.127	0.0021838	P_RES
J51_51	430.708	0.0019579	P_COM
J51_52	435.516	0.0011729	P_COM
J52_1	83.749	0.0019390	P_RES
J52_2	91.535	0.0011529	P_RES
J52_3	99.140	0.0011136	P_RES
J52_4	103.997	0.0018975	P_RES
J52_5	112.829	0.0011013	P_RES
J52_6	119.252	0.0009020	P_RES
J52_7	127.437	0.0027348	P_RES
J52_8	132.452	0.0037549	P_IND
J52_9	140.950	0.0015178	P_RES
J52_10	147.817	0.0015690	P_RES
J52_11	155.536	0.0014151	P_RES
J52_12	162.044	0.0024937	P_RES
J52_13	167.688	0.0008162	P_RES
J52_14	175.276	0.0021515	P_COM
J52_15	182.683	0.0018345	P_COM
J52_16	188.826	0.0031867	P_RES
J52_17	197.839	0.0006949	P_RES
J52_18	205.001	0.0024840	P_IND
J52_19	210.510	0.0016311	P_COM
J52_20	216.969	0.0010858	P_RES
J52_21	224.813	0.0004762	P_RES
J52_22	230.822	0.0023302	P_COM
J52_23	238.539	0.0007139	P_RES
J52_24	245.133	0.0026902	P_IND
J52_25	252.806	0.0014397	P_RES
J52_26	259.562	0.0035205	P_IND
J52_27	267.001	0.0007967	P_RES
J52_28	272.626	0.0062752	P_IND
J52_29	279.329	0.0005631	P_RES
J52_30	287.635	0.0008744	P_RES
J52_31	294.003	0.0021667	P_RES
J52_32	300.117	0.0036826	P_RES
J52_33	308.385	0.0030349	P_COM
J52_34	313.779	0.0020794	P_COM
J52_35	321.451	0.0025533	P_COM
J52_36	329.061	0.0008854	P_RES
J52_37	334.049	0.0005855	P_RES
J52_38	340.882	0.0015587	P_RES
J52_39	347.768	0.0020822	P_IND
J52_40	355.604	0.0017126	P_COM
J52_41	362.742	0.0011094	P_RES
J52_42	367.858	0.0028052	P_IND
J52_43	374.925	0.0007807	P_RES
J52_44	381.070	0.0013284	P_RES
J52_45	387.851	0.0009020	P_RES
J52_46	394.745	0.0004061	P_RES
J52_47	402.548	0.0030809	P_RES
J52_48	409.273	0.0029247	P_COM
J52_49	415.879	0.0009430	P_RES
J52_50	422.316	0.0023533	P_COM
J52_51	427.986	0.0012762	P_RES
J52_52	433.616	0.0007633	P_RES
J53_1	80.912	0.0029803	P_COM
J53_2	88.340	0.0012096	P_RES
J53_3	96.805	0.0011874	P_RES
J53_4	104.194	0.0011074	P_COM
J53_5	109.681	0.0005769	P_RES
J53_6	118.437	0.0016473	P_COM
J53_7	125.143	0.0031786	P_IND
J53_8	132.693	0.0009976	P_RES
J53_9	137.697	0.0014359	P_COM
J53_10	146.138	0.0023678	P_RES
J53_11	152.006	0.0031705	P_COM
J53_12	159.922	0.0011033	P_RES
J53_13	165.822	0.0003902	P_RES
J53_14	172.884	0.0013415	P_RES
J53_15	181.747	0.0010977	P_RES
J53_16	187.696	0.0032533	P_IND
J53_17	193.781	0.0007464	P_RES
J53_18	202.000	0.0059207	P_IND
J53_19	209.134	0.0010936	P_RES
J53_20	214.878	0.0028764	P_COM
J53_21	221.846	0.0012870	P_RES
J53_22	229.958	0.0007620	P_RES
J53_23	237.646	0.0008894	P_RES
J53_24	244.358	0.0005457	P_RES
J53_25	250.680	0.0031143	P_IND
J53_26	257.435	0.0011607	P_RES
J53_27	263.661	0.0010137	P_RES
J53_28	272.137	0.0051666	P_COM
J53_29	279.187	0.0012268	P_RES
J53_30	284.811	0.0006944	P_RES
J53_31	291.865	0.0026113	P_IND
J53_32	298.050	0.0008720	P_RES
J53_33	305.197	0.0030804	P_COM
J53_34	312.583	0.0020354	P_COM
J53_35	320.431	0.0007830	P_RES
J53_36	325.251	0.0027963	P_IND
J53_37	333.101	0.0011033	P_RES
J53_38	339.356	0.0013327	P_COM
J53_39	346.017	0.0011563	P_COM
J53_40	352.918	0.0009296	P_RES
J53_41	360.337	0.0011738	P_RES
J53_42	367.093	0.0007362	P_RES
J53_43	373.507	0.0016110	P_RES
J53_44	378.845	0.0012048	P_RES
J53_45	387.190	0.0006469	P_RES
J53_46	392.104	0.0011022	P_RES
J53_47	399.493	0.0011241	P_RES
J53_48	406.470	0.0014690	P_COM
J53_49	413.657	0.0022460	P_IND
J53_50	418.660	0.0041242	P_IND
J53_51	426.414	0.0013269	P_RES
J53_52	432.270	0.0038546	P_RES
J54_1	79.798	0.0010937	P_RES
J54_2	86.665	0.0018069	P_COM
J54_3	94.217	0.0017111	P_RES
J54_4	100.690	0.0013833	P_RES
J54_5	108.990	0.0016596	P_IND
J54_6	114.395	0.0015782	P_RES
J54_7	123.394	0.0017153	P_COM
J54_8	128.885	0.0014404	P_COM
J54_9	136.936	0.0007757	P_RES
J54_10	143.476	0.0016474	P_RES
J54_11	150.926	0.0012964	P_RES
J54_12	157.550	0.0014880	P_RES
J54_13	165.818	0.0026418	P_COM
J54_14	171.790	0.0010278	P_RES
J54_15	177.902	0.0018312	P_COM
J54_16	185.113	0.0013497	P_RES
J54_17	194.161	0.0057920	P_IND
J54_18	201.207	0.0015855	P_RES
J54_19	206.282	0.0017238	P_RES
J54_20	213.192	0.0008133	P_RES
J54_21	221.567	0.0024354	P_RES
J54_22	228.984	0.0037809	P_IND
J54_23	235.508	0.0016239	P_RES
J54_24	242.358	0.0018705	P_COM
J54_25	247.907	0.0015067	P_COM
J54_26	256.288	0.0013825	P_RES
J54_27	261.677	0.0008044	P_RES
J54_28	269.259	0.0008823	P_RES
J54_29	277.082	0.0010461	P_RES
J54_30	283.699	0.0031698	P_COM
J54_31	289.891	0.0012051	P_RES
J54_32	298.023	0.0021260	P_RES
J54_33	304.198	0.0011651	P_RES
J54_34	311.838	0.0013383	P_RES
J54_35	316.364	0.0007283	P_RES
J54_36	324.674	0.0062745	P_COM
J54_37	329.842	0.0037718	P_COM
J54_38	338.314	0.0010878	P_RES
J54_39	343.651	0.0025310	P_RES
J54_40	350.027	0.0011611	P_RES
J54_41	358.235	0.0024599	P_IND
J54_42	365.506	0.0030205	P_IND
J54_43	371.775	0.0016944	P_RES
J54_44	377.642	0.0021421	P_IND
J54_45	384.402	0.0030305	P_COM
J54_46	391.862	0.0008965	P_RES
J54_47	396.725	0.0025454	P_IND
J54_48	403.665	0.0035067	P_COM
J54_49	410.691	0.0017445	P_COM
J54_50	418.253	0.0017912	P_RES
J54_51	423.770	0.0027736	P_RES
J54_52	431.979	0.0028768	P_IND
J55_1	79.285	0.0024663	P_COM
J55_2	85.892	0.0011803	P_RES
J55_3	93.157	0.0010950	P_RES
J55_4	99.012	0.0030295	P_COM
J55_5	105.880	0.0015697	P_RES
J55_6	112.856	0.0009043	P_RES
J55_7	119.847	0.0017170	P_IND
J55_8	127.911	0.0019808	P_RES
J55_9	134.463	0.0009587	P_RES
J55_10	141.822	0.0018779	P_RES
J55_11	149.131	0.0020469	P_RES
J55_12	154.939	0.0017800	P_RES
J55_13	162.581	0.0010540	P_RES
J55_14	170.400	0.0016685	P_RES
J55_15	176.652	0.0051802	P_IND
J55_16	184.323	0.0051666	P_RES
J55_17	190.910	0.0019186	P_RES
J55_18	197.544	0.0015341	P_RES
J55_19	205.524	0.0031588	P_COM
J55_20	211.354	0.0015034	P_COM
J55_21	219.481	0.0022019	P_COM
J55_22	225.964	0.0031549	P_RES
J55_23	234.228	0.0031983	P_RES
J55_24	239.615	0.0043825	P_IND
J55_25	245.886	0.0014248	P_RES
J55_26	253.545	0.0009311	P_RES
J55_27	261.092	0.0013592	P_RES
J55_28	268.567	0.0063220	P_IND
J55_29	273.731	0.0020621	P_COM
J55_30	282.073	0.0033753	P_COM
J55_31	288.548	0.0013780	P_COM
J55_32	296.216	0.0010781	P_RES
J55_33	302.837	0.0010701	P_RES
J55_34	308.371	0.0017141	P_RES
J55_35	315.152	0.0019520	P_RES
J55_36	323.260	0.0006637	P_RES
J55_37	328.779	0.0014946	P_COM
J55_38	336.865	0.0013995	P_RES
J55_39	342.496	0.0033942	P_IND
J55_40	350.199	0.0012832	P_RES
J55_41	355.014	0.0027790	P_IND
J55_42	361.593	0.0012888	P_RES
J55_43	368.280	0.0015789	P_COM
J55_44	375.181	0.0013080	P_RES
J55_45	382.683	0.0007859	P_RES
J55_46	390.288	0.0014323	P_RES
J55_47	395.316	0.0014889	P_RES
J55_48	402.520	0.0021204	P_COM
J55_49	409.362	0.0021060	P_RES
J55_50	416.616	0.0010144	P_RES
J55_51	422.844	0.0057907	P_COM
J55_52	428.963	0.0006855	P_RES
J56_1	77.019	0.0033305	P_COM
J56_2	83.867	0.0012791	P_RES
J56_3	91.077	0.0008537	P_RES
J56_4	96.772	0.0014435	P_RES
J56_5	104.084	0.0007418	P_RES
J56_6	111.602	0.0027002	P_COM
J56_7	118.438	0.0009938	P_RES
J56_8	124.962	0.0009500	P_RES
J56_9	131.887	0.0021814	P_COM
J56_10	141.094	0.0010990	P_RES
J56_11	146.402	0.0008723	P_RES
J56_12	154.074	0.0013425	P_RES
J56_13	161.549	0.0030873	P_IND
J56_14	168.064	0.0023881	P_COM
J56_15	175.913	0.0018012	P_COM
J56_16	183.163	0.0021554	P_RES
J56_17	189.293	0.0016185	P_RES
J56_18	195.847	0.0008489	P_RES
J56_19	204.372	0.0007762	P_RES
J56_20	210.912	0.0013742	P_RES
J56_21	218.409	0.0005717	P_RES
J56_22	224.402	0.0017228	P_COM
J56_23	232.354	0.0027957	P_COM
J56_24	239.185	0.0009449	P_RES
J56_25	244.490	0.0013508	P_RES
J56_26	251.387	0.0022803	P_RES
J56_27	257.957	0.0037422	P_COM
J56_28	266.509	0.0027247	P_COM
J56_29	273.834	0.0014682	P_RES
J56_30	280.713	0.0007377	P_RES
J56_31	287.287	0.0023591	P_COM
J56_32	293.722	0.0016438	P_RES
J56_33	299.361	0.0022643	P_COM
J56_34	307.819	0.0015158	P_RES
J56_35	314.082	0.0026520	P_RES
J56_36	321.151	0.0014002	P_COM
J56_37	326.533	0.0013691	P_RES
J56_38	335.031	0.0026265	P_IND
J56_39	341.394	0.0014565	P_RES
J56_40	348.088	0.0011440	P_RES
J56_41	354.834	0.0009264	P_RES
J56_42	360.591	0.0036564	P_IND
J56_43	367.112	0.0019468	P_RES
J56_44	373.755	0.0026436	P_COM
J56_45	381.022	0.0018751	P_COM
J56_46	387.884	0.0022834	P_RES
J56_47	393.987	0.0008214	P_RES
J56_48	399.572	0.0014803	P_RES
J56_49	407.533	0.0014743	P_RES
J56_50	414.043	0.0010337	P_RES
J56_51	419.636	0.0016827	P_RES
J56_52	426.877	0.0010734	P_RES
J57_1	74.169	0.0007812	P_RES
J57_2	81.060	0.0020389	P_RES
J57_3	88.190	0.0024266	P_COM
J57_4	96.708	0.0008203	P_RES
J57_5	103.536	0.0026518	P_COM
J57_6	108.772	0.0017507	P_IND
J57_7	117.714	0.0008440	P_RES
J57_8	124.803	0.0027146	P_COM
J57_9	131.721	0.0024075	P_COM
J57_10	139.263	0.0029695	P_COM
J57_11	145.214	0.0015174	P_COM
J57_12	153.095	0.0019777	P_RES
J57_13	159.116	0.0027129	P_COM
J57_14	166.016	0.0008833	P_RES
J57_15	172.980	0.0013918	P_RES
J57_16	180.582	0.0020106	P_RES
J57_17	187.510	0.0028220	P_IND
J57_18	193.821	0.0018459	P_RES
J57_19	200.314	0.0012232	P_RES
J57_20	207.967	0.0044969	P_IND
J57_21	216.094	0.0028157	P_RES
J57_22	221.245	0.0010154	P_RES
J57_23	229.344	0.0020520	P_RES
J57_24	236.667	0.0008096	P_RES
J57_25	242.651	0.0014856	P_COM
J57_26	249.278	0.0009782	P_RES
J57_27	257.164	0.0011551	P_RES
J57_28	263.716	0.0011640	P_RES
J57_29	270.076	0.0031280	P_IND
J57_30	277.602	0.0018538	P_RES
J57_31	284.614	0.0013988	P_RES
J57_32	291.227	0.0011486	P_RES
J57_33	298.547	0.0009098	P_RES
J57_34	304.418	0.0021469	P_RES
J57_35	312.219	0.0017577	P_RES
J57_36	317.737	0.0017717	P_RES
J57_37	326.309	0.0029640	P_IND
J57_38	332.974	0.0013565	P_COM
J57_39	339.750	0.0029647	P_IND
J57_40	345.473	0.0019452	P_COM
J57_41	353.134	0.0016955	P_RES
J57_42	358.573	0.0012020	P_RES
J57_43	366.083	0.0018300	P_COM
J57_44	372.797	0.0006624	P_RES
J57_45	379.737	0.0015125	P_COM
J57_46	385.020	0.0012606	P_COM
J57_47	391.784	0.0011556	P_RES
J57_48	399.848	0.0020689	P_COM
J57_49	405.446	0.0043893	P_COM
J57_50	412.421	0.0009844	P_RES
J57_51	419.483	0.0034510	P_IND
J57_52	426.163	0.0018968	P_RES
J58_1	73.415	0.0004853	P_RES
J58_2	80.131	0.0028583	P_RES
J58_3	86.134	0.0027722	P_RES
J58_4	92.998	0.0022009	P_RES
J58_5	100.071	0.0020049	P_RES
J58_6	108.479	0.0017096	P_RES
J58_7	115.477	0.0017409	P_RES
J58_8	123.137	0.0006956	P_RES
J58_9	128.181	0.0024546	P_IND
J58_10	135.463	0.0015017	P_RES
J58_11	143.849	0.0033373	P_COM
J58_12	149.613	0.0004619	P_RES
J58_13	157.675	0.0035321	P_RES
J58_14	165.310	0.0011616	P_RES
J58_15	170.868	0.0020126	P_COM
J58_16	179.215	0.0014585	P_RES
J58_17	185.001	0.0037774	P_RES
J58_18	192.143	0.0006385	P_RES
J58_19	199.329	0.0016406	P_COM
J58_20	205.547	0.0013908	P_RES
J58_21	212.813	0.0009483	P_RES
J58_22	220.550	0.0006649	P_RES
J58_23	227.803	0.0006132	P_RES
J58_24	235.419	0.0006459	P_RES
J58_25	240.215	0.0019733	P_RES
J58_26	247.678	0.0011588	P_RES
J58_27	254.800	0.0019425	P_COM
J58_28	261.329	0.0010419	P_RES
J58_29	269.198	0.0011350	P_RES
J58_30	276.369	0.0014046	P_RES
J58_31	282.357	0.0031236	P_RES
J58_32	290.218	0.0020853	P_RES
J58_33	296.138	0.0015117	P_RES
J58_34	302.065	0.0009069	P_RES
J58_35	309.318	0.0012358	P_RES
J58_36	315.709	0.0029923	P_IND
J58_37	323.491	0.0005570	P_RES
J58_38	330.812	0.0020536	P_COM
J58_39	338.008	0.0017194	P_COM
J58_40	342.572	0.0025709	P_IND
J58_41	350.354	0.0007244	P_RES
J58_42	356.557	0.0010783	P_RES
J58_43	363.228	0.0012506	P_RES
J58_44	369.636	0.0012824	P_RES
J58_45	377.681	0.0019981	P_IND
J58_46	384.423	0.0030757	P_COM
J58_47	389.881	0.0014508	P_RES
J58_48	397.344	0.0016501	P_RES
J58_49	402.503	0.0020421	P_RES
J58_50	410.033	0.0010446	P_RES
J58_51	417.503	0.0014410	P_IND
J58_52	422.787	0.0021124	P_RES
J59_1	70.397	0.0017505	P_COM
J59_2	76.573	0.0024623	P_COM
J59_3	84.316	0.0058910	P_IND
J59_4	92.375	0.0017837	P_RES
J59_5	99.705	0.0012490	P_RES
J59_6	106.667	0.0025634	P_RES
J59_7	113.493	0.0028764	P_COM
J59_8	119.408	0.0018333	P_COM
J59_9	127.932	0.0013793	P_RES
J59_10	133.447	0.0011291	P_RES
J59_11	141.626	0.0012466	P_RES
J59_12	148.272	0.0017830	P_RES
J59_13	156.622	0.0009966	P_RES
J59_14	162.788	0.0015756	P_RES
J59_15	168.622	0.0016340	P_RES
J59_16	175.597	0.0024598	P_RES
J59_17	183.249	0.0032034	P_IND
J59_18	189.714	0.0012996	P_RES
J59_19	197.301	0.0036071	P_IND
J59_20	203.689	0.0039582	P_RES
J59_21	211.661	0.0022148	P_COM
J59_22	219.525	0.0011444	P_RES
J59_23	225.156	0.0004473	P_RES
J59_24	233.734	0.0017112	P_RES
J59_25	239.581	0.0013260	P_RES
J59_26	247.601	0.0020023	P_COM
J59_27	253.048	0.0027443	P_IND
J59_28	260.428	0.0015717	P_RES
J59_29	266.648	0.0008358	P_RES
J59_30	272.929	0.0011483	P_RES
J59_31	280.622	0.0046453	P_COM
J59_32	287.165	0.0011052	P_RES
J59_33	294.346	0.0015016	P_RES
J59_34	300.223	0.0009471	P_RES
J59_35	307.030	0.0020413	P_RES
J59_36	315.601	0.0013369	P_RES
J59_37	321.887	0.0013510	P_RES
J59_38	328.411	0.0016788	P_RES
J59_39	334.848	0.0023004	P_IND
J59_40	341.657	0.0024827	P_COM
J59_41	349.212	0.0007469	P_RES
J59_42	355.764	0.0005133	P_RES
J59_43	362.360	0.0023323	P_COM
J59_44	368.930	0.0019673	P_RES
J59_45	376.204	0.0028123	P_IND
J59_46	381.471	0.0009922	P_COM
J59_47	387.746	0.0014994	P_RES
J59_48	394.954	0.0012418	P_RES
J59_49	401.892	0.0015888	P_RES
J59_50	409.286	0.0010994	P_RES
J59_51	414.599	0.0016878	P_RES
J59_52	421.342	0.0010424	P_COM
J60_1	68.357	0.0025117	P_RES
J60_2	76.569	0.0018290	P_RES
J60_3	82.913	0.0011656	P_RES
J60_4	89.080	0.0022385	P_RES
J60_5	96.300	0.0006625	P_RES
J60_6	105.225	0.0012319	P_RES
J60_7	110.389	0.0015340	P_RES
J60_8	119.131	0.0014812	P_RES
J60_9	126.298	0.0009962	P_RES
J60_10	133.611	0.0010521	P_RES
J60_11	139.571	0.0013920	P_RES
J60_12	146.058	0.0014447	P_COM
J60_13	154.774	0.0008361	P_RES
J60_14	160.532	0.0036357	P_IND
J60_15	166.675	0.0031909	P_RES
J60_16	175.046	0.0008270	P_RES
J60_17	183.035	0.0011803	P_RES
J60_18	188.101	0.0004768	P_RES
J60_19	195.576	0.0011794	P_COM
J60_20	202.236	0.0009173	P_RES
J60_21	210.584	0.0012560	P_RES
J60_22	217.431	0.0014900	P_RES
J60_23	223.850	0.0009749	P_RES
J60_24	229.788	0.0009716	P_RES
J60_25	237.228	0.0039980	P_COM
J60_26	245.659	0.0041056	P_COM
J60_27	252.303	0.0012631	P_RES
J60_28	259.016	0.0020487	P_COM
J60_29	264.903	0.0036170	P_IND
J60_30	272.995	0.0011140	P_RES
J60_31	277.898	0.0021859	P_COM
J60_32	284.858	0.0021179	P_RES
J60_33	292.308	0.0013841	P_RES
J60_34	299.587	0.0009420	P_RES
J60_35	307.438	0.0020790	P_RES
J60_36	313.008	0.0015202	P_RES
J60_37	319.909	0.0019805	P_RES
J60_38	326.879	0.0014851	P_RES
J60_39	332.432	0.0014029	P_COM
J60_40	340.209	0.0017431	P_RES
J60_41	346.366	0.0009460	P_RES
J60_42	353.090	0.0012314	P_COM
J60_43	360.277	0.0027286	P_IND
J60_44	365.596	0.0026567	P_COM
J60_45	372.438	0.0007936	P_RES
J60_46	378.938	0.0004159	P_RES
J60_47	387.385	0.0009289	P_COM
J60_48	393.152	0.0017006	P_RES
J60_49	399.604	0.0030564	P_IND
J60_50	407.304	0.0006190	P_RES
J60_51	412.871	0.0039496	P_COM
J60_52	418.854	0.0017438	P_COM
J61_1	66.176	0.0010746	P_COM
J61_2	73.900	0.0024966	P_RES
J61_3	82.085	0.0012503	P_COM
J61_4	89.028	0.0018119	P_COM
J61_5	95.188	0.0044947	P_COM
J61_6	102.458	0.0024973	P_COM
J61_7	108.657	0.0029827	P_COM
J61_8	115.986	0.0011465	P_RES
J61_9	123.062	0.0029770	P_RES
J61_10	130.171	0.0019701	P_COM
J61_11	138.737	0.0027578	P_IND
J61_12	144.703	0.0013850	P_RES
J61_13	152.075	0.0013180	P_RES
J61_14	158.109	0.0021809	P_COM
J61_15	167.177	0.0007915	P_RES
J61_16	173.469	0.0025399	P_COM
J61_17	178.912	0.0016374	P_RES
J61_18	187.064	0.0018292	P_COM
J61_19	193.548	0.0029349	P_IND
J61_20	201.523	0.0006861	P_RES
J61_21	207.897	0.0021169	P_COM
J61_22	214.636	0.0013133	P_RES
J61_23	220.907	0.0026900	P_IND
J61_24	229.722	0.0012065	P_RES
J61_25	236.968	0.0006483	P_RES
J61_26	242.800	0.0043639	P_IND
J61_27	249.271	0.0013257	P_RES
J61_28	256.018	0.0018392	P_RES
J61_29	262.291	0.0037305	P_IND
J61_30	269.784	0.0020106	P_RES
J61_31	277.427	0.0010336	P_RES
J61_32	284.028	0.0013864	P_RES
J61_33	291.542	0.0016053	P_RES
J61_34	297.698	0.0025267	P_IND
J61_35	304.223	0.0022935	P_COM
J61_36	310.452	0.0017371	P_COM
J61_37	316.902	0.0022382	P_RES
J61_38	325.443	0.0011561	P_RES
J61_39	331.756	0.0019719	P_RES
J61_40	337.241	0.0030545	P_RES
J61_41	344.005	0.0019046	P_RES
J61_42	350.464	0.0014763	P_RES
J61_43	357.318	0.0016174	P_RES
J61_44	365.871	0.0012719	P_RES
J61_45	371.185	0.0024658	P_COM
J61_46	377.221	0.0055271	P_COM
J61_47	383.845	0.0011117	P_RES
J61_48	390.726	0.0011330	P_RES
J61_49	398.339	0.0007570	P_RES
J61_50	403.498	0.0013733	P_RES
J61_51	411.900	0.0022080	P_COM
J61_52	417.848	0.0008629	P_RES
J62_1	64.254	0.0023728	P_RES
J62_2	72.247	0.0005245	P_RES
J62_3	79.639	0.0023466	P_RES
J62_4	86.610	0.0014328	P_COM
J62_5	93.873	0.0020958	P_RES
J62_6	100.032	0.0008988	P_RES
J62_7	106.672	0.0008891	P_RES
J62_8	114.042	0.0027897	P_COM
J62_9	122.838	0.0035360	P_COM
J62_10	128.306	0.0046648	P_IND
J62_11	135.412	0.0011978	P_RES
J62_12	143.555	0.0033460	P_COM
J62_13	151.283	0.0012328	P_RES
J62_14	157.753	0.0020613	P_COM
J62_15	164.937	0.0015956	P_COM
J62_16	172.127	0.0005572	P_RES
J62_17	178.510	0.0023415	P_RES
J62_18	185.809	0.0015567	P_RES
J62_19	191.761	0.0025057	P_RES
J62_20	200.209	0.0017631	P_COM
J62_21	205.790	0.0007591	P_RES
J62_22	213.216	0.0013615	P_RES
J62_23	221.110	0.0020901	P_COM
J62_24	227.567	0.0025299	P_RES
J62_25	233.700	0.0040953	P_IND
J62_26	242.123	0.0009767	P_RES
J62_27	247.614	0.0012436	P_RES
J62_28	253.958	0.0007241	P_RES
J62_29	261.851	0.0024433	P_RES
J62_30	267.336	0.0020516	P_RES
J62_31	276.066	0.0023386	P_RES
J62_32	281.958	0.0013938	P_RES
J62_33	288.541	0.0014860	P_RES
J62_34	294.801	0.0013604	P_RES
J62_35	301.549	0.0012159	P_RES
J62_36	308.399	0.0015505	P_COM
J62_37	316.657	0.0028434	P_COM
J62_38	322.396	0.0006580	P_RES
J62_39	330.413	0.0055353	P_COM
J62_40	335.317	0.0007355	P_RES
J62_41	342.644	0.0005200	P_RES
J62_42	348.863	0.0036215	P_IND
J62_43	357.468	0.0009029	P_RES
J62_44	363.655	0.0010602	P_RES
J62_45	370.143	0.0014802	P_RES
J62_46	377.202	0.0022574	P_RES
J62_47	383.904	0.0017428	P_IND
J62_48	389.464	0.0024037	P_RES
J62_49	397.169	0.0023222	P_COM
J62_50	403.511	0.0011953	P_RES
J62_51	409.605	0.0023130	P_COM
J62_52	417.028	0.0010667	P_RES
J63_1	64.308	0.0012691	P_COM
J63_2	69.848	0.0013855	P_RES
J63_3	78.453	0.0015203	P_RES
J63_4	84.766	0.0019839	P_COM
J63_5	90.708	0.0006030	P_RES
J63_6	97.871	0.0019199	P_COM
J63_7	106.056	0.0010831	P_RES
J63_8	112.621	0.0018665	P_COM
J63_9	120.587	0.0050644	P_IND
J63_10	126.712	0.0041372	P_COM
J63_11	133.533	0.0046041	P_IND
J63_12	140.997	0.0028166	P_RES
J63_13	148.529	0.0008643	P_RES
J63_14	155.134	0.0011843	P_RES
J63_15	163.348	0.0006822	P_RES
J63_16	169.130	0.0011181	P_RES
J63_17	176.032	0.0022334	P_IND
J63_18	183.967	0.0031025	P_IND
J63_19	191.097	0.0013422	P_RES
J63_20	196.557	0.0017361	P_RES
J63_21	204.900	0.0011888	P_RES
J63_22	210.265	0.0009163	P_RES
J63_23	218.092	0.0020782	P_IND
J63_24	226.254	0.0014176	P_RES
J63_25	232.597	0.0016291	P_RES
J63_26	238.299	0.0015342	P_RES
J63_27	245.380	0.0023528	P_COM
J63_28	252.740	0.0011131	P_COM
J63_29	260.208	0.0007068	P_COM
J63_30	266.209	0.0012640	P_RES
J63_31	272.433	0.0038121	P_IND
J63_32	280.868	0.0015139	P_RES
J63_33	286.644	0.0013078	P_RES
J63_34	294.690	0.0015291	P_COM
J63_35	301.723	0.0002882	P_RES
J63_36	307.711	0.0038553	P_RES
J63_37	313.619	0.0009485	P_RES
J63_38	321.979	0.0024588	P_COM
J63_39	328.842	0.0005737	P_RES
J63_40	333.499	0.0015197	P_RES
J63_41	341.027	0.0025412	P_IND
J63_42	348.460	0.0027479	P_RES
J63_43	354.390	0.0025612	P_COM
J63_44	361.797	0.0019938	P_RES
J63_45	368.736	0.0019742	P_COM
J63_46	375.261	0.0019369	P_RES
J63_47	380.991	0.0049025	P_IND
J63_48	387.987	0.0008734	P_RES
J63_49	394.406	0.0015900	P_RES
J63_50	400.806	0.0027490	P_IND
J63_51	408.697	0.0017484	P_RES
J63_52	414.149	0.0008418	P_RES
J64_1	62.467	0.0019878	P_RES
J64_2	69.913	0.0022651	P_RES
J64_3	76.265	0.0011664	P_RES
J64_4	82.673	0.0014092	P_RES
J64_5	90.692	0.0010952	P_RES
J64_6	96.240	0.0018256	P_RES
J64_7	103.569	0.0027968	P_COM
J64_8	111.627	0.0014347	P_COM
J64_9	119.521	0.0023259	P_IND
J64_10	125.720	0.0020763	P_IND
J64_11	133.395	0.0018918	P_COM
J64_12	139.323	0.0012632	P_RES
J64_13	145.479	0.0047805	P_IND
J64_14	153.851	0.0035348	P_IND
J64_15	159.638	0.0027451	P_COM
J64_16	168.495	0.0049134	P_COM
J64_17	174.679	0.0026805	P_IND
J64_18	182.296	0.0014586	P_RES
J64_19	188.729	0.0013638	P_RES
J64_20	196.834	0.0012353	P_RES
J64_21	201.879	0.0021691	P_RES
J64_22	209.011	0.0011266	P_RES
J64_23	217.412	0.0016475	P_COM
J64_24	222.742	0.0019120	P_RES
J64_25	230.849	0.0023347	P_RES
J64_26	236.281	0.0014787	P_RES
J64_27	243.400	0.0019031	P_RES
J64_28	250.125	0.0011319	P_RES
J64_29	258.705	0.0014451	P_COM
J64_30	265.202	0.0017228	P_RES
J64_31	270.936	0.0010087	P_RES
J64_32	277.971	0.0029782	P_IND
J64_33	285.706	0.0020630	P_RES
J64_34	291.400	0.0007144	P_RES
J64_35	298.831	0.0022685	P_COM
J64_36	306.006	0.0012453	P_RES
J64_37	312.042	0.0005803	P_RES
J64_38	318.263	0.0019209	P_IND
J64_39	326.627	0.0029420	P_COM
J64_40	331.966	0.0021541	P_COM
J64_41	339.751	0.0038575	P_COM
J64_42	346.993	0.0017659	P_IND
J64_43	353.880	0.0019323	P_RES
J64_44	359.159	0.0015210	P_RES
J64_45	367.042	0.0011166	P_RES
J64_46	373.963	0.0020562	P_RES
J64_47	378.307	0.0012243	P_RES
J64_48	386.600	0.0009943	P_RES
J64_49	392.260	0.0015376	P_RES
J64_50	398.443	0.0008779	P_RES
J64_51	405.362	0.0009140	P_RES
J64_52	411.433	0.0028227	P_RES
J65_1	58.873	0.0014996	P_RES
J65_2	67.639	0.0018994	P_RES
J65_3	74.964	0.0011639	P_RES
J65_4	80.086	0.0016256	P_COM
J65_5	88.948	0.0015076	P_RES
J65_6	94.611	0.0020394	P_IND
J65_7	102.025	0.0011575	P_RES
J65_8	108.712	0.0019818	P_IND
J65_9	117.342	0.0016642	P_RES
J65_10	122.810	0.0035225	P_COM
J65_11	131.518	0.0038318	P_COM
J65_12	137.212	0.0023636	P_RES
J65_13	143.948	0.0010988	P_RES
J65_14	151.220	0.0040036	P_IND
J65_15	158.266	0.0016830	P_RES
J65_16	166.611	0.0021925	P_RES
J65_17	172.067	0.0029444	P_RES
J65_18	179.821	0.0008807	P_RES
J65_19	187.134	0.0019109	P_COM
J65_20	193.466	0.0019351	P_RES
J65_21	201.764	0.0008115	P_RES
J65_22	208.771	0.0021369	P_IND
J65_23	214.821	0.0011717	P_RES
J65_24	220.662	0.0028667	P_RES
J65_25	228.985	0.0017461	P_RES
J65_26	235.467	0.0022453	P_RES
J65_27	242.207	0.0016509	P_RES
J65_28	250.392	0.0012852	P_COM
J65_29	255.238	0.0006061	P_COM
J65_30	263.701	0.0012117	P_RES
J65_31	270.870	0.0017022	P_COM
J65_32	275.813	0.0006297	P_RES
J65_33	283.669	0.0009960	P_RES
J65_34	291.712	0.0010627	P_RES
J65_35	297.708	0.0021459	P_RES
J65_36	303.385	0.0016418	P_RES
J65_37	310.411	0.0007249	P_RES
J65_38	317.605	0.0035115	P_RES
J65_39	324.723	0.0010653	P_RES
J65_40	330.174	0.0023666	P_IND
J65_41	338.292	0.0024801	P_RES
J65_42	345.263	0.0004337	P_RES
J65_43	352.345	0.0007378	P_RES
J65_44	357.701	0.0008735	P_RES
J65_45	363.555	0.0041253	P_COM
J65_46	371.062	0.0016202	P_RES
J65_47	378.111	0.0020245	P_RES
J65_48	385.024	0.0033924	P_IND
J65_49	390.816	0.0020860	P_COM
J65_50	398.083	0.0012065	P_COM
J65_51	404.735	0.0025743	P_RES
J65_52	409.553	0.0011693	P_RES
J66_1	58.160	0.0021148	P_RES
J66_2	66.119	0.0004434	P_RES
J66_3	71.302	0.0012376	P_RES
J66_4	79.087	0.0018687	P_RES
J66_5	87.103	0.0036030	P_RES
J66_6	93.877	0.0017375	P_RES
J66_7	101.463	0.0047217	P_COM
J66_8	108.369	0.0006063	P_RES
J66_9	114.688	0.0006053	P_RES
J66_10	122.535	0.0048095	P_IND
J66_11	128.280	0.0022049	P_RES
J66_12	136.370	0.0006595	P_RES
J66_13	143.678	0.0034283	P_COM
J66_14	150.556	0.0019901	P_RES
J66_15	157.293	0.0017946	P_COM
J66_16	164.817	0.0013139	P_RES
J66_17	170.343	0.0020567	P_RES
J66_18	178.800	0.0008646	P_RES
J66_19	185.911	0.0022943	P_COM
J66_20	191.180	0.0005458	P_RES
J66_21	198.056	0.0037611	P_IND
J66_22	206.282	0.0011211	P_RES
J66_23	212.036	0.0017538	P_RES
J66_24	220.397	0.0009013	P_RES
J66_25	225.934	0.0013822	P_RES
J66_26	233.757	0.0021753	P_COM
J66_27	241.343	0.0025501	P_COM
J66_28	248.611	0.0010757	P_RES
J66_29	255.514	0.0010648	P_RES
J66_30	261.048	0.0006639	P_RES
J66_31	267.231	0.0007517	P_RES
J66_32	274.430	0.0030439	P_COM
J66_33	282.214	0.0005615	P_RES
J66_34	289.699	0.0032010	P_IND
J66_35	296.308	0.0026544	P_COM
J66_36	303.494	0.0043280	P_IND
J66_37	308.619	0.0013587	P_RES
J66_38	316.148	0.0022036	P_RES
J66_39	322.901	0.0012693	P_RES
J66_40	328.710	0.0028976	P_COM
J66_41	336.639	0.0047793	P_COM
J66_42	343.450	0.0023192	P_IND
J66_43	350.414	0.0012432	P_RES
J66_44	355.702	0.0026051	P_IND
J66_45	363.214	0.0020044	P_IND
J66_46	369.623	0.0015906	P_RES
J66_47	375.968	0.0024008	P_COM
J66_48	383.294	0.0010111	P_COM
J66_49	389.353	0.0012228	P_RES
J66_50	395.306	0.0005019	P_RES
J66_51	403.272	0.0011461	P_RES
J66_52	408.859	0.0009964	P_RES
J67_1	56.087	0.0012529	P_RES
J67_2	62.518	0.0008900	P_RES
J67_3	71.067	0.0019856	P_RES
J67_4	77.140	0.0012996	P_RES
J67_5	85.208	0.0008785	P_RES
J67_6	92.789	0.0008127	P_RES
J67_7	97.805	0.0026548	P_COM
J67_8	106.719	0.0010007	P_RES
J67_9	112.099	0.0025486	P_COM
J67_10	120.826	0.0052762	P_IND
J67_11	126.392	0.0018341	P_RES
J67_12	133.997	0.0018695	P_RES
J67_13	140.734	0.0008026	P_RES
J67_14	148.092	0.0013808	P_RES
J67_15	154.572	0.0024077	P_COM
J67_16	161.690	0.0018386	P_COM
J67_17	168.489	0.0012610	P_RES
J67_18	175.622	0.0015151	P_RES
J67_19	183.944	0.0020971	P_RES
J67_20	191.337	0.0016886	P_RES
J67_21	197.083	0.0007269	P_RES
J67_22	204.546	0.0017159	P_RES
J67_23	210.248	0.0018795	P_COM
J67_24	217.736	0.0012605	P_COM
J67_25	225.459	0.0003741	P_RES
J67_26	232.118	0.0024344	P_COM
J67_27	240.012	0.0075093	P_IND
J67_28	245.090	0.0025006	P_COM
J67_29	253.522	0.0008439	P_RES
J67_30	260.728	0.0004090	P_RES
J67_31	266.852	0.0009175	P_RES
J67_32	273.329	0.0023019	P_RES
J67_33	281.374	0.0011526	P_RES
J67_34	286.120	0.0018705	P_COM
J67_35	294.356	0.0030998	P_IND
J67_36	301.466	0.0004269	P_RES
J67_37	307.846	0.0021229	P_COM
J67_38	313.032	0.0012730	P_RES
J67_39	320.375	0.0045312	P_RES
J67_40	327.208	0.0026518	P_COM
J67_41	334.480	0.0020672	P_RES
J67_42	341.329	0.0019569	P_COM
J67_43	346.785	0.0027223	P_COM
J67_44	355.289	0.0008363	P_RES
J67_45	359.866	0.0010694	P_RES
J67_46	366.778	0.0012278	P_COM
J67_47	373.484	0.0018512	P_RES
J67_48	380.433	0.0012637	P_RES
J67_49	388.512	0.0010926	P_RES
J67_50	394.287	0.0021089	P_IND
J67_51	399.550	0.0008447	P_RES
J67_52	406.140	0.0027058	P_COM
J68_1	55.404	0.0019589	P_COM
J68_2	61.565	0.0022043	P_COM
J68_3	70.035	0.0010423	P_RES
J68_4	75.870	0.0013853	P_RES
J68_5	83.767	0.0025760	P_IND
J68_6	91.187	0.0008996	P_COM
J68_7	97.609	0.0013299	P_RES
J68_8	105.342	0.0013814	P_RES
J68_9	110.618	0.0023886	P_RES
J68_10	119.569	0.0006618	P_RES
J68_11	125.270	0.0007604	P_RES
J68_12	133.004	0.0032208	P_COM
J68_13	140.075	0.0009964	P_RES
J68_14	147.481	0.0017092	P_RES
J68_15	154.344	0.0022195	P_IND
J68_16	159.793	0.0015757	P_RES
J68_17	168.654	0.0007532	P_RES
J68_18	175.494	0.0025812	P_COM
J68_19	181.058	0.0016599	P_RES
J68_20	188.862	0.0013527	P_RES
J68_21	194.713	0.0014175	P_RES
J68_22	202.134	0.0012379	P_RES
J68_23	208.694	0.0008718	P_RES
J68_24	215.943	0.0012397	P_RES
J68_25	224.437	0.0007026	P_RES
J68_26	230.570	0.0026476	P_RES
J68_27	236.190	0.0005002	P_RES
J68_28	243.279	0.0011324	P_RES
J68_29	251.682	0.0005035	P_RES
J68_30	258.607	0.0018289	P_RES
J68_31	265.540	0.0009660	P_RES
J68_32	272.414	0.0017649	P_RES
J68_33	278.416	0.0013162	P_RES
J68_34	284.622	0.0017174	P_RES
J68_35	292.155	0.0009120	P_COM
J68_36	297.911	0.0025449	P_IND
J68_37	305.165	0.0007256	P_RES
J68_38	311.994	0.0022713	P_RES
J68_39	319.136	0.0016194	P_RES
J68_40	326.549	0.0019874	P_COM
J68_41	332.401	0.0004572	P_RES
J68_42	338.559	0.0010410	P_COM
J68_43	346.474	0.0012844	P_RES
J68_44	351.818	0.0017913	P_RES
J68_45	358.605	0.0016789	P_RES
J68_46	366.020	0.0011397	P_RES
J68_47	371.812	0.0046161	P_IND
J68_48	378.513	0.0005239	P_RES
J68_49	386.820	0.0007702	P_COM
J68_50	393.444	0.0016959	P_RES
J68_51	398.383	0.0010697	P_RES
J68_52	404.500	0.0038538	P_COM
J69_1	51.756	0.0028741	P_COM
J69_2	61.145	0.0005818	P_RES
J69_3	67.096	0.0026112	P_COM
J69_4	73.572	0.0017290	P_RES
J69_5	82.126	0.0013390	P_RES
J69_6	87.419	0.0010819	P_COM
J69_7	94.399	0.0028845	P_IND
J69_8	103.478	0.0017904	P_RES
J69_9	109.202	0.0016101	P_IND
J69_10	115.681	0.0022739	P_RES
J69_11	124.811	0.0011885	P_COM
J69_12	131.110	0.0013441	P_RES
J69_13	138.756	0.0028782	P_COM
J69_14	144.939	0.0014178	P_RES
J69_15	150.957	0.0012708	P_RES
J69_16	158.432	0.0005222	P_RES
J69_17	165.282	0.0014006	P_RES
J69_18	173.197	0.0010117	P_RES
J69_19	180.359	0.0012447	P_COM
J69_20	187.403	0.0020877	P_COM
J69_21	193.594	0.0014691	P_RES
J69_22	201.749	0.0027980	P_RES
J69_23	207.914	0.0013363	P_RES
J69_24	214.265	0.0010764	P_RES
J69_25	220.785	0.0029142	P_IND
J69_26	229.044	0.0028762	P_RES
J69_27	235.190	0.0016576	P_RES
J69_28	243.659	0.0011949	P_RES
J69_29	250.511	0.0011666	P_RES
J69_30	256.336	0.0006340	P_RES
J69_31	264.108	0.0038777	P_IND
J69_32	270.141	0.0011612	P_RES
J69_33	276.297	0.0031650	P_IND
J69_34	282.827	0.0041884	P_IND
J69_35	289.743	0.0014488	P_COM
J69_36	297.358	0.0023447	P_RES
J69_37	304.062	0.0034697	P_COM
J69_38	311.121	0.0024751	P_COM
J69_39	318.555	0.0028052	P_COM
J69_40	325.090	0.0012583	P_RES
J69_41	330.923	0.0016671	P_COM
J69_42	338.731	0.0020342	P_RES
J69_43	343.412	0.0012043	P_RES
J69_44	350.372	0.0012505	P_COM
J69_45	358.680	0.0015459	P_RES
J69_46	365.283	0.0016359	P_RES
J69_47	370.153	0.0015177	P_RES
J69_48	377.603	0.0011941	P_RES
J69_49	385.210	0.0011904	P_RES
J69_50	389.682	0.0009467	P_RES
J69_51	396.635	0.0011638	P_RES
J69_52	403.751	0.0015792	P_RES
J70_1	52.374	0.0016726	P_RES
J70_2	59.016	0.0009950	P_RES
J70_3	65.238	0.0008046	P_RES
J70_4	72.857	0.0023195	P_RES
J70_5	79.553	0.0023986	P_IND
J70_6	87.856	0.0018615	P_RES
J70_7	94.062	0.0033566	P_IND
J70_8	101.236	0.0026402	P_COM
J70_9	108.303	0.0029806	P_COM
J70_10	116.015	0.0014754	P_RES
J70_11	122.012	0.0012042	P_COM
J70_12	128.743	0.0045699	P_IND
J70_13	135.767	0.0008825	P_RES
J70_14	142.936	0.0014364	P_COM
J70_15	150.349	0.0008539	P_RES
J70_16	157.407	0.0010814	P_RES
J70_17	163.405	0.0013574	P_RES
J70_18	171.696	0.0027049	P_IND
J70_19	178.043	0.0009355	P_RES
J70_20	185.010	0.0008747	P_RES
J70_21	191.796	0.0015977	P_IND
J70_22	200.139	0.0012059	P_COM
J70_23	207.336	0.0025160	P_RES
J70_24	213.110	0.0014168	P_RES
J70_25	220.546	0.0016942	P_RES
J70_26	225.855	0.0037447	P_COM
J70_27	232.755	0.0011451	P_COM
J70_28	240.609	0.0010545	P_RES
J70_29	248.210	0.0011409	P_RES
J70_30	254.685	0.0008410	P_RES
J70_31	261.211	0.0015528	P_RES
J70_32	268.131	0.0024586	P_COM
J70_33	274.509	0.0012818	P_RES
J70_34	283.002	0.0020931	P_COM
J70_35	288.636	0.0027814	P_COM
J70_36	295.501	0.0010889	P_RES
J70_37	301.702	0.0012350	P_RES
J70_38	310.095	0.0022680	P_COM
J70_39	315.658	0.0026892	P_RES
J70_40	322.463	0.0021376	P_RES
J70_41	329.497	0.0043557	P_IND
J70_42	336.892	0.0017408	P_RES
J70_43	342.351	0.0012596	P_RES
J70_44	348.157	0.0026042	P_IND
J70_45	356.112	0.0017939	P_RES
J70_46	363.326	0.0019466	P_IND
J70_47	369.352	0.0007918	P_RES
J70_48	376.060	0.0010133	P_RES
J70_49	382.569	0.0009036	P_RES
J70_50	389.636	0.0010816	P_RES
J70_51	395.405	0.0046682	P_COM
J70_52	401.716	0.0014951	P_RES
J71_1	49.660	0.0022331	P_IND
J71_2	57.375	0.0026121	P_IND
J71_3	62.565	0.0025912	P_COM
J71_4	71.635	0.0017492	P_COM
J71_5	78.755	0.0023087	P_COM
J71_6	85.253	0.0013692	P_RES
J71_7	92.334	0.0012038	P_RES
J71_8	98.110	0.0018839	P_RES
J71_9	105.499	0.0041603	P_IND
J71_10	114.186	0.0013537	P_RES
J71_11	121.253	0.0019335	P_RES
J71_12	126.647	0.0047039	P_IND
J71_13	135.535	0.0008260	P_RES
J71_14	142.632	0.0025087	P_IND
J71_15	147.666	0.0038899	P_RES
J71_16	155.440	0.0013423	P_RES
J71_17	162.576	0.0006504	P_RES
J71_18	170.258	0.0019692	P_COM
J71_19	176.147	0.0017275	P_IND
J71_20	182.600	0.0018905	P_COM
J71_21	191.366	0.0015569	P_RES
J71_22	197.817	0.0009298	P_RES
J71_23	205.168	0.0031747	P_IND
J71_24	211.493	0.0007998	P_RES
J71_25	217.804	0.0006978	P_RES
J71_26	224.670	0.0024779	P_RES
J71_27	232.482	0.0013020	P_RES
J71_28	238.664	0.0039397	P_COM
J71_29	245.276	0.0009381	P_RES
J71_30	252.217	0.0007087	P_RES
J71_31	260.420	0.0013017	P_COM
J71_32	266.718	0.0013381	P_RES
J71_33	273.353	0.0030723	P_IND
J71_34	280.254	0.0022921	P_COM
J71_35	285.879	0.0031082	P_COM
J71_36	293.821	0.0013447	P_COM
J71_37	300.139	0.0017481	P_RES
J71_38	308.358	0.0012338	P_RES
J71_39	314.891	0.0006545	P_RES
J71_40	321.379	0.0010952	P_RES
J71_41	326.737	0.0021375	P_RES
J71_42	335.132	0.0041314	P_RES
J71_43	341.544	0.0017562	P_RES
J71_44	347.985	0.0038285	P_IND
J71_45	353.456	0.0027844	P_IND
J71_46	360.641	0.0006016	P_RES
J71_47	367.732	0.0020599	P_IND
J71_48	374.797	0.0012398	P_COM
J71_49	379.790	0.0021472	P_COM
J71_50	388.217	0.0012456	P_RES
J71_51	392.978	0.0016828	P_COM
J71_52	400.870	0.0013299	P_COM
J72_1	46.946	0.0014776	P_COM
J72_2	53.805	0.0011986	P_RES
J72_3	61.028	0.0027783	P_COM
J72_4	69.813	0.0014413	P_RES
J72_5	75.123	0.0005192	P_RES
J72_6	82.971	0.0007853	P_RES
J72_7	89.863	0.0015164	P_RES
J72_8	96.561	0.0015529	P_RES
J72_9	105.510	0.0006810	P_RES
J72_10	111.984	0.0018715	P_RES
J72_11	118.530	0.0015486	P_RES
J72_12	125.969	0.0020544	P_RES
J72_13	132.093	0.0013166	P_RES
J72_14	140.184	0.0012290	P_RES
J72_15	146.547	0.0026369	P_COM
J72_16	153.579	0.0036604	P_COM
J72_17	161.183	0.0015710	P_RES
J72_18	168.556	0.0036877	P_IND
J72_19	173.896	0.0024488	P_COM
J72_20	182.608	0.0020981	P_RES
J72_21	187.912	0.0019610	P_RES
J72_22	194.911	0.0022735	P_COM
J72_23	201.928	0.0013102	P_RES
J72_24	208.843	0.0012834	P_RES
J72_25	216.476	0.0014804	P_RES
J72_26	224.543	0.0008814	P_RES
J72_27	231.261	0.0012254	P_RES
J72_28	236.760	0.0020964	P_RES
J72_29	243.327	0.0017298	P_RES
J72_30	251.651	0.0048394	P_IND
J72_31	258.627	0.0012316	P_RES
J72_32	265.822	0.0016842	P_RES
J72_33	272.428	0.0040139	P_IND
J72_34	279.102	0.0021889	P_COM
J72_35	285.432	0.0006808	P_RES
J72_36	291.619	0.0009637	P_RES
J72_37	298.183	0.0008309	P_RES
J72_38	304.697	0.0025592	P_RES
J72_39	311.231	0.0025069	P_IND
J72_40	318.449	0.0022399	P_RES
J72_41	325.073	0.0012429	P_COM
J72_42	332.362	0.0005733	P_RES
J72_43	339.753	0.0008263	P_RES
J72_44	346.010	0.0010204	P_RES
J72_45	353.205	0.0013462	P_RES
J72_46	359.634	0.0024304	P_RES
J72_47	365.117	0.0005127	P_RES
J72_48	371.222	0.0013243	P_RES
J72_49	377.832	0.0009412	P_RES
J72_50	385.297	0.0019952	P_RES
J72_51	393.069	0.0027740	P_COM
J72_52	397.708	0.0018887	P_RES
J73_1	45.448	0.0031672	P_IND
J73_2	53.279	0.0015345	P_RES
J73_3	59.753	0.0019524	P_COM
J73_4	67.006	0.0004758	P_RES
J73_5	74.174	0.0012913	P_RES
J73_6	82.389	0.0033386	P_IND
J73_7	87.653	0.0016835	P_RES
J73_8	94.692	0.0019174	P_RES
J73_9	102.402	0.0007269	P_RES
J73_10	110.126	0.0021340	P_RES
J73_11	117.063	0.0016867	P_RES
J73_12	123.308	0.0009213	P_RES
J73_13	131.255	0.0013052	P_RES
J73_14	137.325	0.0008491	P_RES
J73_15	145.537	0.0017651	P_RES
J73_16	151.376	0.0013131	P_RES
J73_17	158.373	0.0032232	P_COM
J73_18	166.827	0.0018026	P_RES
J73_19	172.734	0.0003394	P_RES
J73_20	181.097	0.0024788	P_IND
J73_21	188.297	0.0031740	P_IND
J73_22	194.608	0.0014023	P_RES
J73_23	200.299	0.0005470	P_RES
J73_24	208.275	0.0008112	P_RES
J73_25	213.911	0.0013569	P_RES
J73_26	221.472	0.0017962	P_COM
J73_27	227.809	0.0009177	P_RES
J73_28	234.738	0.0009584	P_RES
J73_29	243.160	0.0023979	P_RES
J73_30	248.881	0.0013208	P_COM
J73_31	256.108	0.0011491	P_RES
J73_32	262.757	0.0028896	P_RES
J73_33	269.755	0.0018095	P_IND
J73_34	277.525	0.0040998	P_COM
J73_35	283.901	0.0023396	P_RES
J73_36	290.800	0.0008912	P_RES
J73_37	297.698	0.0041540	P_COM
J73_38	305.137	0.0022071	P_IND
J73_39	311.526	0.0035771	P_COM
J73_40	317.384	0.0006963	P_RES
J73_41	324.639	0.0007127	P_RES
J73_42	331.935	0.0031310	P_COM
J73_43	338.569	0.0033782	P_COM
J73_44	343.316	0.0018671	P_RES
J73_45	351.004	0.0004048	P_RES
J73_46	357.285	0.0012187	P_COM
J73_47	363.247	0.0014363	P_COM
J73_48	370.929	0.0009437	P_RES
J73_49	376.788	0.0012901	P_COM
J73_50	383.811	0.0008143	P_RES
J73_51	390.619	0.0010703	P_RES
J73_52	397.601	0.0010652	P_RES
J74_1	43.759	0.0014286	P_RES
J74_2	51.449	0.0019389	P_COM
J74_3	58.408	0.0016109	P_RES
J74_4	66.210	0.0012091	P_RES
J74_5	73.734	0.0022715	P_COM
J74_6	80.699	0.0012418	P_RES
J74_7	88.197	0.0008672	P_RES
J74_8	94.260	0.0025824	P_IND
J74_9	101.314	0.0024653	P_RES
J74_10	109.176	0.0010224	P_COM
J74_11	114.378	0.0016988	P_COM
J74_12	123.501	0.0017110	P_RES
J74_13	129.659	0.0009269	P_RES
J74_14	135.484	0.0014757	P_RES
J74_15	144.405	0.0009604	P_RES
J74_16	149.959	0.0023294	P_RES
J74_17	156.496	0.0007878	P_RES
J74_18	165.841	0.0029938	P_IND
J74_19	172.311	0.0013020	P_RES
J74_20	178.189	0.0028994	P_COM
J74_21	184.454	0.0008586	P_RES
J74_22	193.659	0.0021411	P_RES
J74_23	198.736	0.0029674	P_RES
J74_24	205.873	0.0046287	P_IND
J74_25	212.558	0.0008480	P_RES
J74_26	219.511	0.0005079	P_RES
J74_27	226.364	0.0020386	P_RES
J74_28	233.856	0.0026792	P_COM
J74_29	241.581	0.0022675	P_RES
J74_30	246.826	0.0018454	P_RES
J74_31	254.680	0.0010712	P_RES
J74_32	262.657	0.0011200	P_RES
J74_33	268.648	0.0015200	P_RES
J74_34	274.697	0.0007731	P_RES
J74_35	280.837	0.0029886	P_RES
J74_36	289.988	0.0010216	P_RES
J74_37	294.868	0.0007175	P_RES
J74_38	303.108	0.0014348	P_COM
J74_39	308.935	0.0033297	P_COM
J74_40	316.074	0.0013740	P_RES
J74_41	322.584	0.0008328	P_RES
J74_42	329.066	0.0006607	P_RES
J74_43	335.757	0.0018973	P_RES
J74_44	343.342	0.0024817	P_IND
J74_45	348.750	0.0011934	P_RES
J74_46	354.810	0.0013986	P_RES
J74_47	362.405	0.0032082	P_RES
J74_48	369.301	0.0022562	P_COM
J74_49	375.508	0.0012533	P_RES
J74_50	382.393	0.0023279	P_COM
J74_51	387.957	0.0009324	P_RES
J74_52	395.405	0.0007498	P_RES
J75_1	43.105	0.0031853	P_RES
J75_2	50.396	0.0014212	P_RES
J75_3	57.397	0.0018289	P_RES
J75_4	63.019	0.0036706	P_COM
J75_5	71.140	0.0038397	P_IND
J75_6	79.538	0.0036369	P_RES
J75_7	86.053	0.0020628	P_RES
J75_8	92.518	0.0017834	P_RES
J75_9	98.480	0.0009802	P_RES
J75_10	105.972	0.0021582	P_RES
J75_11	113.556	0.0017146	P_COM
J75_12	121.438	0.0012417	P_RES
J75_13	127.102	0.0010828	P_RES
J75_14	134.834	0.0009802	P_RES
J75_15	142.412	0.0023732	P_RES
J75_16	148.825	0.0008362	P_RES
J75_17	155.022	0.0009764	P_RES
J75_18	162.436	0.0008901	P_RES
J75_19	169.148	0.0009380	P_RES
J75_20	176.542	0.0015349	P_RES
J75_21	184.524	0.0009982	P_RES
J75_22	190.384	0.0012374	P_RES
J75_23	197.348	0.0033721	P_IND
J75_24	204.178	0.0011060	P_RES
J75_25	212.237	0.0014362	P_RES
J75_26	219.057	0.0009243	P_COM
J75_27	226.582	0.0009970	P_RES
J75_28	233.159	0.0031393	P_COM
J75_29	239.414	0.0014187	P_RES
J75_30	247.154	0.0015176	P_RES
J75_31	253.596	0.0012479	P_RES
J75_32	260.396	0.0009085	P_RES
J75_33	267.183	0.0012196	P_RES
J75_34	273.281	0.0019446	P_RES
J75_35	281.228	0.0022764	P_COM
J75_36	286.889	0.0028278	P_RES
J75_37	294.501	0.0012517	P_RES
J75_38	301.832	0.0008327	P_RES
J75_39	308.091	0.0012818	P_RES
J75_40	314.254	0.0011025	P_COM
J75_41	321.745	0.0016819	P_COM
J75_42	328.364	0.0025837	P_IND
J75_43	334.546	0.0015386	P_RES
J75_44	339.770	0.0029427	P_COM
J75_45	347.288	0.0017935	P_RES
J75_46	353.232	0.0017028	P_RES
J75_47	360.680	0.0024383	P_RES
J75_48	366.279	0.0024287	P_COM
J75_49	375.181	0.0027505	P_COM
J75_50	380.609	0.0010380	P_RES
J75_51	386.437	0.0012494	P_RES
J75_52	394.100	0.0009088	P_COM
J76_1	40.899	0.0010647	P_RES
J76_2	48.294	0.0036162	P_COM
J76_3	55.112	0.0015496	P_RES
J76_4	62.713	0.0025561	P_RES
J76_5	69.934	0.0023663	P_COM
J76_6	75.873	0.0004496	P_RES
J76_7	84.866	0.0037511	P_IND
J76_8	91.219	0.0015996	P_COM
J76_9	98.766	0.0027278	P_COM
J76_10	105.161	0.0011191	P_COM
J76_11	111.465	0.0036337	P_IND
J76_12	119.364	0.0007467	P_RES
J76_13	126.845	0.0009054	P_RES
J76_14	132.120	0.0007938	P_RES
J76_15	141.431	0.0018415	P_RES
J76_16	147.292	0.0013900	P_RES
J76_17	154.822	0.0044662	P_IND
J76_18	161.780	0.0006843	P_RES
J76_19	168.604	0.0027175	P_COM
J76_20	175.246	0.0006796	P_RES
J76_21	182.130	0.0026432	P_RES
J76_22	189.182	0.0009464	P_RES
J76_23	196.156	0.0030842	P_RES
J76_24	203.980	0.0014921	P_RES
J76_25	210.714	0.0028945	P_IND
J76_26	215.874	0.0005540	P_RES
J76_27	223.801	0.0037912	P_COM
J76_28	230.829	0.0010042	P_RES
J76_29	238.720	0.0008940	P_RES
J76_30	243.706	0.0014198	P_RES
J76_31	250.510	0.0018048	P_RES
J76_32	257.400	0.0010311	P_RES
J76_33	264.682	0.0013012	P_COM
J76_34	273.077	0.0010180	P_RES
J76_35	279.728	0.0006010	P_RES
J76_36	286.710	0.0012926	P_COM
J76_37	291.522	0.0006059	P_RES
J76_38	297.858	0.0011407	P_RES
J76_39	305.304	0.0035951	P_IND
J76_40	312.772	0.0020314	P_RES
J76_41	319.349	0.0005635	P_RES
J76_42	325.373	0.0038682	P_COM
J76_43	331.669	0.0017747	P_COM
J76_44	338.554	0.0030250	P_RES
J76_45	345.416	0.0017843	P_COM
J76_46	352.084	0.0013488	P_RES
J76_47	360.211	0.0012501	P_RES
J76_48	365.983	0.0017147	P_COM
J76_49	373.202	0.0012461	P_RES
J76_50	378.019	0.0033407	P_COM
J76_51	385.327	0.0012730	P_RES
J76_52	392.798	0.0026843	P_RES
J77_1	39.436	0.0017542	P_RES
J77_2	46.218	0.0018153	P_RES
J77_3	54.065	0.0022359	P_COM
J77_4	61.705	0.0008008	P_RES
J77_5	68.942	0.0032299	P_RES
J77_6	75.670	0.0019057	P_RES
J77_7	82.003	0.0018487	P_COM
J77_8	89.541	0.0011909	P_RES
J77_9	96.690	0.0009387	P_RES
J77_10	104.327	0.0005457	P_RES
J77_11	109.978	0.0009008	P_RES
J77_12	117.921	0.0010824	P_RES
J77_13	123.726	0.0024641	P_IND
J77_14	131.257	0.0021903	P_IND
J77_15	137.500	0.0018787	P_COM
J77_16	145.900	0.0015454	P_RES
J77_17	151.568	0.0008119	P_RES
J77_18	159.984	0.0011826	P_RES
J77_19	166.955	0.0009186	P_RES
J77_20	172.677	0.0032555	P_RES
J77_21	180.460	0.0011031	P_RES
J77_22	187.656	0.0028027	P_IND
J77_23	194.609	0.0014217	P_RES
J77_24	201.062	0.0007619	P_RES
J77_25	208.558	0.0032970	P_IND
J77_26	215.673	0.0015919	P_RES
J77_27	221.496	0.0010570	P_RES
J77_28	230.306	0.0013255	P_RES
J77_29	236.362	0.0006297	P_RES
J77_30	242.609	0.0034583	P_COM
J77_31	249.061	0.0033126	P_RES
J77_32	255.576	0.0007625	P_RES
J77_33	263.551	0.0026378	P_RES
J77_34	270.807	0.0024457	P_RES
J77_35	276.828	0.0015125	P_RES
J77_36	284.373	0.0004909	P_RES
J77_37	290.120	0.0010723	P_RES
J77_38	298.038	0.0019869	P_RES
J77_39	304.327	0.0011290	P_RES
J77_40	310.747	0.0005492	P_RES
J77_41	317.052	0.0020195	P_COM
J77_42	324.181	0.0018057	P_COM
J77_43	330.318	0.0019474	P_IND
J77_44	338.643	0.0010874	P_RES
J77_45	343.897	0.0043515	P_IND
J77_46	351.008	0.0010270	P_COM
J77_47	357.489	0.0032629	P_RES
J77_48	362.988	0.0030719	P_IND
J77_49	371.916	0.0016242	P_COM
J77_50	376.667	0.0027273	P_RES
J77_51	384.937	0.0018211	P_RES
J77_52	390.560	0.0016493	P_COM
J78_1	37.917	0.0008849	P_RES
J78_2	45.290	0.0014673	P_RES
J78_3	52.918	0.0020218	P_COM
J78_4	58.993	0.0014920	P_RES
J78_5	65.388	0.0014919	P_RES
J78_6	73.829	0.0011193	P_RES
J78_7	80.711	0.0019751	P_COM
J78_8	88.201	0.0018094	P_RES
J78_9	93.821	0.0010613	P_RES
J78_10	101.683	0.0026099	P_RES
J78_11	109.294	0.0011231	P_RES
J78_12	116.249	0.0022556	P_RES
J78_13	122.858	0.0009673	P_RES
J78_14	130.863	0.0017937	P_COM
J78_15	135.941	0.0007426	P_RES
J78_16	143.725	0.0022901	P_IND
J78_17	151.265	0.0015191	P_RES
J78_18	158.750	0.0019520	P_RES
J78_19	164.674	0.0005899	P_RES
J78_20	172.928	0.0013978	P_RES
J78_21	178.369	0.0026869	P_IND
J78_22	186.987	0.0011265	P_RES
J78_23	192.022	0.0011436	P_RES
J78_24	199.888	0.0010630	P_RES
J78_25	208.043	0.0041715	P_IND
J78_26	213.685	0.0013182	P_RES
J78_27	220.125	0.0010220	P_RES
J78_28	226.675	0.0022714	P_COM
J78_29	233.752	0.0022427	P_IND
J78_30	240.850	0.0017296	P_RES
J78_31	249.356	0.0008181	P_RES
J78_32	255.747	0.0013992	P_RES
J78_33	262.545	0.0026976	P_RES
J78_34	269.799	0.0013373	P_RES
J78_35	275.937	0.0015042	P_RES
J78_36	282.032	0.0015941	P_RES
J78_37	290.220	0.0013461	P_RES
J78_38	295.845	0.0015414	P_RES
J78_39	302.010	0.0020033	P_COM
J78_40	309.540	0.0011155	P_RES
J78_41	314.901	0.0025751	P_COM
J78_42	322.433	0.0030129	P_RES
J78_43	330.386	0.0040491	P_IND
J78_44	336.797	0.0018142	P_RES
J78_45	342.470	0.0012442	P_RES
J78_46	349.778	0.0039787	P_IND
J78_47	356.007	0.0018289	P_RES
J78_48	362.530	0.0017671	P_RES
J78_49	369.315	0.0016462	P_COM
J78_50	375.905	0.0037044	P_IND
J78_51	382.417	0.0010954	P_RES
J78_52	388.554	0.0010657	P_RES


[RESERVOIRS]
;ID	Head	Pattern
R1	240.000


[TANKS]
;ID	Elev	InitLevel	MinLevel	MaxLevel	Diameter	MinVol	VolCurve
T1	177.624	10.000	4.000	16.000	61.000	0.000
T2	306.652	10.000	4.000	16.000	67.000	0.000
T3	432.735	10.000	4.000	16.000	73.000	0.000


[PIPES]
;ID	Node1	Node2	Length	Diameter	Roughness	MinorLoss	Status
P1	J1_1	J1_2	150.00	350.0	120.0	0.0100	Open
P2	J1_1	J2_1	150.00	400.0	130.0	0.0425	Open
P3	J1_2	J1_3	150.00	350.0	125.0	0.0397	Open
P4	J1_2	J2_2	150.00	350.0	120.0	0.0188	Open
P5	J1_3	J1_4	150.00	300.0	125.0	0.0137	Open
P6	J1_3	J2_3	150.00	300.0	125.0	0.0102	Open
P7	J1_4	J1_5	150.00	400.0	120.0	0.0062	Open
P8	J1_4	J2_4	150.00	600.0	120.0	0.0366	Open
P9	J1_5	J1_6	150.00	300.0	120.0	0.0355	Open
P10	J1_5	J2_5	150.00	400.0	120.0	0.0412	Open
P11	J1_6	J1_7	150.00	450.0	130.0	0.0304	Open
P12	J1_6	J2_6	150.00	450.0	120.0	0.0471	Open
P13	J1_7	J1_8	150.00	400.0	130.0	0.0036	Open
P14	J1_7	J2_7	150.00	350.0	130.0	0.0141	Open
P15	J1_8	J1_9	150.00	350.0	130.0	0.0356	Open
P16	J1_8	J2_8	150.00	300.0	120.0	0.0238	Open
P17	J1_9	J1_10	150.00	350.0	125.0	0.0194	Open
P18	J1_9	J2_9	150.00	600.0	125.0	0.0422	Open
P19	J1_10	J1_11	150.00	600.0	125.0	0.0016	Open
P20	J1_10	J2_10	150.00	600.0	125.0	0.0432	Open
P21	J1_11	J1_12	150.00	300.0	125.0	0.0006	Open
P22	J1_11	J2_11	150.00	450.0	130.0	0.0048	Open
P23	J1_12	J1_13	150.00	500.0	130.0	0.0313	Open
P24	J1_12	J2_12	150.00	300.0	125.0	0.0331	Open
P25	J1_13	J1_14	150.00	600.0	120.0	0.0188	Open
P26	J1_13	J2_13	150.00	400.0	125.0	0.0267	Open
P27	J1_14	J1_15	150.00	600.0	125.0	0.0120	Open
P28	J1_14	J2_14	150.00	300.0	125.0	0.0442	Open
P29	J1_15	J1_16	150.00	500.0	130.0	0.0283	Open
P30	J1_15	J2_15	150.00	300.0	130.0	0.0303	Open
P31	J1_16	J1_17	150.00	600.0	120.0	0.0097	Open
P32	J1_16	J2_16	150.00	350.0	125.0	0.0492	Open
P33	J1_17	J1_18	150.00	350.0	130.0	0.0263	Open
P34	J1_17	J2_17	150.00	600.0	125.0	0.0103	Open
P35	J1_18	J1_19	150.00	400.0	125.0	0.0211	Open
P36	J1_18	J2_18	150.00	300.0	120.0	0.0417	Open
P37	J1_19	J1_20	150.00	300.0	120.0	0.0078	Open
P38	J1_19	J2_19	150.00	600.0	120.0	0.0396	Open
P39	J1_20	J1_21	150.00	350.0	120.0	0.0480	Open
P40	J1_20	J2_20	150.00	300.0	130.0	0.0267	Open
P41	J1_21	J1_22	150.00	400.0	130.0	0.0048	Open
P42	J1_21	J2_21	150.00	450.0	125.0	0.0032	Open
P43	J1_22	J1_23	150.00	500.0	130.0	0.0054	Open
P44	J1_22	J2_22	150.00	600.0	125.0	0.0455	Open
P45	J1_23	J1_24	150.00	400.0	130.0	0.0015	Open
P46	J1_23	J2_23	150.00	600.0	125.0	0.0277	Open
P47	J1_24	J1_25	150.00	300.0	125.0	0.0089	Open
P48	J1_24	J2_24	150.00	500.0	130.0	0.0306	Open
P49	J1_25	J1_26	150.00	350.0	120.0	0.0208	Open
P50	J1_25	J2_25	150.00	300.0	120.0	0.0182	Open
P51	J1_26	J1_27	150.00	500.0	125.0	0.0251	Open
P52	J1_26	J2_26	150.00	300.0	120.0	0.0020	Open
P53	J1_27	J1_28	150.00	300.0	120.0	0.0040	Open
P54	J1_27	J2_27	150.00	300.0	125.0	0.0092	Open
P55	J1_28	J1_29	150.00	500.0	120.0	0.0073	Open
P56	J1_28	J2_28	150.00	400.0	120.0	0.0390	Open
P57	J1_29	J1_30	150.00	400.0	120.0	0.0355	Open
P58	J1_29	J2_29	150.00	300.0	125.0	0.0441	Open
P59	J1_30	J1_31	150.00	350.0	120.0	0.0255	Open
P60	J1_30	J2_30	150.00	300.0	125.0	0.0317	Open
P61	J1_31	J1_32	150.00	450.0	120.0	0.0083	Open
P62	J1_31	J2_31	150.00	600.0	120.0	0.0224	Open
P63	J1_32	J1_33	150.00	350.0	125.0	0.0213	Open
P64	J1_32	J2_32	150.00	600.0	130.0	0.0128	Open
P65	J1_33	J1_34	150.00	400.0	120.0	0.0198	Open
P66	J1_33	J2_33	150.00	300.0	125.0	0.0299	Open
P67	J1_34	J1_35	150.00	400.0	125.0	0.0297	Open
P68	J1_34	J2_34	150.00	350.0	125.0	0.0147	Open
P69	J1_35	J1_36	150.00	300.0	125.0	0.0380	Open
P70	J1_35	J2_35	150.00	350.0	125.0	0.0270	Open
P71	J1_36	J1_37	150.00	300.0	125.0	0.0151	Open
P72	J1_36	J2_36	150.00	600.0	130.0	0.0360	Open
P73	J1_37	J1_38	150.00	600.0	120.0	0.0189	Open
P74	J1_37	J2_37	150.00	300.0	125.0	0.0416	Open
P75	J1_38	J1_39	150.00	300.0	130.0	0.0168	Open
P76	J1_38	J2_38	150.00	600.0	120.0	0.0124	Open
P77	J1_39	J1_40	150.00	500.0	120.0	0.0318	Open
P78	J1_39	J2_39	150.00	350.0	125.0	0.0204	Open
P79	J1_40	J1_41	150.00	300.0	125.0	0.0314	Open
P80	J1_40	J2_40	150.00	400.0	130.0	0.0090	Open
P81	J1_41	J1_42	150.00	400.0	120.0	0.0194	Open
P82	J1_41	J2_41	150.00	500.0	130.0	0.0149	Open
P83	J1_42	J1_43	150.00	400.0	130.0	0.0106	Open
P84	J1_42	J2_42	150.00	500.0	130.0	0.0319	Open
P85	J1_43	J1_44	150.00	500.0	130.0	0.0373	Open
P86	J1_43	J2_43	150.00	600.0	125.0	0.0138	Open
P87	J1_44	J1_45	150.00	400.0	130.0	0.0301	Open
P88	J1_44	J2_44	150.00	400.0	120.0	0.0327	Open
P89	J1_45	J1_46	150.00	500.0	125.0	0.0385	Open
P90	J1_45	J2_45	150.00	300.0	125.0	0.0448	Open
P91	J1_46	J1_47	150.00	500.0	130.0	0.0324	Open
P92	J1_46	J2_46	150.00	500.0	130.0	0.0010	Open
P93	J1_47	J1_48	150.00	350.0	130.0	0.0210	Open
P94	J1_47	J2_47	150.00	400.0	130.0	0.0455	Open
P95	J1_48	J1_49	150.00	500.0	120.0	0.0124	Open
P96	J1_48	J2_48	150.00	450.0	125.0	0.0197	Open
P97	J1_49	J1_50	150.00	450.0	120.0	0.0293	Open
P98	J1_49	J2_49	150.00	400.0	130.0	0.0166	Open
P99	J1_50	J1_51	150.00	450.0	130.0	0.0074	Open
P100	J1_50	J2_50	150.00	500.0	120.0	0.0396	Open
P101	J1_51	J1_52	150.00	350.0	130.0	0.0285	Open
P102	J1_51	J2_51	150.00	600.0	130.0	0.0331	Open
P103	J1_52	J2_52	150.00	350.0	125.0	0.0193	Open
P104	J2_1	J2_2	150.00	350.0	130.0	0.0448	Open
P105	J2_1	J3_1	150.00	400.0	120.0	0.0243	Open
P106	J2_2	J2_3	150.00	100.0	130.0	0.0679	Open
P107	J2_2	J3_2	150.00	200.0	140.0	0.0604	Open
P108	J2_3	J2_4	150.00	200.0	140.0	0.0014	Open
P109	J2_3	J3_3	150.00	250.0	135.0	0.0909	Open
P110	J2_4	J2_5	150.00	300.0	125.0	0.0081	Open
P111	J2_4	J3_4	150.00	100.0	140.0	0.0369	Open
P112	J2_5	J2_6	150.00	150.0	140.0	0.1413	Open
P113	J2_5	J3_5	150.00	300.0	125.0	0.0841	Open
P114	J2_6	J2_7	150.00	250.0	125.0	0.0008	Open
P115	J2_6	J3_6	150.00	150.0	125.0	0.1007	Open
P116	J2_7	J2_8	150.00	250.0	135.0	0.0596	Open
P117	J2_7	J3_7	150.00	300.0	135.0	0.1482	Open
P118	J2_8	J2_9	150.00	150.0	135.0	0.1450	Open
P119	J2_8	J3_8	150.00	300.0	130.0	0.0968	Open
P120	J2_9	J2_10	150.00	150.0	130.0	0.0108	Open
P121	J2_9	J3_9	150.00	200.0	140.0	0.0834	Open
P122	J2_10	J2_11	150.00	100.0	125.0	0.1370	Open
P123	J2_10	J3_10	150.00	250.0	125.0	0.0234	Open
P124	J2_11	J2_12	150.00	350.0	120.0	0.0174	Open
P125	J2_11	J3_11	150.00	500.0	125.0	0.0103	Open
P126	J2_12	J2_13	150.00	200.0	125.0	0.0823	Open
P127	J2_12	J3_12	150.00	300.0	125.0	0.0161	Open
P128	J2_13	J2_14	150.00	300.0	135.0	0.0320	Open
P129	J2_13	J3_13	150.00	100.0	140.0	0.0214	Open
P130	J2_14	J2_15	150.00	300.0	135.0	0.0189	Open
P131	J2_14	J3_14	150.00	250.0	140.0	0.0099	Open
P132	J2_15	J2_16	150.00	150.0	125.0	0.0821	Open
P133	J2_15	J3_15	150.00	150.0	125.0	0.1332	Open
P134	J2_16	J2_17	150.00	150.0	140.0	0.0220	Open
P135	J2_16	J3_16	150.00	150.0	135.0	0.0899	Open
P136	J2_17	J2_18	150.00	250.0	125.0	0.1438	Open
P137	J2_17	J3_17	150.00	250.0	140.0	0.0063	Open
P138	J2_18	J2_19	150.00	300.0	125.0	0.1309	Open
P139	J2_18	J3_18	150.00	300.0	140.0	0.1498	Open
P140	J2_19	J2_20	150.00	250.0	125.0	0.1266	Open
P141	J2_19	J3_19	150.00	150.0	135.0	0.0584	Open
P142	J2_20	J2_21	150.00	250.0	140.0	0.1406	Open
P143	J2_20	J3_20	150.00	250.0	125.0	0.0439	Open
P144	J2_21	J2_22	150.00	350.0	120.0	0.0128	Open
P145	J2_21	J3_21	150.00	300.0	120.0	0.0199	Open
P146	J2_22	J2_23	150.00	100.0	130.0	0.1229	Open
P147	J2_22	J3_22	150.00	250.0	125.0	0.0178	Open
P148	J2_23	J2_24	150.00	300.0	130.0	0.1017	Open
P149	J2_23	J3_23	150.00	150.0	135.0	0.0829	Open
P150	J2_24	J2_25	150.00	200.0	125.0	0.1303	Open
P151	J2_24	J3_24	150.00	100.0	130.0	0.0930	Open
P152	J2_25	J2_26	150.00	200.0	135.0	0.1020	Open
P153	J2_25	J3_25	150.00	300.0	135.0	0.1457	Open
P154	J2_26	J2_27	150.00	200.0	135.0	0.0781	Open
P155	J2_26	J3_26	150.00	300.0	125.0	0.0028	Open
P156	J2_27	J2_28	150.00	200.0	130.0	0.0485	Open
P157	J2_27	J3_27	150.00	100.0	125.0	0.0461	Open
P158	J2_28	J2_29	150.00	200.0	125.0	0.0231	Open
P159	J2_28	J3_28	150.00	300.0	140.0	0.1179	Open
P160	J2_29	J2_30	150.00	200.0	125.0	0.1407	Open
P161	J2_29	J3_29	150.00	150.0	135.0	0.0818	Open
P162	J2_30	J2_31	150.00	100.0	135.0	0.0441	Open
P163	J2_30	J3_30	150.00	150.0	140.0	0.0576	Open
P164	J2_31	J2_32	150.00	300.0	125.0	0.0348	Open
P165	J2_31	J3_31	150.00	450.0	130.0	0.0387	Open
P166	J2_32	J2_33	150.00	300.0	125.0	0.0656	Open
P167	J2_32	J3_32	150.00	250.0	135.0	0.1074	Open
P168	J2_33	J2_34	150.00	250.0	140.0	0.1386	Open
P169	J2_33	J3_33	150.00	200.0	130.0	0.0125	Open
P170	J2_34	J2_35	150.00	100.0	135.0	0.0460	Open
P171	J2_34	J3_34	150.00	300.0	135.0	0.1075	Open
P172	J2_35	J2_36	150.00	100.0	125.0	0.1109	Open
P173	J2_35	J3_35	150.00	300.0	135.0	0.0636	Open
P174	J2_36	J2_37	150.00	150.0	130.0	0.0324	Open
P175	J2_36	J3_36	150.00	200.0	135.0	0.0950	Open
P176	J2_37	J2_38	150.00	100.0	125.0	0.0887	Open
P177	J2_37	J3_37	150.00	100.0	125.0	0.0641	Open
P178	J2_38	J2_39	150.00	200.0	135.0	0.1073	Open
P179	J2_38	J3_38	150.00	150.0	125.0	0.0787	Open
P180	J2_39	J2_40	150.00	100.0	125.0	0.1446	Open
P181	J2_39	J3_39	150.00	150.0	135.0	0.1454	Open
P182	J2_40	J2_41	150.00	150.0	125.0	0.0086	Open
P183	J2_40	J3_40	150.00	250.0	140.0	0.0627	Open
P184	J2_41	J2_42	150.00	300.0	125.0	0.0468	Open
P185	J2_41	J3_41	150.00	300.0	125.0	0.0308	Open
P186	J2_42	J2_43	150.00	200.0	140.0	0.0449	Open
P187	J2_42	J3_42	150.00	200.0	125.0	0.1123	Open
P188	J2_43	J2_44	150.00	100.0	140.0	0.0203	Open
P189	J2_43	J3_43	150.00	200.0	130.0	0.0057	Open
P190	J2_44	J2_45	150.00	100.0	140.0	0.1153	Open
P191	J2_44	J3_44	150.00	200.0	140.0	0.1407	Open
P192	J2_45	J2_46	150.00	200.0	140.0	0.0592	Open
P193	J2_45	J3_45	150.00	100.0	125.0	0.0638	Open
P194	J2_46	J2_47	150.00	300.0	135.0	0.0527	Open
P195	J2_46	J3_46	150.00	100.0	125.0	0.0349	Open
P196	J2_47	J2_48	150.00	300.0	140.0	0.0960	Open
P197	J2_47	J3_47	150.00	100.0	135.0	0.0086	Open
P198	J2_48	J2_49	150.00	150.0	130.0	0.0164	Open
P199	J2_48	J3_48	150.00	150.0	125.0	0.0563	Open
P200	J2_49	J2_50	150.00	250.0	140.0	0.0356	Open
P201	J2_49	J3_49	150.00	250.0	135.0	0.0683	Open
P202	J2_50	J2_51	150.00	150.0	140.0	0.0690	Open
P203	J2_50	J3_50	150.00	250.0	135.0	0.1312	Open
P204	J2_51	J2_52	150.00	300.0	125.0	0.0231	Open
P205	J2_51	J3_51	150.00	600.0	120.0	0.0147	Open
P206	J2_52	J3_52	150.00	250.0	140.0	0.0202	Open
P207	J3_1	J3_2	150.00	300.0	120.0	0.0047	Open
P208	J3_1	J4_1	150.00	500.0	120.0	0.0378	Open
P209	J3_2	J3_3	150.00	200.0	135.0	0.1212	Open
P210	J3_2	J4_2	150.00	100.0	130.0	0.0539	Open
P211	J3_3	J3_4	150.00	150.0	140.0	0.0651	Open
P212	J3_3	J4_3	150.00	200.0	130.0	0.0011	Open
P213	J3_4	J3_5	150.00	200.0	140.0	0.0588	Open
P214	J3_4	J4_4	150.00	200.0	130.0	0.0561	Open
P215	J3_5	J3_6	150.00	250.0	130.0	0.1135	Open
P216	J3_5	J4_5	150.00	100.0	135.0	0.0830	Open
P217	J3_6	J3_7	150.00	150.0	140.0	0.1255	Open
P218	J3_6	J4_6	150.00	300.0	135.0	0.0480	Open
P219	J3_7	J3_8	150.00	300.0	125.0	0.0802	Open
P220	J3_7	J4_7	150.00	300.0	125.0	0.0066	Open
P221	J3_8	J3_9	150.00	250.0	125.0	0.0591	Open
P222	J3_8	J4_8	150.00	250.0	125.0	0.0884	Open
P223	J3_9	J3_10	150.00	300.0	130.0	0.0125	Open
P224	J3_9	J4_9	150.00	100.0	125.0	0.0405	Open
P225	J3_10	J3_11	150.00	250.0	130.0	0.1077	Open
P226	J3_10	J4_10	150.00	200.0	140.0	0.0828	Open
P227	J3_11	J3_12	150.00	600.0	130.0	0.0343	Open
P228	J3_11	J4_11	150.00	300.0	130.0	0.0006	Open
P229	J3_12	J3_13	150.00	100.0	125.0	0.1414	Open
P230	J3_12	J4_12	150.00	200.0	135.0	0.0888	Open
P231	J3_13	J3_14	150.00	100.0	130.0	0.1296	Open
P232	J3_13	J4_13	150.00	250.0	130.0	0.1381	Open
P233	J3_14	J3_15	150.00	100.0	130.0	0.1147	Open
P234	J3_14	J4_14	150.00	300.0	125.0	0.0652	Open
P235	J3_15	J3_16	150.00	100.0	130.0	0.0642	Open
P236	J3_15	J4_15	150.00	150.0	130.0	0.0669	Open
P237	J3_16	J3_17	150.00	100.0	140.0	0.0480	Open
P238	J3_16	J4_16	150.00	300.0	125.0	0.0337	Open
P239	J3_17	J3_18	150.00	150.0	140.0	0.0962	Open
P240	J3_17	J4_17	150.00	200.0	130.0	0.1050	Open
P241	J3_18	J3_19	150.00	250.0	135.0	0.0706	Open
P242	J3_18	J4_18	150.00	250.0	135.0	0.0992	Open
P243	J3_19	J3_20	150.00	200.0	130.0	0.0957	Open
P244	J3_19	J4_19	150.00	150.0	135.0	0.0781	Open
P245	J3_20	J3_21	150.00	100.0	130.0	0.0524	Open
P246	J3_20	J4_20	150.00	300.0	135.0	0.1094	Open
P247	J3_21	J3_22	150.00	400.0	120.0	0.0371	Open
P248	J3_21	J4_21	150.00	300.0	130.0	0.0242	Open
P249	J3_22	J3_23	150.00	200.0	130.0	0.0747	Open
P250	J3_22	J4_22	150.00	200.0	135.0	0.1433	Open
P251	J3_23	J3_24	150.00	100.0	130.0	0.1115	Open
P252	J3_23	J4_23	150.00	150.0	135.0	0.0143	Open
P253	J3_24	J3_25	150.00	150.0	140.0	0.1438	Open
P254	J3_24	J4_24	150.00	150.0	125.0	0.0244	Open
P255	J3_25	J3_26	150.00	250.0	125.0	0.0301	Open
P256	J3_25	J4_25	150.00	200.0	135.0	0.0425	Open
P257	J3_26	J3_27	150.00	150.0	125.0	0.0294	Open
P258	J3_26	J4_26	150.00	200.0	140.0	0.1333	Open
P259	J3_27	J3_28	150.00	300.0	140.0	0.1273	Open
P260	J3_27	J4_27	150.00	250.0	130.0	0.0703	Open
P261	J3_28	J3_29	150.00	150.0	125.0	0.0801	Open
P262	J3_28	J4_28	150.00	100.0	140.0	0.1251	Open
P263	J3_29	J3_30	150.00	300.0	140.0	0.0779	Open
P264	J3_29	J4_29	150.00	200.0	135.0	0.1472	Open
P265	J3_30	J3_31	150.00	250.0	135.0	0.0902	Open
P266	J3_30	J4_30	150.00	150.0	140.0	0.1453	Open
P267	J3_31	J3_32	150.00	500.0	125.0	0.0482	Open
P268	J3_31	J4_31	150.00	600.0	120.0	0.0391	Open
P269	J3_32	J3_33	150.00	200.0	130.0	0.1110	Open
P270	J3_32	J4_32	150.00	200.0	135.0	0.0647	Open
P271	J3_33	J3_34	150.00	150.0	125.0	0.0047	Open
P272	J3_33	J4_33	150.00	200.0	140.0	0.0622	Open
P273	J3_34	J3_35	150.00	100.0	125.0	0.0010	Open
P274	J3_34	J4_34	150.00	150.0	125.0	0.0980	Open
P275	J3_35	J3_36	150.00	300.0	125.0	0.0704	Open
P276	J3_35	J4_35	150.00	150.0	130.0	0.0008	Open
P277	J3_36	J3_37	150.00	100.0	135.0	0.0901	Open
P278	J3_36	J4_36	150.00	100.0	135.0	0.1319	Open
P279	J3_37	J3_38	150.00	200.0	130.0	0.0216	Open
P280	J3_37	J4_37	150.00	250.0	140.0	0.1213	Open
P281	J3_38	J3_39	150.00	250.0	140.0	0.0712	Open
P282	J3_38	J4_38	150.00	100.0	130.0	0.0019	Open
P283	J3_39	J3_40	150.00	300.0	130.0	0.1475	Open
P284	J3_39	J4_39	150.00	100.0	140.0	0.0500	Open
P285	J3_40	J3_41	150.00	250.0	130.0	0.0396	Open
P286	J3_40	J4_40	150.00	200.0	140.0	0.0708	Open
P287	J3_41	J3_42	150.00	600.0	125.0	0.0403	Open
P288	J3_41	J4_41	150.00	350.0	125.0	0.0022	Open
P289	J3_42	J3_43	150.00	150.0	135.0	0.1296	Open
P290	J3_42	J4_42	150.00	100.0	140.0	0.0668	Open
P291	J3_43	J3_44	150.00	150.0	130.0	0.1093	Open
P292	J3_43	J4_43	150.00	200.0	140.0	0.0129	Open
P293	J3_44	J3_45	150.00	200.0	130.0	0.0599	Open
P294	J3_44	J4_44	150.00	300.0	140.0	0.0395	Open
P295	J3_45	J3_46	150.00	200.0	130.0	0.1048	Open
P296	J3_45	J4_45	150.00	300.0	130.0	0.1290	Open
P297	J3_46	J3_47	150.00	150.0	125.0	0.0835	Open
P298	J3_46	J4_46	150.00	300.0	130.0	0.1450	Open
P299	J3_47	J3_48	150.00	200.0	140.0	0.0774	Open
P300	J3_47	J4_47	150.00	300.0	130.0	0.0082	Open
P301	J3_48	J3_49	150.00	300.0	130.0	0.0284	Open
P302	J3_48	J4_48	150.00	200.0	125.0	0.0679	Open
P303	J3_49	J3_50	150.00	250.0	130.0	0.1386	Open
P304	J3_49	J4_49	150.00	200.0	125.0	0.0884	Open
P305	J3_50	J3_51	150.00	150.0	135.0	0.0929	Open
P306	J3_50	J4_50	150.00	150.0	135.0	0.0697	Open
P307	J3_51	J3_52	150.00	500.0	125.0	0.0288	Open
P308	J3_51	J4_51	150.00	450.0	120.0	0.0343	Open
P309	J3_52	J4_52	150.00	150.0	135.0	0.1491	Open
P310	J4_1	J4_2	150.00	350.0	120.0	0.0067	Open
P311	J4_1	J5_1	150.00	600.0	120.0	0.0058	Open
P312	J4_2	J4_3	150.00	300.0	125.0	0.0326	Open
P313	J4_2	J5_2	150.00	100.0	125.0	0.1135	Open
P314	J4_3	J4_4	150.00	150.0	140.0	0.1117	Open
P315	J4_3	J5_3	150.00	300.0	135.0	0.0475	Open
P316	J4_4	J4_5	150.00	250.0	125.0	0.1400	Open
P317	J4_4	J5_4	150.00	300.0	130.0	0.1209	Open
P318	J4_5	J4_6	150.00	150.0	135.0	0.0765	Open
P319	J4_5	J5_5	150.00	200.0	140.0	0.0329	Open
P320	J4_6	J4_7	150.00	250.0	135.0	0.0259	Open
P321	J4_6	J5_6	150.00	100.0	135.0	0.0201	Open
P322	J4_7	J4_8	150.00	250.0	140.0	0.0078	Open
P323	J4_7	J5_7	150.00	200.0	130.0	0.1172	Open
P324	J4_8	J4_9	150.00	150.0	125.0	0.1054	Open
P325	J4_8	J5_8	150.00	300.0	130.0	0.1492	Open
P326	J4_9	J4_10	150.00	200.0	140.0	0.1181	Open
P327	J4_9	J5_9	150.00	100.0	135.0	0.0792	Open
P328	J4_10	J4_11	150.00	250.0	140.0	0.1135	Open
P329	J4_10	J5_10	150.00	300.0	140.0	0.0641	Open
P330	J4_11	J4_12	150.00	450.0	125.0	0.0037	Open
P331	J4_11	J5_11	150.00	500.0	130.0	0.0479	Open
P332	J4_12	J4_13	150.00	100.0	140.0	0.0799	Open
P333	J4_12	J5_12	150.00	150.0	140.0	0.0673	Open
P334	J4_13	J4_14	150.00	200.0	125.0	0.1038	Open
P335	J4_13	J5_13	150.00	300.0	140.0	0.0215	Open
P336	J4_14	J4_15	150.00	150.0	140.0	0.1004	Open
P337	J4_14	J5_14	150.00	300.0	135.0	0.1247	Open
P338	J4_15	J4_16	150.00	300.0	140.0	0.0606	Open
P339	J4_15	J5_15	150.00	100.0	140.0	0.0277	Open
P340	J4_16	J4_17	150.00	150.0	140.0	0.0590	Open
P341	J4_16	J5_16	150.00	250.0	140.0	0.0209	Open
P342	J4_17	J4_18	150.00	100.0	130.0	0.1484	Open
P343	J4_17	J5_17	150.00	300.0	130.0	0.0452	Open
P344	J4_18	J4_19	150.00	150.0	130.0	0.0364	Open
P345	J4_18	J5_18	150.00	300.0	125.0	0.1443	Open
P346	J4_19	J4_20	150.00	250.0	130.0	0.1158	Open
P347	J4_19	J5_19	150.00	200.0	135.0	0.0290	Open
P348	J4_20	J4_21	150.00	150.0	130.0	0.1423	Open
P349	J4_20	J5_20	150.00	250.0	140.0	0.0192	Open
P350	J4_21	J4_22	150.00	500.0	130.0	0.0304	Open
P351	J4_21	J5_21	150.00	600.0	120.0	0.0165	Open
P352	J4_22	J4_23	150.00	250.0	125.0	0.1211	Open
P353	J4_22	J5_22	150.00	100.0	135.0	0.0612	Open
P354	J4_23	J4_24	150.00	300.0	140.0	0.1405	Open
P355	J4_23	J5_23	150.00	300.0	130.0	0.0848	Open
P356	J4_24	J4_25	150.00	200.0	135.0	0.1136	Open
P357	J4_24	J5_24	150.00	150.0	130.0	0.0750	Open
P358	J4_25	J4_26	150.00	300.0	125.0	0.0668	Open
P359	J4_25	J5_25	150.00	300.0	130.0	0.0443	Open
P360	J4_26	J4_27	150.00	300.0	135.0	0.0339	Open
P361	J4_26	J5_26	150.00	250.0	140.0	0.1430	Open
P362	J4_27	J4_28	150.00	150.0	140.0	0.0457	Open
P363	J4_27	J5_27	150.00	150.0	125.0	0.0898	Open
P364	J4_28	J4_29	150.00	100.0	130.0	0.0419	Open
P365	J4_28	J5_28	150.00	200.0	130.0	0.1276	Open
P366	J4_29	J4_30	150.00	150.0	135.0	0.0189	Open
P367	J4_29	J5_29	150.00	100.0	135.0	0.0736	Open
P368	J4_30	J4_31	150.00	150.0	140.0	0.0291	Open
P369	J4_30	J5_30	150.00	300.0	125.0	0.0451	Open
P370	J4_31	J4_32	150.00	300.0	125.0	0.0411	Open
P371	J4_31	J5_31	150.00	300.0	125.0	0.0209	Open
P372	J4_32	J4_33	150.00	200.0	135.0	0.1092	Open
P373	J4_32	J5_32	150.00	100.0	135.0	0.0639	Open
P374	J4_33	J4_34	150.00	150.0	140.0	0.0102	Open
P375	J4_33	J5_33	150.00	150.0	130.0	0.0545	Open
P376	J4_34	J4_35	150.00	200.0	130.0	0.0348	Open
P377	J4_34	J5_34	150.00	200.0	135.0	0.1184	Open
P378	J4_35	J4_36	150.00	200.0	125.0	0.0298	Open
P379	J4_35	J5_35	150.00	200.0	140.0	0.0755	Open
P380	J4_36	J4_37	150.00	100.0	130.0	0.1358	Open
P381	J4_36	J5_36	150.00	300.0	135.0	0.0401	Open
P382	J4_37	J4_38	150.00	150.0	125.0	0.0588	Open
P383	J4_37	J5_37	150.00	250.0	125.0	0.0577	Open
P384	J4_38	J4_39	150.00	100.0	125.0	0.1299	Open
P385	J4_38	J5_38	150.00	300.0	135.0	0.1483	Open
P386	J4_39	J4_40	150.00	150.0	140.0	0.0021	Open
P387	J4_39	J5_39	150.00	300.0	125.0	0.0556	Open
P388	J4_40	J4_41	150.00	100.0	125.0	0.0633	Open
P389	J4_40	J5_40	150.00	300.0	135.0	0.0330	Open
P390	J4_41	J4_42	150.00	400.0	130.0	0.0048	Open
P391	J4_41	J5_41	150.00	350.0	120.0	0.0410	Open
P392	J4_42	J4_43	150.00	300.0	135.0	0.0642	Open
P393	J4_42	J5_42	150.00	200.0	135.0	0.1049	Open
P394	J4_43	J4_44	150.00	250.0	125.0	0.0946	Open
P395	J4_43	J5_43	150.00	150.0	130.0	0.0997	Open
P396	J4_44	J4_45	150.00	250.0	130.0	0.0422	Open
P397	J4_44	J5_44	150.00	200.0	140.0	0.0655	Open
P398	J4_45	J4_46	150.00	150.0	125.0	0.1103	Open
P399	J4_45	J5_45	150.00	100.0	130.0	0.0195	Open
P400	J4_46	J4_47	150.00	100.0	125.0	0.1119	Open
P401	J4_46	J5_46	150.00	100.0	135.0	0.0539	Open
P402	J4_47	J4_48	150.00	300.0	125.0	0.0288	Open
P403	J4_47	J5_47	150.00	200.0	135.0	0.0032	Open
P404	J4_48	J4_49	150.00	150.0	135.0	0.1265	Open
P405	J4_48	J5_48	150.00	150.0	125.0	0.0430	Open
P406	J4_49	J4_50	150.00	200.0	125.0	0.0638	Open
P407	J4_49	J5_49	150.00	250.0	125.0	0.0555	Open
P408	J4_50	J4_51	150.00	100.0	130.0	0.1017	Open
P409	J4_50	J5_50	150.00	250.0	140.0	0.0752	Open
P410	J4_51	J4_52	150.00	500.0	125.0	0.0124	Open
P411	J4_51	J5_51	150.00	300.0	125.0	0.0310	Open
P412	J4_52	J5_52	150.00	150.0	135.0	0.1426	Open
P413	J5_1	J5_2	150.00	350.0	130.0	0.0102	Open
P414	J5_1	J6_1	150.00	600.0	125.0	0.0124	Open
P415	J5_2	J5_3	150.00	150.0	125.0	0.0719	Open
P416	J5_2	J6_2	150.00	100.0	130.0	0.1261	Open
P417	J5_3	J5_4	150.00	100.0	125.0	0.1449	Open
P418	J5_3	J6_3	150.00	300.0	135.0	0.1147	Open
P419	J5_4	J5_5	150.00	300.0	140.0	0.0035	Open
P420	J5_4	J6_4	150.00	150.0	140.0	0.1324	Open
P421	J5_5	J5_6	150.00	200.0	135.0	0.0600	Open
P422	J5_5	J6_5	150.00	250.0	125.0	0.0701	Open
P423	J5_6	J5_7	150.00	100.0	130.0	0.1231	Open
P424	J5_6	J6_6	150.00	200.0	135.0	0.0009	Open
P425	J5_7	J5_8	150.00	100.0	125.0	0.1119	Open
P426	J5_7	J6_7	150.00	250.0	140.0	0.0031	Open
P427	J5_8	J5_9	150.00	200.0	135.0	0.1323	Open
P428	J5_8	J6_8	150.00	100.0	140.0	0.0925	Open
P429	J5_9	J5_10	150.00	250.0	125.0	0.1263	Open
P430	J5_9	J6_9	150.00	150.0	135.0	0.0158	Open
P431	J5_10	J5_11	150.00	100.0	130.0	0.0306	Open
P432	J5_10	J6_10	150.00	150.0	135.0	0.1435	Open
P433	J5_11	J5_12	150.00	300.0	120.0	0.0181	Open
P434	J5_11	J6_11	150.00	300.0	130.0	0.0165	Open
P435	J5_12	J5_13	150.00	100.0	125.0	0.0665	Open
P436	J5_12	J6_12	150.00	250.0	140.0	0.1246	Open
P437	J5_13	J5_14	150.00	250.0	125.0	0.1226	Open
P438	J5_13	J6_13	150.00	300.0	135.0	0.0557	Open
P439	J5_14	J5_15	150.00	300.0	140.0	0.1414	Open
P440	J5_14	J6_14	150.00	250.0	135.0	0.1481	Open
P441	J5_15	J5_16	150.00	200.0	135.0	0.0145	Open
P442	J5_15	J6_15	150.00	100.0	135.0	0.0281	Open
P443	J5_16	J5_17	150.00	100.0	130.0	0.0311	Open
P444	J5_16	J6_16	150.00	300.0	140.0	0.1460	Open
P445	J5_17	J5_18	150.00	300.0	130.0	0.0426	Open
P446	J5_17	J6_17	150.00	250.0	125.0	0.1002	Open
P447	J5_18	J5_19	150.00	250.0	140.0	0.1422	Open
P448	J5_18	J6_18	150.00	100.0	130.0	0.1214	Open
P449	J5_19	J5_20	150.00	250.0	130.0	0.1192	Open
P450	J5_19	J6_19	150.00	150.0	135.0	0.0355	Open
P451	J5_20	J5_21	150.00	150.0	135.0	0.1031	Open
P452	J5_20	J6_20	150.00	200.0	125.0	0.0031	Open
P453	J5_21	J5_22	150.00	450.0	125.0	0.0186	Open
P454	J5_21	J6_21	150.00	350.0	120.0	0.0462	Open
P455	J5_22	J5_23	150.00	300.0	140.0	0.0729	Open
P456	J5_22	J6_22	150.00	100.0	135.0	0.0713	Open
P457	J5_23	J5_24	150.00	100.0	135.0	0.0741	Open
P458	J5_23	J6_23	150.00	200.0	135.0	0.0895	Open
P459	J5_24	J5_25	150.00	200.0	125.0	0.1122	Open
P460	J5_24	J6_24	150.00	250.0	130.0	0.0639	Open
P461	J5_25	J5_26	150.00	200.0	140.0	0.0445	Open
P462	J5_25	J6_25	150.00	250.0	135.0	0.1476	Open
P463	J5_26	J5_27	150.00	100.0	125.0	0.0890	Open
P464	J5_26	J6_26	150.00	250.0	130.0	0.0576	Open
P465	J5_27	J5_28	150.00	300.0	140.0	0.0167	Open
P466	J5_27	J6_27	150.00	200.0	130.0	0.1274	Open
P467	J5_28	J5_29	150.00	100.0	135.0	0.0262	Open
P468	J5_28	J6_28	150.00	200.0	135.0	0.1119	Open
P469	J5_29	J5_30	150.00	300.0	125.0	0.1469	Open
P470	J5_29	J6_29	150.00	250.0	140.0	0.0418	Open
P471	J5_30	J5_31	150.00	200.0	130.0	0.1276	Open
P472	J5_30	J6_30	150.00	100.0	130.0	0.0456	Open
P473	J5_31	J5_32	150.00	400.0	125.0	0.0247	Open
P474	J5_31	J6_31	150.00	350.0	120.0	0.0163	Open
P475	J5_32	J5_33	150.00	250.0	140.0	0.0592	Open
P476	J5_32	J6_32	150.00	100.0	135.0	0.0651	Open
P477	J5_33	J5_34	150.00	150.0	135.0	0.0622	Open
P478	J5_33	J6_33	150.00	100.0	135.0	0.0380	Open
P479	J5_34	J5_35	150.00	200.0	140.0	0.0705	Open
P480	J5_34	J6_34	150.00	150.0	135.0	0.1470	Open
P481	J5_35	J5_36	150.00	150.0	135.0	0.0497	Open
P482	J5_35	J6_35	150.00	300.0	125.0	0.1424	Open
P483	J5_36	J5_37	150.00	150.0	135.0	0.0540	Open
P484	J5_36	J6_36	150.00	200.0	125.0	0.0127	Open
P485	J5_37	J5_38	150.00	300.0	135.0	0.0020	Open
P486	J5_37	J6_37	150.00	300.0	125.0	0.1416	Open
P487	J5_38	J5_39	150.00	250.0	140.0	0.0402	Open
P488	J5_38	J6_38	150.00	200.0	135.0	0.0944	Open
P489	J5_39	J5_40	150.00	250.0	135.0	0.1232	Open
P490	J5_39	J6_39	150.00	100.0	140.0	0.0880	Open
P491	J5_40	J5_41	150.00	250.0	130.0	0.1303	Open
P492	J5_40	J6_40	150.00	100.0	125.0	0.1055	Open
P493	J5_41	J5_42	150.00	600.0	125.0	0.0361	Open
P494	J5_41	J6_41	150.00	400.0	120.0	0.0175	Open
P495	J5_42	J5_43	150.00	150.0	140.0	0.0142	Open
P496	J5_42	J6_42	150.00	150.0	135.0	0.0762	Open
P497	J5_43	J5_44	150.00	250.0	140.0	0.0257	Open
P498	J5_43	J6_43	150.00	150.0	130.0	0.0479	Open
P499	J5_44	J5_45	150.00	100.0	135.0	0.0555	Open
P500	J5_44	J6_44	150.00	200.0	130.0	0.0811	Open
P501	J5_45	J5_46	150.00	300.0	135.0	0.0006	Open
P502	J5_45	J6_45	150.00	100.0	130.0	0.1070	Open
P503	J5_46	J5_47	150.00	200.0	135.0	0.0892	Open
P504	J5_46	J6_46	150.00	200.0	130.0	0.0035	Open
P505	J5_47	J5_48	150.00	150.0	125.0	0.0743	Open
P506	J5_47	J6_47	150.00	100.0	125.0	0.0240	Open
P507	J5_48	J5_49	150.00	250.0	125.0	0.0275	Open
P508	J5_48	J6_48	150.00	250.0	125.0	0.0387	Open
P509	J5_49	J5_50	150.00	200.0	125.0	0.0067	Open
P510	J5_49	J6_49	150.00	200.0	130.0	0.1416	Open
P511	J5_50	J5_51	150.00	200.0	140.0	0.1248	Open
P512	J5_50	J6_50	150.00	200.0	135.0	0.0240	Open
P513	J5_51	J5_52	150.00	400.0	120.0	0.0265	Open
P514	J5_51	J6_51	150.00	600.0	130.0	0.0395	Open
P515	J5_52	J6_52	150.00	150.0	140.0	0.0701	Open
P516	J6_1	J6_2	150.00	600.0	125.0	0.0496	Open
P517	J6_1	J7_1	150.00	350.0	125.0	0.0205	Open
P518	J6_2	J6_3	150.00	150.0	140.0	0.0344	Open
P519	J6_2	J7_2	150.00	200.0	140.0	0.0515	Open
P520	J6_3	J6_4	150.00	150.0	130.0	0.0565	Open
P521	J6_3	J7_3	150.00	300.0	130.0	0.0988	Open
P522	J6_4	J6_5	150.00	250.0	135.0	0.0461	Open
P523	J6_4	J7_4	150.00	150.0	130.0	0.0882	Open
P524	J6_5	J6_6	150.00	250.0	130.0	0.0170	Open
P525	J6_5	J7_5	150.00	150.0	140.0	0.0579	Open
P526	J6_6	J6_7	150.00	200.0	135.0	0.1440	Open
P527	J6_6	J7_6	150.00	150.0	140.0	0.1024	Open
P528	J6_7	J6_8	150.00	150.0	135.0	0.0380	Open
P529	J6_7	J7_7	150.00	250.0	140.0	0.0035	Open
P530	J6_8	J6_9	150.00	100.0	125.0	0.0000	Open
P531	J6_8	J7_8	150.00	100.0	140.0	0.1248	Open
P532	J6_9	J6_10	150.00	250.0	135.0	0.1169	Open
P533	J6_9	J7_9	150.00	200.0	135.0	0.0940	Open
P534	J6_10	J6_11	150.00	100.0	130.0	0.0878	Open
P535	J6_10	J7_10	150.00	150.0	125.0	0.1278	Open
P536	J6_11	J6_12	150.00	500.0	125.0	0.0208	Open
P537	J6_11	J7_11	150.00	350.0	120.0	0.0453	Open
P538	J6_12	J6_13	150.00	300.0	135.0	0.1348	Open
P539	J6_12	J7_12	150.00	150.0	125.0	0.0154	Open
P540	J6_13	J6_14	150.00	300.0	130.0	0.0383	Open
P541	J6_13	J7_13	150.00	100.0	140.0	0.0509	Open
P542	J6_14	J6_15	150.00	300.0	135.0	0.0291	Open
P543	J6_14	J7_14	150.00	100.0	130.0	0.0677	Open
P544	J6_15	J6_16	150.00	250.0	130.0	0.0568	Open
P545	J6_15	J7_15	150.00	300.0	140.0	0.0526	Open
P546	J6_16	J6_17	150.00	100.0	140.0	0.0083	Open
P547	J6_16	J7_16	150.00	100.0	135.0	0.0832	Open
P548	J6_17	J6_18	150.00	200.0	130.0	0.1068	Open
P549	J6_17	J7_17	150.00	200.0	125.0	0.0070	Open
P550	J6_18	J6_19	150.00	150.0	135.0	0.0215	Open
P551	J6_18	J7_18	150.00	200.0	140.0	0.0807	Open
P552	J6_19	J6_20	150.00	200.0	125.0	0.0667	Open
P553	J6_19	J7_19	150.00	250.0	140.0	0.0552	Open
P554	J6_20	J6_21	150.00	200.0	130.0	0.1126	Open
P555	J6_20	J7_20	150.00	250.0	140.0	0.0438	Open
P556	J6_21	J6_22	150.00	350.0	120.0	0.0037	Open
P557	J6_21	J7_21	150.00	400.0	130.0	0.0453	Open
P558	J6_22	J6_23	150.00	250.0	135.0	0.0756	Open
P559	J6_22	J7_22	150.00	100.0	140.0	0.1290	Open
P560	J6_23	J6_24	150.00	100.0	135.0	0.0556	Open
P561	J6_23	J7_23	150.00	300.0	135.0	0.1300	Open
P562	J6_24	J6_25	150.00	250.0	125.0	0.0377	Open
P563	J6_24	J7_24	150.00	250.0	140.0	0.1175	Open
P564	J6_25	J6_26	150.00	250.0	140.0	0.0374	Open
P565	J6_25	J7_25	150.00	200.0	140.0	0.0428	Open
P566	J6_26	J6_27	150.00	200.0	125.0	0.1379	Open
P567	J6_26	J7_26	150.00	300.0	125.0	0.0153	Open
P568	J6_27	J6_28	150.00	250.0	125.0	0.0779	Open
P569	J6_27	J7_27	150.00	300.0	140.0	0.0548	Open
P570	J6_28	J6_29	150.00	100.0	130.0	0.0203	Open
P571	J6_28	J7_28	150.00	100.0	140.0	0.0734	Open
P572	J6_29	J6_30	150.00	200.0	125.0	0.1309	Open
P573	J6_29	J7_29	150.00	150.0	140.0	0.0052	Open
P574	J6_30	J6_31	150.00	100.0	130.0	0.0450	Open
P575	J6_30	J7_30	150.00	150.0	140.0	0.1477	Open
P576	J6_31	J6_32	150.00	500.0	125.0	0.0415	Open
P577	J6_31	J7_31	150.00	400.0	125.0	0.0411	Open
P578	J6_32	J6_33	150.00	150.0	135.0	0.1263	Open
P579	J6_32	J7_32	150.00	300.0	135.0	0.0646	Open
P580	J6_33	J6_34	150.00	200.0	125.0	0.1237	Open
P581	J6_33	J7_33	150.00	300.0	135.0	0.0926	Open
P582	J6_34	J6_35	150.00	150.0	125.0	0.0431	Open
P583	J6_34	J7_34	150.00	100.0	125.0	0.0738	Open
P584	J6_35	J6_36	150.00	200.0	140.0	0.0710	Open
P585	J6_35	J7_35	150.00	150.0	140.0	0.0850	Open
P586	J6_36	J6_37	150.00	250.0	135.0	0.0137	Open
P587	J6_36	J7_36	150.00	300.0	135.0	0.0395	Open
P588	J6_37	J6_38	150.00	150.0	125.0	0.1073	Open
P589	J6_37	J7_37	150.00	150.0	130.0	0.0816	Open
P590	J6_38	J6_39	150.00	100.0	135.0	0.1324	Open
P591	J6_38	J7_38	150.00	100.0	130.0	0.1296	Open
P592	J6_39	J6_40	150.00	200.0	140.0	0.0543	Open
P593	J6_39	J7_39	150.00	300.0	130.0	0.0315	Open
P594	J6_40	J6_41	150.00	150.0	135.0	0.0158	Open
P595	J6_40	J7_40	150.00	250.0	130.0	0.0442	Open
P596	J6_41	J6_42	150.00	500.0	130.0	0.0052	Open
P597	J6_41	J7_41	150.00	500.0	120.0	0.0254	Open
P598	J6_42	J6_43	150.00	150.0	130.0	0.0073	Open
P599	J6_42	J7_42	150.00	100.0	135.0	0.0199	Open
P600	J6_43	J6_44	150.00	150.0	135.0	0.0526	Open
P601	J6_43	J7_43	150.00	150.0	130.0	0.0372	Open
P602	J6_44	J6_45	150.00	150.0	140.0	0.0137	Open
P603	J6_44	J7_44	150.00	250.0	140.0	0.1268	Open
P604	J6_45	J6_46	150.00	200.0	140.0	0.0126	Open
P605	J6_45	J7_45	150.00	100.0	130.0	0.0344	Open
P606	J6_46	J6_47	150.00	100.0	130.0	0.1455	Open
P607	J6_46	J7_46	150.00	300.0	135.0	0.0013	Open
P608	J6_47	J6_48	150.00	150.0	140.0	0.0846	Open
P609	J6_47	J7_47	150.00	200.0	125.0	0.0468	Open
P610	J6_48	J6_49	150.00	200.0	135.0	0.0795	Open
P611	J6_48	J7_48	150.00	250.0	135.0	0.1319	Open
P612	J6_49	J6_50	150.00	100.0	125.0	0.0849	Open
P613	J6_49	J7_49	150.00	150.0	125.0	0.1421	Open
P614	J6_50	J6_51	150.00	300.0	125.0	0.0974	Open
P615	J6_50	J7_50	150.00	250.0	125.0	0.1279	Open
P616	J6_51	J6_52	150.00	300.0	120.0	0.0361	Open
P617	J6_51	J7_51	150.00	400.0	130.0	0.0246	Open
P618	J6_52	J7_52	150.00	200.0	130.0	0.0925	Open
P619	J7_1	J7_2	150.00	500.0	120.0	0.0386	Open
P620	J7_1	J8_1	150.00	400.0	120.0	0.0477	Open
P621	J7_2	J7_3	150.00	100.0	135.0	0.0225	Open
P622	J7_2	J8_2	150.00	300.0	125.0	0.0529	Open
P623	J7_3	J7_4	150.00	250.0	140.0	0.0062	Open
P624	J7_3	J8_3	150.00	200.0	130.0	0.1111	Open
P625	J7_4	J7_5	150.00	150.0	125.0	0.1020	Open
P626	J7_4	J8_4	150.00	250.0	125.0	0.1412	Open
P627	J7_5	J7_6	150.00	300.0	135.0	0.0960	Open
P628	J7_5	J8_5	150.00	300.0	125.0	0.0445	Open
P629	J7_6	J7_7	150.00	150.0	135.0	0.0268	Open
P630	J7_6	J8_6	150.00	250.0	135.0	0.0745	Open
P631	J7_7	J7_8	150.00	100.0	140.0	0.0797	Open
P632	J7_7	J8_7	150.00	300.0	125.0	0.0355	Open
P633	J7_8	J7_9	150.00	200.0	125.0	0.0094	Open
P634	J7_8	J8_8	150.00	200.0	135.0	0.0226	Open
P635	J7_9	J7_10	150.00	100.0	140.0	0.0305	Open
P636	J7_9	J8_9	150.00	100.0	125.0	0.0142	Open
P637	J7_10	J7_11	150.00	100.0	140.0	0.0923	Open
P638	J7_10	J8_10	150.00	200.0	130.0	0.1281	Open
P639	J7_11	J7_12	150.00	300.0	130.0	0.0491	Open
P640	J7_11	J8_11	150.00	300.0	130.0	0.0229	Open
P641	J7_12	J7_13	150.00	100.0	130.0	0.1182	Open
P642	J7_12	J8_12	150.00	300.0	135.0	0.1330	Open
P643	J7_13	J7_14	150.00	300.0	135.0	0.0835	Open
P644	J7_13	J8_13	150.00	200.0	140.0	0.1020	Open
P645	J7_14	J7_15	150.00	100.0	130.0	0.0715	Open
P646	J7_14	J8_14	150.00	150.0	135.0	0.1037	Open
P647	J7_15	J7_16	150.00	100.0	135.0	0.0796	Open
P648	J7_15	J8_15	150.00	100.0	130.0	0.0596	Open
P649	J7_16	J7_17	150.00	150.0	130.0	0.0510	Open
P650	J7_16	J8_16	150.00	100.0	125.0	0.0304	Open
P651	J7_17	J7_18	150.00	150.0	135.0	0.0667	Open
P652	J7_17	J8_17	150.00	150.0	130.0	0.0461	Open
P653	J7_18	J7_19	150.00	300.0	140.0	0.0299	Open
P654	J7_18	J8_18	150.00	300.0	135.0	0.0981	Open
P655	J7_19	J7_20	150.00	200.0	130.0	0.1278	Open
P656	J7_19	J8_19	150.00	150.0	135.0	0.0445	Open
P657	J7_20	J7_21	150.00	200.0	130.0	0.1415	Open
P658	J7_20	J8_20	150.00	150.0	130.0	0.0512	Open
P659	J7_21	J7_22	150.00	600.0	125.0	0.0112	Open
P660	J7_21	J8_21	150.00	600.0	125.0	0.0242	Open
P661	J7_22	J7_23	150.00	100.0	130.0	0.1275	Open
P662	J7_22	J8_22	150.00	200.0	130.0	0.1021	Open
P663	J7_23	J7_24	150.00	150.0	135.0	0.0663	Open
P664	J7_23	J8_23	150.00	250.0	125.0	0.0052	Open
P665	J7_24	J7_25	150.00	100.0	140.0	0.0726	Open
P666	J7_24	J8_24	150.00	100.0	140.0	0.0805	Open
P667	J7_25	J7_26	150.00	100.0	140.0	0.0214	Open
P668	J7_25	J8_25	150.00	100.0	140.0	0.0511	Open
P669	J7_26	J7_27	150.00	200.0	140.0	0.0188	Open
P670	J7_26	J8_26	150.00	300.0	135.0	0.0581	Open
P671	J7_27	J7_28	150.00	250.0	140.0	0.0555	Open
P672	J7_27	J8_27	150.00	300.0	135.0	0.1379	Open
P673	J7_28	J7_29	150.00	100.0	125.0	0.1468	Open
P674	J7_28	J8_28	150.00	300.0	140.0	0.0976	Open
P675	J7_29	J7_30	150.00	250.0	130.0	0.0066	Open
P676	J7_29	J8_29	150.00	100.0	135.0	0.0722	Open
P677	J7_30	J7_31	150.00	250.0	140.0	0.1183	Open
P678	J7_30	J8_30	150.00	300.0	135.0	0.1039	Open
P679	J7_31	J7_32	150.00	500.0	125.0	0.0202	Open
P680	J7_31	J8_31	150.00	500.0	125.0	0.0478	Open
P681	J7_32	J7_33	150.00	250.0	135.0	0.0054	Open
P682	J7_32	J8_32	150.00	250.0	130.0	0.0999	Open
P683	J7_33	J7_34	150.00	300.0	135.0	0.1356	Open
P684	J7_33	J8_33	150.00	100.0	125.0	0.0822	Open
P685	J7_34	J7_35	150.00	100.0	140.0	0.1335	Open
P686	J7_34	J8_34	150.00	300.0	125.0	0.0141	Open
P687	J7_35	J7_36	150.00	300.0	130.0	0.0026	Open
P688	J7_35	J8_35	150.00	300.0	135.0	0.0374	Open
P689	J7_36	J7_37	150.00	150.0	140.0	0.0680	Open
P690	J7_36	J8_36	150.00	200.0	140.0	0.1133	Open
P691	J7_37	J7_38	150.00	150.0	140.0	0.1037	Open
P692	J7_37	J8_37	150.00	250.0	125.0	0.0593	Open
P693	J7_38	J7_39	150.00	150.0	125.0	0.0810	Open
P694	J7_38	J8_38	150.00	250.0	135.0	0.0846	Open
P695	J7_39	J7_40	150.00	200.0	125.0	0.0307	Open
P696	J7_39	J8_39	150.00	300.0	135.0	0.1220	Open
P697	J7_40	J7_41	150.00	150.0	130.0	0.0437	Open
P698	J7_40	J8_40	150.00	300.0	130.0	0.1209	Open
P699	J7_41	J7_42	150.00	400.0	130.0	0.0498	Open
P700	J7_41	J8_41	150.00	400.0	120.0	0.0169	Open
P701	J7_42	J7_43	150.00	300.0	135.0	0.0117	Open
P702	J7_42	J8_42	150.00	250.0	125.0	0.1318	Open
P703	J7_43	J7_44	150.00	250.0	125.0	0.0038	Open
P704	J7_43	J8_43	150.00	100.0	125.0	0.0513	Open
P705	J7_44	J7_45	150.00	250.0	125.0	0.0423	Open
P706	J7_44	J8_44	150.00	100.0	125.0	0.1445	Open
P707	J7_45	J7_46	150.00	200.0	135.0	0.0679	Open
P708	J7_45	J8_45	150.00	150.0	140.0	0.0806	Open
P709	J7_46	J7_47	150.00	250.0	125.0	0.1026	Open
P710	J7_46	J8_46	150.00	200.0	135.0	0.0554	Open
P711	J7_47	J7_48	150.00	200.0	135.0	0.0669	Open
P712	J7_47	J8_47	150.00	300.0	140.0	0.0444	Open
P713	J7_48	J7_49	150.00	300.0	130.0	0.0663	Open
P714	J7_48	J8_48	150.00	300.0	140.0	0.0195	Open
P715	J7_49	J7_50	150.00	100.0	140.0	0.0064	Open
P716	J7_49	J8_49	150.00	250.0	140.0	0.1218	Open
P717	J7_50	J7_51	150.00	150.0	130.0	0.1249	Open
P718	J7_50	J8_50	150.00	100.0	125.0	0.0563	Open
P719	J7_51	J7_52	150.00	500.0	120.0	0.0237	Open
P720	J7_51	J8_51	150.00	500.0	125.0	0.0346	Open
P721	J7_52	J8_52	150.00	300.0	140.0	0.1441	Open
P722	J8_1	J8_2	150.00	600.0	120.0	0.0287	Open
P723	J8_1	J9_1	150.00	400.0	130.0	0.0224	Open
P724	J8_2	J8_3	150.00	100.0	140.0	0.1369	Open
P725	J8_2	J9_2	150.00	100.0	125.0	0.0159	Open
P726	J8_3	J8_4	150.00	250.0	130.0	0.0130	Open
P727	J8_3	J9_3	150.00	150.0	135.0	0.0136	Open
P728	J8_4	J8_5	150.00	200.0	125.0	0.0400	Open
P729	J8_4	J9_4	150.00	150.0	130.0	0.0805	Open
P730	J8_5	J8_6	150.00	250.0	125.0	0.0530	Open
P731	J8_5	J9_5	150.00	250.0	135.0	0.1186	Open
P732	J8_6	J8_7	150.00	100.0	140.0	0.1138	Open
P733	J8_6	J9_6	150.00	250.0	125.0	0.0788	Open
P734	J8_7	J8_8	150.00	200.0	135.0	0.1234	Open
P735	J8_7	J9_7	150.00	100.0	130.0	0.1040	Open
P736	J8_8	J8_9	150.00	200.0	130.0	0.0556	Open
P737	J8_8	J9_8	150.00	150.0	135.0	0.0019	Open
P738	J8_9	J8_10	150.00	250.0	130.0	0.0894	Open
P739	J8_9	J9_9	150.00	250.0	130.0	0.0694	Open
P740	J8_10	J8_11	150.00	150.0	140.0	0.0129	Open
P741	J8_10	J9_10	150.00	100.0	130.0	0.0988	Open
P742	J8_11	J8_12	150.00	500.0	125.0	0.0090	Open
P743	J8_11	J9_11	150.00	350.0	130.0	0.0108	Open
P744	J8_12	J8_13	150.00	300.0	135.0	0.0684	Open
P745	J8_12	J9_12	150.00	250.0	140.0	0.0097	Open
P746	J8_13	J8_14	150.00	200.0	130.0	0.0215	Open
P747	J8_13	J9_13	150.00	300.0	125.0	0.0652	Open
P748	J8_14	J8_15	150.00	200.0	135.0	0.0460	Open
P749	J8_14	J9_14	150.00	300.0	135.0	0.1163	Open
P750	J8_15	J8_16	150.00	150.0	130.0	0.0560	Open
P751	J8_15	J9_15	150.00	200.0	125.0	0.0820	Open
P752	J8_16	J8_17	150.00	100.0	125.0	0.0248	Open
P753	J8_16	J9_16	150.00	200.0	140.0	0.0562	Open
P754	J8_17	J8_18	150.00	250.0	135.0	0.0924	Open
P755	J8_17	J9_17	150.00	200.0	130.0	0.0337	Open
P756	J8_18	J8_19	150.00	100.0	130.0	0.0507	Open
P757	J8_18	J9_18	150.00	200.0	140.0	0.0732	Open
P758	J8_19	J8_20	150.00	250.0	130.0	0.0362	Open
P759	J8_19	J9_19	150.00	150.0	125.0	0.0698	Open
P760	J8_20	J8_21	150.00	100.0	135.0	0.1054	Open
P761	J8_20	J9_20	150.00	250.0	140.0	0.0810	Open
P762	J8_21	J8_22	150.00	450.0	130.0	0.0274	Open
P763	J8_21	J9_21	150.00	600.0	125.0	0.0235	Open
P764	J8_22	J8_23	150.00	300.0	135.0	0.0394	Open
P765	J8_22	J9_22	150.00	250.0	125.0	0.0354	Open
P766	J8_23	J8_24	150.00	100.0	125.0	0.0617	Open
P767	J8_23	J9_23	150.00	200.0	135.0	0.1342	Open
P768	J8_24	J8_25	150.00	200.0	135.0	0.1201	Open
P769	J8_24	J9_24	150.00	200.0	125.0	0.0497	Open
P770	J8_25	J8_26	150.00	100.0	130.0	0.0863	Open
P771	J8_25	J9_25	150.00	200.0	125.0	0.1239	Open
P772	J8_26	J8_27	150.00	250.0	130.0	0.0621	Open
P773	J8_26	J9_26	150.00	250.0	135.0	0.0107	Open
P774	J8_27	J8_28	150.00	250.0	135.0	0.0011	Open
P775	J8_27	J9_27	150.00	100.0	130.0	0.1311	Open
P776	J8_28	J8_29	150.00	250.0	130.0	0.0115	Open
P777	J8_28	J9_28	150.00	150.0	140.0	0.0334	Open
P778	J8_29	J8_30	150.00	250.0	140.0	0.0163	Open
P779	J8_29	J9_29	150.00	100.0	125.0	0.0448	Open
P780	J8_30	J8_31	150.00	100.0	140.0	0.1449	Open
P781	J8_30	J9_30	150.00	300.0	130.0	0.0596	Open
P782	J8_31	J8_32	150.00	350.0	125.0	0.0380	Open
P783	J8_31	J9_31	150.00	500.0	130.0	0.0220	Open
P784	J8_32	J8_33	150.00	200.0	130.0	0.1043	Open
P785	J8_32	J9_32	150.00	100.0	135.0	0.0582	Open
P786	J8_33	J8_34	150.00	300.0	135.0	0.0261	Open
P787	J8_33	J9_33	150.00	150.0	140.0	0.1310	Open
P788	J8_34	J8_35	150.00	300.0	125.0	0.1017	Open
P789	J8_34	J9_34	150.00	150.0	140.0	0.0334	Open
P790	J8_35	J8_36	150.00	100.0	140.0	0.1078	Open
P791	J8_35	J9_35	150.00	200.0	135.0	0.1210	Open
P792	J8_36	J8_37	150.00	100.0	140.0	0.1176	Open
P793	J8_36	J9_36	150.00	300.0	130.0	0.0888	Open
P794	J8_37	J8_38	150.00	150.0	140.0	0.0483	Open
P795	J8_37	J9_37	150.00	250.0	125.0	0.0884	Open
P796	J8_38	J8_39	150.00	100.0	130.0	0.0447	Open
P797	J8_38	J9_38	150.00	300.0	130.0	0.0437	Open
P798	J8_39	J8_40	150.00	100.0	140.0	0.0244	Open
P799	J8_39	J9_39	150.00	150.0	125.0	0.1418	Open
P800	J8_40	J8_41	150.00	200.0	125.0	0.1110	Open
P801	J8_40	J9_40	150.00	300.0	140.0	0.0457	Open
P802	J8_41	J8_42	150.00	400.0	125.0	0.0202	Open
P803	J8_41	J9_41	150.00	300.0	125.0	0.0298	Open
P804	J8_42	J8_43	150.00	200.0	140.0	0.0691	Open
P805	J8_42	J9_42	150.00	300.0	125.0	0.1131	Open
P806	J8_43	J8_44	150.00	250.0	125.0	0.1032	Open
P807	J8_43	J9_43	150.00	100.0	125.0	0.1144	Open
P808	J8_44	J8_45	150.00	200.0	130.0	0.0940	Open
P809	J8_44	J9_44	150.00	100.0	140.0	0.0106	Open
P810	J8_45	J8_46	150.00	150.0	135.0	0.1385	Open
P811	J8_45	J9_45	150.00	150.0	130.0	0.0887	Open
P812	J8_46	J8_47	150.00	300.0	140.0	0.1176	Open
P813	J8_46	J9_46	150.00	150.0	135.0	0.0520	Open
P814	J8_47	J8_48	150.00	150.0	125.0	0.0529	Open
P815	J8_47	J9_47	150.00	200.0	140.0	0.0282	Open
P816	J8_48	J8_49	150.00	150.0	125.0	0.0488	Open
P817	J8_48	J9_48	150.00	300.0	135.0	0.0648	Open
P818	J8_49	J8_50	150.00	300.0	125.0	0.0750	Open
P819	J8_49	J9_49	150.00	200.0	140.0	0.1008	Open
P820	J8_50	J8_51	150.00	150.0	135.0	0.0657	Open
P821	J8_50	J9_50	150.00	100.0	125.0	0.0367	Open
P822	J8_51	J8_52	150.00	350.0	120.0	0.0243	Open
P823	J8_51	J9_51	150.00	500.0	130.0	0.0095	Open
P824	J8_52	J9_52	150.00	300.0	125.0	0.0929	Open
P825	J9_1	J9_2	150.00	600.0	130.0	0.0472	Open
P826	J9_1	J10_1	150.00	450.0	130.0	0.0461	Open
P827	J9_2	J9_3	150.00	150.0	135.0	0.0323	Open
P828	J9_2	J10_2	150.00	150.0	140.0	0.0171	Open
P829	J9_3	J9_4	150.00	200.0	125.0	0.0849	Open
P830	J9_3	J10_3	150.00	200.0	135.0	0.0265	Open
P831	J9_4	J9_5	150.00	250.0	130.0	0.0297	Open
P832	J9_4	J10_4	150.00	100.0	140.0	0.1460	Open
P833	J9_5	J9_6	150.00	150.0	130.0	0.0605	Open
P834	J9_5	J10_5	150.00	150.0	135.0	0.0373	Open
P835	J9_6	J9_7	150.00	150.0	125.0	0.1331	Open
P836	J9_6	J10_6	150.00	100.0	130.0	0.1172	Open
P837	J9_7	J9_8	150.00	250.0	125.0	0.0812	Open
P838	J9_7	J10_7	150.00	100.0	140.0	0.1456	Open
P839	J9_8	J9_9	150.00	200.0	125.0	0.0902	Open
P840	J9_8	J10_8	150.00	100.0	140.0	0.0435	Open
P841	J9_9	J9_10	150.00	250.0	130.0	0.1211	Open
P842	J9_9	J10_9	150.00	300.0	140.0	0.0605	Open
P843	J9_10	J9_11	150.00	300.0	130.0	0.0015	Open
P844	J9_10	J10_10	150.00	150.0	130.0	0.0865	Open
P845	J9_11	J9_12	150.00	300.0	130.0	0.0183	Open
P846	J9_11	J10_11	150.00	400.0	125.0	0.0142	Open
P847	J9_12	J9_13	150.00	200.0	130.0	0.0290	Open
P848	J9_12	J10_12	150.00	300.0	125.0	0.0175	Open
P849	J9_13	J9_14	150.00	300.0	125.0	0.0481	Open
P850	J9_13	J10_13	150.00	100.0	125.0	0.1430	Open
P851	J9_14	J9_15	150.00	150.0	140.0	0.0221	Open
P852	J9_14	J10_14	150.00	200.0	135.0	0.0192	Open
P853	J9_15	J9_16	150.00	100.0	130.0	0.1494	Open
P854	J9_15	J10_15	150.00	250.0	130.0	0.0049	Open
P855	J9_16	J9_17	150.00	250.0	140.0	0.0876	Open
P856	J9_16	J10_16	150.00	200.0	125.0	0.1002	Open
P857	J9_17	J9_18	150.00	250.0	130.0	0.0309	Open
P858	J9_17	J10_17	150.00	150.0	130.0	0.0132	Open
P859	J9_18	J9_19	150.00	150.0	125.0	0.1184	Open
P860	J9_18	J10_18	150.00	100.0	135.0	0.0241	Open
P861	J9_19	J9_20	150.00	150.0	135.0	0.0649	Open
P862	J9_19	J10_19	150.00	150.0	130.0	0.0337	Open
P863	J9_20	J9_21	150.00	200.0	125.0	0.1129	Open
P864	J9_20	J10_20	150.00	100.0	130.0	0.1293	Open
P865	J9_21	J9_22	150.00	450.0	125.0	0.0143	Open
P866	J9_21	J10_21	150.00	350.0	125.0	0.0076	Open
P867	J9_22	J9_23	150.00	250.0	140.0	0.0620	Open
P868	J9_22	J10_22	150.00	150.0	125.0	0.0963	Open
P869	J9_23	J9_24	150.00	150.0	140.0	0.0911	Open
P870	J9_23	J10_23	150.00	150.0	125.0	0.0089	Open
P871	J9_24	J9_25	150.00	150.0	125.0	0.1208	Open
P872	J9_24	J10_24	150.00	250.0	140.0	0.1390	Open
P873	J9_25	J9_26	150.00	250.0	125.0	0.0922	Open
P874	J9_25	J10_25	150.00	300.0	135.0	0.0975	Open
P875	J9_26	J9_27	150.00	300.0	135.0	0.0105	Open
P876	J9_26	J10_26	150.00	250.0	125.0	0.1417	Open
P877	J9_27	J9_28	150.00	150.0	125.0	0.1451	Open
P878	J9_27	J10_27	150.00	300.0	140.0	0.0279	Open
P879	J9_28	J9_29	150.00	150.0	135.0	0.0270	Open
P880	J9_28	J10_28	150.00	250.0	125.0	0.0705	Open
P881	J9_29	J9_30	150.00	250.0	130.0	0.1388	Open
P882	J9_29	J10_29	150.00	250.0	125.0	0.0357	Open
P883	J9_30	J9_31	150.00	150.0	125.0	0.0089	Open
P884	J9_30	J10_30	150.00	250.0	130.0	0.1071	Open
P885	J9_31	J9_32	150.00	400.0	120.0	0.0349	Open
P886	J9_31	J10_31	150.00	300.0	125.0	0.0159	Open
P887	J9_32	J9_33	150.00	300.0	140.0	0.0937	Open
P888	J9_32	J10_32	150.00	300.0	125.0	0.0713	Open
P889	J9_33	J9_34	150.00	250.0	130.0	0.1308	Open
P890	J9_33	J10_33	150.00	250.0	125.0	0.0657	Open
P891	J9_34	J9_35	150.00	300.0	130.0	0.0491	Open
P892	J9_34	J10_34	150.00	300.0	130.0	0.0834	Open
P893	J9_35	J9_36	150.00	200.0	125.0	0.0959	Open
P894	J9_35	J10_35	150.00	300.0	140.0	0.0436	Open
P895	J9_36	J9_37	150.00	150.0	140.0	0.0410	Open
P896	J9_36	J10_36	150.00	250.0	130.0	0.0517	Open
P897	J9_37	J9_38	150.00	200.0	130.0	0.0828	Open
P898	J9_37	J10_37	150.00	250.0	130.0	0.1181	Open
P899	J9_38	J9_39	150.00	250.0	140.0	0.1246	Open
P900	J9_38	J10_38	150.00	200.0	140.0	0.0044	Open
P901	J9_39	J9_40	150.00	100.0	130.0	0.0063	Open
P902	J9_39	J10_39	150.00	300.0	130.0	0.0469	Open
P903	J9_40	J9_41	150.00	100.0	130.0	0.0127	Open
P904	J9_40	J10_40	150.00	250.0	135.0	0.0189	Open
P905	J9_41	J9_42	150.00	400.0	120.0	0.0487	Open
P906	J9_41	J10_41	150.00	450.0	125.0	0.0125	Open
P907	J9_42	J9_43	150.00	250.0	140.0	0.1168	Open
P908	J9_42	J10_42	150.00	250.0	130.0	0.1062	Open
P909	J9_43	J9_44	150.00	100.0	125.0	0.1036	Open
P910	J9_43	J10_43	150.00	100.0	130.0	0.0582	Open
P911	J9_44	J9_45	150.00	200.0	130.0	0.0770	Open
P912	J9_44	J10_44	150.00	150.0	125.0	0.1264	Open
P913	J9_45	J9_46	150.00	100.0	135.0	0.0108	Open
P914	J9_45	J10_45	150.00	100.0	135.0	0.0575	Open
P915	J9_46	J9_47	150.00	150.0	140.0	0.0766	Open
P916	J9_46	J10_46	150.00	200.0	125.0	0.1336	Open
P917	J9_47	J9_48	150.00	200.0	125.0	0.0043	Open
P918	J9_47	J10_47	150.00	300.0	130.0	0.1395	Open
P919	J9_48	J9_49	150.00	100.0	135.0	0.0292	Open
P920	J9_48	J10_48	150.00	200.0	130.0	0.0109	Open
P921	J9_49	J9_50	150.00	300.0	125.0	0.1189	Open
P922	J9_49	J10_49	150.00	250.0	130.0	0.0819	Open
P923	J9_50	J9_51	150.00	150.0	125.0	0.1241	Open
P924	J9_50	J10_50	150.00	200.0	130.0	0.1136	Open
P925	J9_51	J9_52	150.00	350.0	120.0	0.0018	Open
P926	J9_51	J10_51	150.00	300.0	130.0	0.0365	Open
P927	J9_52	J10_52	150.00	250.0	125.0	0.0610	Open
P928	J10_1	J10_2	150.00	400.0	125.0	0.0274	Open
P929	J10_1	J11_1	150.00	450.0	130.0	0.0414	Open
P930	J10_2	J10_3	150.00	100.0	140.0	0.1277	Open
P931	J10_2	J11_2	150.00	300.0	125.0	0.0148	Open
P932	J10_3	J10_4	150.00	250.0	135.0	0.1322	Open
P933	J10_3	J11_3	150.00	200.0	130.0	0.0867	Open
P934	J10_4	J10_5	150.00	150.0	130.0	0.0606	Open
P935	J10_4	J11_4	150.00	150.0	130.0	0.0866	Open
P936	J10_5	J10_6	150.00	100.0	140.0	0.0206	Open
P937	J10_5	J11_5	150.00	250.0	140.0	0.0563	Open
P938	J10_6	J10_7	150.00	150.0	135.0	0.0193	Open
P939	J10_6	J11_6	150.00	100.0	140.0	0.0508	Open
P940	J10_7	J10_8	150.00	200.0	130.0	0.0165	Open
P941	J10_7	J11_7	150.00	200.0	135.0	0.0106	Open
P942	J10_8	J10_9	150.00	300.0	125.0	0.1035	Open
P943	J10_8	J11_8	150.00	200.0	140.0	0.1036	Open
P944	J10_9	J10_10	150.00	300.0	125.0	0.0462	Open
P945	J10_9	J11_9	150.00	200.0	135.0	0.1454	Open
P946	J10_10	J10_11	150.00	100.0	140.0	0.1378	Open
P947	J10_10	J11_10	150.00	100.0	140.0	0.0869	Open
P948	J10_11	J10_12	150.00	400.0	120.0	0.0051	Open
P949	J10_11	J11_11	150.00	600.0	125.0	0.0187	Open
P950	J10_12	J10_13	150.00	150.0	125.0	0.0524	Open
P951	J10_12	J11_12	150.00	300.0	130.0	0.1363	Open
P952	J10_13	J10_14	150.00	300.0	125.0	0.1075	Open
P953	J10_13	J11_13	150.00	200.0	140.0	0.0369	Open
P954	J10_14	J10_15	150.00	300.0	130.0	0.0728	Open
P955	J10_14	J11_14	150.00	300.0	140.0	0.0782	Open
P956	J10_15	J10_16	150.00	150.0	130.0	0.1027	Open
P957	J10_15	J11_15	150.00	300.0	140.0	0.1233	Open
P958	J10_16	J10_17	150.00	300.0	135.0	0.0190	Open
P959	J10_16	J11_16	150.00	150.0	135.0	0.1376	Open
P960	J10_17	J10_18	150.00	200.0	125.0	0.1465	Open
P961	J10_17	J11_17	150.00	100.0	140.0	0.1477	Open
P962	J10_18	J10_19	150.00	250.0	130.0	0.0546	Open
P963	J10_18	J11_18	150.00	300.0	130.0	0.1124	Open
P964	J10_19	J10_20	150.00	150.0	140.0	0.0289	Open
P965	J10_19	J11_19	150.00	250.0	135.0	0.1220	Open
P966	J10_20	J10_21	150.00	250.0	135.0	0.0347	Open
P967	J10_20	J11_20	150.00	200.0	130.0	0.0982	Open
P968	J10_21	J10_22	150.00	450.0	120.0	0.0120	Open
P969	J10_21	J11_21	150.00	600.0	125.0	0.0473	Open
P970	J10_22	J10_23	150.00	300.0	140.0	0.1453	Open
P971	J10_22	J11_22	150.00	150.0	130.0	0.0335	Open
P972	J10_23	J10_24	150.00	100.0	125.0	0.1212	Open
P973	J10_23	J11_23	150.00	300.0	135.0	0.1407	Open
P974	J10_24	J10_25	150.00	300.0	135.0	0.1445	Open
P975	J10_24	J11_24	150.00	250.0	140.0	0.0221	Open
P976	J10_25	J10_26	150.00	250.0	130.0	0.1183	Open
P977	J10_25	J11_25	150.00	200.0	135.0	0.0027	Open
P978	J10_26	J10_27	150.00	250.0	140.0	0.0861	Open
P979	J10_26	J11_26	150.00	300.0	140.0	0.1341	Open
P980	J10_27	J10_28	150.00	100.0	135.0	0.1121	Open
P981	J10_27	J11_27	150.00	100.0	125.0	0.1110	Open
P982	J10_28	J10_29	150.00	150.0	140.0	0.0400	Open
P983	J10_28	J11_28	150.00	150.0	125.0	0.0604	Open
P984	J10_29	J10_30	150.00	300.0	125.0	0.0603	Open
P985	J10_29	J11_29	150.00	200.0	135.0	0.0910	Open
P986	J10_30	J10_31	150.00	300.0	135.0	0.1458	Open
P987	J10_30	J11_30	150.00	150.0	135.0	0.0870	Open
P988	J10_31	J10_32	150.00	450.0	130.0	0.0164	Open
P989	J10_31	J11_31	150.00	300.0	120.0	0.0396	Open
P990	J10_32	J10_33	150.00	150.0	130.0	0.0136	Open
P991	J10_32	J11_32	150.00	200.0	135.0	0.0143	Open
P992	J10_33	J10_34	150.00	200.0	135.0	0.0887	Open
P993	J10_33	J11_33	150.00	300.0	125.0	0.0341	Open
P994	J10_34	J10_35	150.00	100.0	130.0	0.0460	Open
P995	J10_34	J11_34	150.00	100.0	130.0	0.1124	Open
P996	J10_35	J10_36	150.00	100.0	125.0	0.0076	Open
P997	J10_35	J11_35	150.00	200.0	130.0	0.1225	Open
P998	J10_36	J10_37	150.00	150.0	135.0	0.1049	Open
P999	J10_36	J11_36	150.00	150.0	125.0	0.0440	Open
P1000	J10_37	J10_38	150.00	250.0	130.0	0.0605	Open
P1001	J10_37	J11_37	150.00	200.0	125.0	0.1437	Open
P1002	J10_38	J10_39	150.00	200.0	140.0	0.1407	Open
P1003	J10_38	J11_38	150.00	150.0	130.0	0.0200	Open
P1004	J10_39	J10_40	150.00	150.0	125.0	0.0959	Open
P1005	J10_39	J11_39	150.00	250.0	125.0	0.0443	Open
P1006	J10_40	J10_41	150.00	250.0	125.0	0.1251	Open
P1007	J10_40	J11_40	150.00	250.0	130.0	0.0600	Open
P1008	J10_41	J10_42	150.00	350.0	120.0	0.0451	Open
P1009	J10_41	J11_41	150.00	400.0	120.0	0.0316	Open
P1010	J10_42	J10_43	150.00	300.0	135.0	0.1146	Open
P1011	J10_42	J11_42	150.00	200.0	125.0	0.0146	Open
P1012	J10_43	J10_44	150.00	250.0	130.0	0.0940	Open
P1013	J10_43	J11_43	150.00	100.0	140.0	0.0224	Open
P1014	J10_44	J10_45	150.00	300.0	135.0	0.0108	Open
P1015	J10_44	J11_44	150.00	150.0	125.0	0.0236	Open
P1016	J10_45	J10_46	150.00	300.0	135.0	0.1122	Open
P1017	J10_45	J11_45	150.00	150.0	130.0	0.0199	Open
P1018	J10_46	J10_47	150.00	200.0	135.0	0.0225	Open
P1019	J10_46	J11_46	150.00	250.0	130.0	0.0894	Open
P1020	J10_47	J10_48	150.00	150.0	130.0	0.0273	Open
P1021	J10_47	J11_47	150.00	150.0	140.0	0.0134	Open
P1022	J10_48	J10_49	150.00	150.0	140.0	0.0561	Open
P1023	J10_48	J11_48	150.00	150.0	130.0	0.1037	Open
P1024	J10_49	J10_50	150.00	150.0	135.0	0.0752	Open
P1025	J10_49	J11_49	150.00	300.0	140.0	0.0057	Open
P1026	J10_50	J10_51	150.00	100.0	125.0	0.0600	Open
P1027	J10_50	J11_50	150.00	100.0	140.0	0.0060	Open
P1028	J10_51	J10_52	150.00	600.0	130.0	0.0492	Open
P1029	J10_51	J11_51	150.00	600.0	125.0	0.0404	Open
P1030	J10_52	J11_52	150.00	200.0	140.0	0.0538	Open
P1031	J11_1	J11_2	150.00	450.0	130.0	0.0031	Open
P1032	J11_1	J12_1	150.00	300.0	120.0	0.0287	Open
P1033	J11_2	J11_3	150.00	600.0	120.0	0.0429	Open
P1034	J11_2	J12_2	150.00	350.0	125.0	0.0330	Open
P1035	J11_3	J11_4	150.00	600.0	120.0	0.0029	Open
P1036	J11_3	J12_3	150.00	350.0	125.0	0.0454	Open
P1037	J11_4	J11_5	150.00	500.0	125.0	0.0034	Open
P1038	J11_4	J12_4	150.00	400.0	130.0	0.0229	Open
P1039	J11_5	J11_6	150.00	300.0	120.0	0.0198	Open
P1040	J11_5	J12_5	150.00	450.0	125.0	0.0007	Open
P1041	J11_6	J11_7	150.00	450.0	130.0	0.0233	Open
P1042	J11_6	J12_6	150.00	450.0	130.0	0.0460	Open
P1043	J11_7	J11_8	150.00	500.0	130.0	0.0489	Open
P1044	J11_7	J12_7	150.00	350.0	120.0	0.0341	Open
P1045	J11_8	J11_9	150.00	350.0	120.0	0.0071	Open
P1046	J11_8	J12_8	150.00	450.0	120.0	0.0364	Open
P1047	J11_9	J11_10	150.00	300.0	120.0	0.0203	Open
P1048	J11_9	J12_9	150.00	600.0	120.0	0.0420	Open
P1049	J11_10	J11_11	150.00	600.0	120.0	0.0394	Open
P1050	J11_10	J12_10	150.00	400.0	125.0	0.0387	Open
P1051	J11_11	J11_12	150.00	450.0	120.0	0.0397	Open
P1052	J11_11	J12_11	150.00	350.0	120.0	0.0158	Open
P1053	J11_12	J11_13	150.00	350.0	125.0	0.0064	Open
P1054	J11_12	J12_12	150.00	400.0	120.0	0.0176	Open
P1055	J11_13	J11_14	150.00	500.0	125.0	0.0399	Open
P1056	J11_13	J12_13	150.00	500.0	125.0	0.0036	Open
P1057	J11_14	J11_15	150.00	400.0	130.0	0.0180	Open
P1058	J11_14	J12_14	150.00	500.0	130.0	0.0142	Open
P1059	J11_15	J11_16	150.00	450.0	120.0	0.0302	Open
P1060	J11_15	J12_15	150.00	350.0	120.0	0.0213	Open
P1061	J11_16	J11_17	150.00	350.0	125.0	0.0056	Open
P1062	J11_16	J12_16	150.00	500.0	120.0	0.0370	Open
P1063	J11_17	J11_18	150.00	600.0	125.0	0.0370	Open
P1064	J11_17	J12_17	150.00	600.0	125.0	0.0180	Open
P1065	J11_18	J11_19	150.00	400.0	120.0	0.0264	Open
P1066	J11_18	J12_18	150.00	500.0	120.0	0.0462	Open
P1067	J11_19	J11_20	150.00	400.0	125.0	0.0038	Open
P1068	J11_19	J12_19	150.00	500.0	130.0	0.0032	Open
P1069	J11_20	J11_21	150.00	400.0	120.0	0.0330	Open
P1070	J11_20	J12_20	150.00	600.0	120.0	0.0256	Open
P1071	J11_21	J11_22	150.00	500.0	120.0	0.0398	Open
P1072	J11_21	J12_21	150.00	500.0	125.0	0.0123	Open
P1073	J11_22	J11_23	150.00	450.0	130.0	0.0158	Open
P1074	J11_22	J12_22	150.00	600.0	125.0	0.0028	Open
P1075	J11_23	J11_24	150.00	450.0	130.0	0.0323	Open
P1076	J11_23	J12_23	150.00	300.0	120.0	0.0395	Open
P1077	J11_24	J11_25	150.00	450.0	125.0	0.0245	Open
P1078	J11_24	J12_24	150.00	400.0	130.0	0.0367	Open
P1079	J11_25	J11_26	150.00	400.0	125.0	0.0496	Open
P1080	J11_25	J12_25	150.00	500.0	125.0	0.0034	Open
P1081	J11_26	J11_27	150.00	350.0	120.0	0.0221	Open
P1082	J11_26	J12_26	150.00	300.0	120.0	0.0245	Open
P1083	J11_27	J11_28	150.00	500.0	125.0	0.0313	Open
P1084	J11_27	J12_27	150.00	450.0	120.0	0.0107	Open
P1085	J11_28	J11_29	150.00	400.0	125.0	0.0138	Open
P1086	J11_28	J12_28	150.00	300.0	125.0	0.0418	Open
P1087	J11_29	J11_30	150.00	500.0	130.0	0.0341	Open
P1088	J11_29	J12_29	150.00	500.0	130.0	0.0450	Open
P1089	J11_30	J11_31	150.00	400.0	120.0	0.0397	Open
P1090	J11_30	J12_30	150.00	400.0	130.0	0.0344	Open
P1091	J11_31	J11_32	150.00	400.0	130.0	0.0226	Open
P1092	J11_31	J12_31	150.00	350.0	120.0	0.0027	Open
P1093	J11_32	J11_33	150.00	350.0	125.0	0.0223	Open
P1094	J11_32	J12_32	150.00	600.0	130.0	0.0144	Open
P1095	J11_33	J11_34	150.00	450.0	125.0	0.0134	Open
P1096	J11_33	J12_33	150.00	500.0	130.0	0.0156	Open
P1097	J11_34	J11_35	150.00	450.0	120.0	0.0045	Open
P1098	J11_34	J12_34	150.00	400.0	120.0	0.0369	Open
P1099	J11_35	J11_36	150.00	400.0	125.0	0.0042	Open
P1100	J11_35	J12_35	150.00	600.0	130.0	0.0299	Open
P1101	J11_36	J11_37	150.00	600.0	120.0	0.0023	Open
P1102	J11_36	J12_36	150.00	350.0	125.0	0.0014	Open
P1103	J11_37	J11_38	150.00	500.0	125.0	0.0123	Open
P1104	J11_37	J12_37	150.00	350.0	120.0	0.0150	Open
P1105	J11_38	J11_39	150.00	350.0	130.0	0.0112	Open
P1106	J11_38	J12_38	150.00	300.0	120.0	0.0408	Open
P1107	J11_39	J11_40	150.00	500.0	130.0	0.0365	Open
P1108	J11_39	J12_39	150.00	400.0	130.0	0.0356	Open
P1109	J11_40	J11_41	150.00	300.0	130.0	0.0299	Open
P1110	J11_40	J12_40	150.00	400.0	120.0	0.0162	Open
P1111	J11_41	J11_42	150.00	600.0	125.0	0.0377	Open
P1112	J11_41	J12_41	150.00	350.0	125.0	0.0427	Open
P1113	J11_42	J11_43	150.00	450.0	130.0	0.0084	Open
P1114	J11_42	J12_42	150.00	500.0	125.0	0.0276	Open
P1115	J11_43	J11_44	150.00	450.0	130.0	0.0046	Open
P1116	J11_43	J12_43	150.00	500.0	125.0	0.0018	Open
P1117	J11_44	J11_45	150.00	300.0	130.0	0.0368	Open
P1118	J11_44	J12_44	150.00	450.0	130.0	0.0140	Open
P1119	J11_45	J11_46	150.00	300.0	125.0	0.0324	Open
P1120	J11_45	J12_45	150.00	300.0	130.0	0.0498	Open
P1121	J11_46	J11_47	150.00	400.0	120.0	0.0214	Open
P1122	J11_46	J12_46	150.00	300.0	125.0	0.0183	Open
P1123	J11_47	J11_48	150.00	500.0	130.0	0.0033	Open
P1124	J11_47	J12_47	150.00	300.0	130.0	0.0488	Open
P1125	J11_48	J11_49	150.00	400.0	125.0	0.0343	Open
P1126	J11_48	J12_48	150.00	600.0	130.0	0.0106	Open
P1127	J11_49	J11_50	150.00	400.0	130.0	0.0083	Open
P1128	J11_49	J12_49	150.00	450.0	130.0	0.0377	Open
P1129	J11_50	J11_51	150.00	400.0	130.0	0.0301	Open
P1130	J11_50	J12_50	150.00	350.0	125.0	0.0049	Open
P1131	J11_51	J11_52	150.00	450.0	125.0	0.0181	Open
P1132	J11_51	J12_51	150.00	450.0	130.0	0.0043	Open
P1133	J11_52	J12_52	150.00	300.0	125.0	0.0395	Open
P1134	J12_1	J12_2	150.00	300.0	125.0	0.0317	Open
P1135	J12_1	J13_1	150.00	600.0	120.0	0.0288	Open
P1136	J12_2	J12_3	150.00	300.0	130.0	0.0027	Open
P1137	J12_2	J13_2	150.00	300.0	125.0	0.0902	Open
P1138	J12_3	J12_4	150.00	200.0	140.0	0.0468	Open
P1139	J12_3	J13_3	150.00	300.0	125.0	0.0523	Open
P1140	J12_4	J12_5	150.00	100.0	140.0	0.1259	Open
P1141	J12_4	J13_4	150.00	200.0	135.0	0.0062	Open
P1142	J12_5	J12_6	150.00	300.0	140.0	0.0261	Open
P1143	J12_5	J13_5	150.00	250.0	135.0	0.0944	Open
P1144	J12_6	J12_7	150.00	300.0	140.0	0.0128	Open
P1145	J12_6	J13_6	150.00	200.0	130.0	0.0687	Open
P1146	J12_7	J12_8	150.00	250.0	135.0	0.0742	Open
P1147	J12_7	J13_7	150.00	150.0	125.0	0.1395	Open
P1148	J12_8	J12_9	150.00	200.0	130.0	0.0708	Open
P1149	J12_8	J13_8	150.00	300.0	140.0	0.1463	Open
P1150	J12_9	J12_10	150.00	100.0	125.0	0.0744	Open
P1151	J12_9	J13_9	150.00	250.0	135.0	0.1311	Open
P1152	J12_10	J12_11	150.00	150.0	135.0	0.0359	Open
P1153	J12_10	J13_10	150.00	200.0	135.0	0.0869	Open
P1154	J12_11	J12_12	150.00	400.0	120.0	0.0343	Open
P1155	J12_11	J13_11	150.00	350.0	120.0	0.0251	Open
P1156	J12_12	J12_13	150.00	150.0	135.0	0.0179	Open
P1157	J12_12	J13_12	150.00	150.0	130.0	0.0390	Open
P1158	J12_13	J12_14	150.00	100.0	130.0	0.0063	Open
P1159	J12_13	J13_13	150.00	300.0	130.0	0.0770	Open
P1160	J12_14	J12_15	150.00	300.0	140.0	0.0158	Open
P1161	J12_14	J13_14	150.00	100.0	140.0	0.0290	Open
P1162	J12_15	J12_16	150.00	200.0	140.0	0.0168	Open
P1163	J12_15	J13_15	150.00	300.0	125.0	0.0508	Open
P1164	J12_16	J12_17	150.00	250.0	125.0	0.0845	Open
P1165	J12_16	J13_16	150.00	250.0	125.0	0.1322	Open
P1166	J12_17	J12_18	150.00	300.0	125.0	0.1461	Open
P1167	J12_17	J13_17	150.00	300.0	140.0	0.0696	Open
P1168	J12_18	J12_19	150.00	250.0	130.0	0.0625	Open
P1169	J12_18	J13_18	150.00	300.0	135.0	0.0440	Open
P1170	J12_19	J12_20	150.00	200.0	140.0	0.0431	Open
P1171	J12_19	J13_19	150.00	100.0	125.0	0.0764	Open
P1172	J12_20	J12_21	150.00	150.0	125.0	0.0700	Open
P1173	J12_20	J13_20	150.00	100.0	140.0	0.0888	Open
P1174	J12_21	J12_22	150.00	600.0	130.0	0.0283	Open
P1175	J12_21	J13_21	150.00	400.0	120.0	0.0094	Open
P1176	J12_22	J12_23	150.00	300.0	125.0	0.0812	Open
P1177	J12_22	J13_22	150.00	300.0	140.0	0.0773	Open
P1178	J12_23	J12_24	150.00	250.0	135.0	0.0581	Open
P1179	J12_23	J13_23	150.00	200.0	130.0	0.0492	Open
P1180	J12_24	J12_25	150.00	300.0	140.0	0.1201	Open
P1181	J12_24	J13_24	150.00	200.0	135.0	0.1026	Open
P1182	J12_25	J12_26	150.00	200.0	130.0	0.0366	Open
P1183	J12_25	J13_25	150.00	100.0	135.0	0.0721	Open
P1184	J12_26	J12_27	150.00	250.0	140.0	0.0400	Open
P1185	J12_26	J13_26	150.00	250.0	130.0	0.0270	Open
P1186	J12_27	J12_28	150.00	200.0	125.0	0.1431	Open
P1187	J12_27	J13_27	150.00	300.0	135.0	0.0351	Open
P1188	J12_28	J12_29	150.00	300.0	135.0	0.0024	Open
P1189	J12_28	J13_28	150.00	150.0	140.0	0.0231	Open
P1190	J12_29	J12_30	150.00	100.0	125.0	0.1138	Open
P1191	J12_29	J13_29	150.00	200.0	135.0	0.0751	Open
P1192	J12_30	J12_31	150.00	100.0	135.0	0.1428	Open
P1193	J12_30	J13_30	150.00	150.0	140.0	0.1421	Open
P1194	J12_31	J12_32	150.00	600.0	125.0	0.0275	Open
P1195	J12_31	J13_31	150.00	350.0	130.0	0.0193	Open
P1196	J12_32	J12_33	150.00	250.0	130.0	0.0156	Open
P1197	J12_32	J13_32	150.00	100.0	140.0	0.0666	Open
P1198	J12_33	J12_34	150.00	200.0	125.0	0.0920	Open
P1199	J12_33	J13_33	150.00	100.0	130.0	0.0473	Open
P1200	J12_34	J12_35	150.00	150.0	140.0	0.0797	Open
P1201	J12_34	J13_34	150.00	200.0	130.0	0.1445	Open
P1202	J12_35	J12_36	150.00	300.0	135.0	0.0357	Open
P1203	J12_35	J13_35	150.00	300.0	130.0	0.0206	Open
P1204	J12_36	J12_37	150.00	250.0	135.0	0.0314	Open
P1205	J12_36	J13_36	150.00	300.0	130.0	0.0943	Open
P1206	J12_37	J12_38	150.00	150.0	135.0	0.1108	Open
P1207	J12_37	J13_37	150.00	150.0	130.0	0.0452	Open
P1208	J12_38	J12_39	150.00	200.0	140.0	0.1469	Open
P1209	J12_38	J13_38	150.00	150.0	130.0	0.1228	Open
P1210	J12_39	J12_40	150.00	100.0	140.0	0.0781	Open
P1211	J12_39	J13_39	150.00	150.0	135.0	0.0440	Open
P1212	J12_40	J12_41	150.00	300.0	125.0	0.1498	Open
P1213	J12_40	J13_40	150.00	200.0	125.0	0.0801	Open
P1214	J12_41	J12_42	150.00	300.0	125.0	0.0405	Open
P1215	J12_41	J13_41	150.00	350.0	130.0	0.0118	Open
P1216	J12_42	J12_43	150.00	250.0	140.0	0.0466	Open
P1217	J12_42	J13_42	150.00	100.0	140.0	0.0373	Open
P1218	J12_43	J12_44	150.00	200.0	135.0	0.1478	Open
P1219	J12_43	J13_43	150.00	200.0	140.0	0.0506	Open
P1220	J12_44	J12_45	150.00	300.0	135.0	0.1115	Open
P1221	J12_44	J13_44	150.00	100.0	140.0	0.0130	Open
P1222	J12_45	J12_46	150.00	100.0	140.0	0.0419	Open
P1223	J12_45	J13_45	150.00	200.0	125.0	0.0879	Open
P1224	J12_46	J12_47	150.00	250.0	125.0	0.1220	Open
P1225	J12_46	J13_46	150.00	200.0	125.0	0.0274	Open
P1226	J12_47	J12_48	150.00	250.0	140.0	0.0646	Open
P1227	J12_47	J13_47	150.00	100.0	125.0	0.0755	Open
P1228	J12_48	J12_49	150.00	150.0	125.0	0.0751	Open
P1229	J12_48	J13_48	150.00	100.0	140.0	0.0596	Open
P1230	J12_49	J12_50	150.00	100.0	125.0	0.1188	Open
P1231	J12_49	J13_49	150.00	250.0	125.0	0.0444	Open
P1232	J12_50	J12_51	150.00	200.0	125.0	0.0585	Open
P1233	J12_50	J13_50	150.00	200.0	135.0	0.1415	Open
P1234	J12_51	J12_52	150.00	400.0	125.0	0.0217	Open
P1235	J12_51	J13_51	150.00	300.0	120.0	0.0136	Open
P1236	J12_52	J13_52	150.00	150.0	140.0	0.0329	Open
P1237	J13_1	J13_2	150.00	450.0	130.0	0.0232	Open
P1238	J13_1	J14_1	150.00	350.0	120.0	0.0046	Open
P1239	J13_2	J13_3	150.00	200.0	130.0	0.0395	Open
P1240	J13_2	J14_2	150.00	200.0	140.0	0.1342	Open
P1241	J13_3	J13_4	150.00	200.0	125.0	0.0309	Open
P1242	J13_3	J14_3	150.00	200.0	140.0	0.0835	Open
P1243	J13_4	J13_5	150.00	150.0	125.0	0.0346	Open
P1244	J13_4	J14_4	150.00	300.0	125.0	0.1293	Open
P1245	J13_5	J13_6	150.00	100.0	130.0	0.0586	Open
P1246	J13_5	J14_5	150.00	150.0	140.0	0.1092	Open
P1247	J13_6	J13_7	150.00	300.0	125.0	0.0885	Open
P1248	J13_6	J14_6	150.00	200.0	135.0	0.0931	Open
P1249	J13_7	J13_8	150.00	300.0	140.0	0.0958	Open
P1250	J13_7	J14_7	150.00	150.0	130.0	0.0695	Open
P1251	J13_8	J13_9	150.00	150.0	140.0	0.0392	Open
P1252	J13_8	J14_8	150.00	200.0	130.0	0.0217	Open
P1253	J13_9	J13_10	150.00	250.0	125.0	0.1026	Open
P1254	J13_9	J14_9	150.00	150.0	140.0	0.0821	Open
P1255	J13_10	J13_11	150.00	300.0	125.0	0.1465	Open
P1256	J13_10	J14_10	150.00	100.0	130.0	0.0136	Open
P1257	J13_11	J13_12	150.00	350.0	120.0	0.0174	Open
P1258	J13_11	J14_11	150.00	300.0	125.0	0.0220	Open
P1259	J13_12	J13_13	150.00	300.0	130.0	0.1264	Open
P1260	J13_12	J14_12	150.00	200.0	135.0	0.1199	Open
P1261	J13_13	J13_14	150.00	250.0	140.0	0.0259	Open
P1262	J13_13	J14_13	150.00	300.0	130.0	0.0754	Open
P1263	J13_14	J13_15	150.00	250.0	140.0	0.1065	Open
P1264	J13_14	J14_14	150.00	100.0	125.0	0.1033	Open
P1265	J13_15	J13_16	150.00	150.0	135.0	0.0338	Open
P1266	J13_15	J14_15	150.00	200.0	135.0	0.1032	Open
P1267	J13_16	J13_17	150.00	300.0	130.0	0.0516	Open
P1268	J13_16	J14_16	150.00	100.0	135.0	0.0437	Open
P1269	J13_17	J13_18	150.00	300.0	135.0	0.0798	Open
P1270	J13_17	J14_17	150.00	300.0	140.0	0.1276	Open
P1271	J13_18	J13_19	150.00	300.0	135.0	0.0221	Open
P1272	J13_18	J14_18	150.00	100.0	140.0	0.0307	Open
P1273	J13_19	J13_20	150.00	300.0	130.0	0.1211	Open
P1274	J13_19	J14_19	150.00	250.0	125.0	0.0113	Open
P1275	J13_20	J13_21	150.00	100.0	135.0	0.0952	Open
P1276	J13_20	J14_20	150.00	150.0	130.0	0.0197	Open
P1277	J13_21	J13_22	150.00	300.0	120.0	0.0426	Open
P1278	J13_21	J14_21	150.00	350.0	120.0	0.0013	Open
P1279	J13_22	J13_23	150.00	200.0	140.0	0.1289	Open
P1280	J13_22	J14_22	150.00	200.0	130.0	0.0510	Open
P1281	J13_23	J13_24	150.00	200.0	140.0	0.0586	Open
P1282	J13_23	J14_23	150.00	150.0	125.0	0.1340	Open
P1283	J13_24	J13_25	150.00	200.0	125.0	0.0090	Open
P1284	J13_24	J14_24	150.00	200.0	135.0	0.0981	Open
P1285	J13_25	J13_26	150.00	200.0	140.0	0.0362	Open
P1286	J13_25	J14_25	150.00	200.0	125.0	0.0286	Open
P1287	J13_26	J13_27	150.00	200.0	140.0	0.0698	Open
P1288	J13_26	J14_26	150.00	200.0	135.0	0.0659	Open
P1289	J13_27	J13_28	150.00	250.0	125.0	0.0228	Open
P1290	J13_27	J14_27	150.00	200.0	135.0	0.0758	Open
P1291	J13_28	J13_29	150.00	300.0	135.0	0.1147	Open
P1292	J13_28	J14_28	150.00	200.0	130.0	0.0915	Open
P1293	J13_29	J13_30	150.00	250.0	130.0	0.1295	Open
P1294	J13_29	J14_29	150.00	200.0	140.0	0.0425	Open
P1295	J13_30	J13_31	150.00	200.0	130.0	0.0656	Open
P1296	J13_30	J14_30	150.00	150.0	140.0	0.0100	Open
P1297	J13_31	J13_32	150.00	500.0	130.0	0.0062	Open
P1298	J13_31	J14_31	150.00	300.0	125.0	0.0004	Open
P1299	J13_32	J13_33	150.00	200.0	135.0	0.0612	Open
P1300	J13_32	J14_32	150.00	150.0	135.0	0.0254	Open
P1301	J13_33	J13_34	150.00	100.0	125.0	0.0248	Open
P1302	J13_33	J14_33	150.00	300.0	135.0	0.0539	Open
P1303	J13_34	J13_35	150.00	100.0	130.0	0.0878	Open
P1304	J13_34	J14_34	150.00	250.0	135.0	0.0246	Open
P1305	J13_35	J13_36	150.00	300.0	140.0	0.0178	Open
P1306	J13_35	J14_35	150.00	300.0	130.0	0.0179	Open
P1307	J13_36	J13_37	150.00	150.0	140.0	0.0098	Open
P1308	J13_36	J14_36	150.00	250.0	125.0	0.1080	Open
P1309	J13_37	J13_38	150.00	300.0	140.0	0.0087	Open
P1310	J13_37	J14_37	150.00	100.0	130.0	0.1203	Open
P1311	J13_38	J13_39	150.00	100.0	125.0	0.0671	Open
P1312	J13_38	J14_38	150.00	100.0	140.0	0.1198	Open
P1313	J13_39	J13_40	150.00	250.0	130.0	0.0777	Open
P1314	J13_39	J14_39	150.00	300.0	125.0	0.0923	Open
P1315	J13_40	J13_41	150.00	150.0	125.0	0.0490	Open
P1316	J13_40	J14_40	150.00	150.0	130.0	0.0066	Open
P1317	J13_41	J13_42	150.00	350.0	130.0	0.0162	Open
P1318	J13_41	J14_41	150.00	500.0	125.0	0.0109	Open
P1319	J13_42	J13_43	150.00	300.0	135.0	0.0920	Open
P1320	J13_42	J14_42	150.00	150.0	140.0	0.0997	Open
P1321	J13_43	J13_44	150.00	250.0	130.0	0.1340	Open
P1322	J13_43	J14_43	150.00	150.0	140.0	0.1211	Open
P1323	J13_44	J13_45	150.00	100.0	135.0	0.0965	Open
P1324	J13_44	J14_44	150.00	300.0	135.0	0.0941	Open
P1325	J13_45	J13_46	150.00	150.0	135.0	0.0450	Open
P1326	J13_45	J14_45	150.00	200.0	125.0	0.0938	Open
P1327	J13_46	J13_47	150.00	300.0	125.0	0.0332	Open
P1328	J13_46	J14_46	150.00	150.0	135.0	0.1279	Open
P1329	J13_47	J13_48	150.00	250.0	125.0	0.0681	Open
P1330	J13_47	J14_47	150.00	100.0	125.0	0.0733	Open
P1331	J13_48	J13_49	150.00	300.0	140.0	0.0078	Open
P1332	J13_48	J14_48	150.00	250.0	140.0	0.0711	Open
P1333	J13_49	J13_50	150.00	200.0	130.0	0.0765	Open
P1334	J13_49	J14_49	150.00	200.0	140.0	0.1443	Open
P1335	J13_50	J13_51	150.00	150.0	130.0	0.0749	Open
P1336	J13_50	J14_50	150.00	300.0	135.0	0.1355	Open
P1337	J13_51	J13_52	150.00	350.0	125.0	0.0139	Open
P1338	J13_51	J14_51	150.00	500.0	130.0	0.0168	Open
P1339	J13_52	J14_52	150.00	200.0	130.0	0.0478	Open
P1340	J14_1	J14_2	150.00	500.0	125.0	0.0151	Open
P1341	J14_1	J15_1	150.00	300.0	130.0	0.0472	Open
P1342	J14_2	J14_3	150.00	100.0	130.0	0.0688	Open
P1343	J14_2	J15_2	150.00	100.0	130.0	0.0165	Open
P1344	J14_3	J14_4	150.00	300.0	140.0	0.0303	Open
P1345	J14_3	J15_3	150.00	150.0	125.0	0.1198	Open
P1346	J14_4	J14_5	150.00	100.0	130.0	0.0048	Open
P1347	J14_4	J15_4	150.00	100.0	140.0	0.0369	Open
P1348	J14_5	J14_6	150.00	300.0	140.0	0.1330	Open
P1349	J14_5	J15_5	150.00	250.0	135.0	0.0462	Open
P1350	J14_6	J14_7	150.00	250.0	125.0	0.1047	Open
P1351	J14_6	J15_6	150.00	150.0	125.0	0.0410	Open
P1352	J14_7	J14_8	150.00	250.0	130.0	0.1155	Open
P1353	J14_7	J15_7	150.00	200.0	130.0	0.0207	Open
P1354	J14_8	J14_9	150.00	300.0	125.0	0.1076	Open
P1355	J14_8	J15_8	150.00	300.0	140.0	0.1247	Open
P1356	J14_9	J14_10	150.00	150.0	130.0	0.0954	Open
P1357	J14_9	J15_9	150.00	150.0	135.0	0.1106	Open
P1358	J14_10	J14_11	150.00	100.0	140.0	0.0163	Open
P1359	J14_10	J15_10	150.00	250.0	140.0	0.0726	Open
P1360	J14_11	J14_12	150.00	500.0	130.0	0.0175	Open
P1361	J14_11	J15_11	150.00	400.0	130.0	0.0163	Open
P1362	J14_12	J14_13	150.00	150.0	140.0	0.0359	Open
P1363	J14_12	J15_12	150.00	100.0	140.0	0.0090	Open
P1364	J14_13	J14_14	150.00	200.0	125.0	0.1189	Open
P1365	J14_13	J15_13	150.00	300.0	125.0	0.0877	Open
P1366	J14_14	J14_15	150.00	100.0	125.0	0.1469	Open
P1367	J14_14	J15_14	150.00	200.0	140.0	0.0104	Open
P1368	J14_15	J14_16	150.00	250.0	135.0	0.0276	Open
P1369	J14_15	J15_15	150.00	250.0	130.0	0.0225	Open
P1370	J14_16	J14_17	150.00	100.0	140.0	0.0555	Open
P1371	J14_16	J15_16	150.00	200.0	140.0	0.0928	Open
P1372	J14_17	J14_18	150.00	250.0	135.0	0.1419	Open
P1373	J14_17	J15_17	150.00	250.0	140.0	0.1253	Open
P1374	J14_18	J14_19	150.00	200.0	130.0	0.0443	Open
P1375	J14_18	J15_18	150.00	150.0	135.0	0.0211	Open
P1376	J14_19	J14_20	150.00	200.0	125.0	0.0396	Open
P1377	J14_19	J15_19	150.00	100.0	140.0	0.0049	Open
P1378	J14_20	J14_21	150.00	200.0	130.0	0.1328	Open
P1379	J14_20	J15_20	150.00	250.0	135.0	0.0101	Open
P1380	J14_21	J14_22	150.00	300.0	120.0	0.0107	Open
P1381	J14_21	J15_21	150.00	500.0	125.0	0.0086	Open
P1382	J14_22	J14_23	150.00	200.0	125.0	0.1395	Open
P1383	J14_22	J15_22	150.00	100.0	130.0	0.0538	Open
P1384	J14_23	J14_24	150.00	150.0	125.0	0.1126	Open
P1385	J14_23	J15_23	150.00	100.0	130.0	0.0561	Open
P1386	J14_24	J14_25	150.00	100.0	130.0	0.1382	Open
P1387	J14_24	J15_24	150.00	100.0	125.0	0.0754	Open
P1388	J14_25	J14_26	150.00	200.0	130.0	0.0341	Open
P1389	J14_25	J15_25	150.00	300.0	130.0	0.1248	Open
P1390	J14_26	J14_27	150.00	100.0	130.0	0.0132	Open
P1391	J14_26	J15_26	150.00	250.0	125.0	0.1256	Open
P1392	J14_27	J14_28	150.00	100.0	140.0	0.0252	Open
P1393	J14_27	J15_27	150.00	100.0	125.0	0.1186	Open
P1394	J14_28	J14_29	150.00	300.0	130.0	0.1100	Open
P1395	J14_28	J15_28	150.00	250.0	135.0	0.1113	Open
P1396	J14_29	J14_30	150.00	150.0	130.0	0.1169	Open
P1397	J14_29	J15_29	150.00	300.0	130.0	0.1420	Open
P1398	J14_30	J14_31	150.00	250.0	125.0	0.0070	Open
P1399	J14_30	J15_30	150.00	200.0	135.0	0.0678	Open
P1400	J14_31	J14_32	150.00	300.0	130.0	0.0060	Open
P1401	J14_31	J15_31	150.00	600.0	125.0	0.0276	Open
P1402	J14_32	J14_33	150.00	150.0	125.0	0.1262	Open
P1403	J14_32	J15_32	150.00	150.0	130.0	0.0075	Open
P1404	J14_33	J14_34	150.00	300.0	130.0	0.1234	Open
P1405	J14_33	J15_33	150.00	250.0	140.0	0.1157	Open
P1406	J14_34	J14_35	150.00	300.0	140.0	0.0634	Open
P1407	J14_34	J15_34	150.00	200.0	125.0	0.0036	Open
P1408	J14_35	J14_36	150.00	300.0	135.0	0.0273	Open
P1409	J14_35	J15_35	150.00	150.0	135.0	0.0475	Open
P1410	J14_36	J14_37	150.00	100.0	125.0	0.1282	Open
P1411	J14_36	J15_36	150.00	150.0	135.0	0.1327	Open
P1412	J14_37	J14_38	150.00	150.0	130.0	0.1400	Open
P1413	J14_37	J15_37	150.00	200.0	135.0	0.1432	Open
P1414	J14_38	J14_39	150.00	250.0	130.0	0.1398	Open
P1415	J14_38	J15_38	150.00	300.0	140.0	0.0128	Open
P1416	J14_39	J14_40	150.00	100.0	130.0	0.1175	Open
P1417	J14_39	J15_39	150.00	200.0	135.0	0.0947	Open
P1418	J14_40	J14_41	150.00	100.0	140.0	0.0287	Open
P1419	J14_40	J15_40	150.00	250.0	140.0	0.1391	Open
P1420	J14_41	J14_42	150.00	350.0	120.0	0.0283	Open
P1421	J14_41	J15_41	150.00	400.0	125.0	0.0189	Open
P1422	J14_42	J14_43	150.00	300.0	125.0	0.0026	Open
P1423	J14_42	J15_42	150.00	200.0	130.0	0.1344	Open
P1424	J14_43	J14_44	150.00	300.0	135.0	0.0521	Open
P1425	J14_43	J15_43	150.00	300.0	140.0	0.0128	Open
P1426	J14_44	J14_45	150.00	100.0	135.0	0.0973	Open
P1427	J14_44	J15_44	150.00	300.0	125.0	0.0581	Open
P1428	J14_45	J14_46	150.00	150.0	130.0	0.0969	Open
P1429	J14_45	J15_45	150.00	200.0	135.0	0.1131	Open
P1430	J14_46	J14_47	150.00	100.0	140.0	0.1305	Open
P1431	J14_46	J15_46	150.00	300.0	125.0	0.0282	Open
P1432	J14_47	J14_48	150.00	200.0	125.0	0.1284	Open
P1433	J14_47	J15_47	150.00	250.0	140.0	0.1387	Open
P1434	J14_48	J14_49	150.00	150.0	140.0	0.0772	Open
P1435	J14_48	J15_48	150.00	250.0	140.0	0.0824	Open
P1436	J14_49	J14_50	150.00	200.0	140.0	0.0281	Open
P1437	J14_49	J15_49	150.00	300.0	140.0	0.1379	Open
P1438	J14_50	J14_51	150.00	200.0	125.0	0.1270	Open
P1439	J14_50	J15_50	150.00	250.0	130.0	0.1399	Open
P1440	J14_51	J14_52	150.00	350.0	130.0	0.0119	Open
P1441	J14_51	J15_51	150.00	350.0	130.0	0.0435	Open
P1442	J14_52	J15_52	150.00	150.0	140.0	0.0640	Open
P1443	J15_1	J15_2	150.00	350.0	120.0	0.0199	Open
P1444	J15_1	J16_1	150.00	400.0	120.0	0.0141	Open
P1445	J15_2	J15_3	150.00	300.0	135.0	0.1359	Open
P1446	J15_2	J16_2	150.00	150.0	140.0	0.0186	Open
P1447	J15_3	J15_4	150.00	200.0	140.0	0.1434	Open
P1448	J15_3	J16_3	150.00	200.0	130.0	0.1194	Open
P1449	J15_4	J15_5	150.00	200.0	135.0	0.1368	Open
P1450	J15_4	J16_4	150.00	300.0	125.0	0.1043	Open
P1451	J15_5	J15_6	150.00	100.0	130.0	0.0397	Open
P1452	J15_5	J16_5	150.00	200.0	135.0	0.0177	Open
P1453	J15_6	J15_7	150.00	300.0	125.0	0.0113	Open
P1454	J15_6	J16_6	150.00	200.0	125.0	0.0535	Open
P1455	J15_7	J15_8	150.00	150.0	140.0	0.0511	Open
P1456	J15_7	J16_7	150.00	100.0	135.0	0.1278	Open
P1457	J15_8	J15_9	150.00	250.0	135.0	0.0966	Open
P1458	J15_8	J16_8	150.00	150.0	130.0	0.1258	Open
P1459	J15_9	J15_10	150.00	250.0	125.0	0.0824	Open
P1460	J15_9	J16_9	150.00	150.0	140.0	0.0776	Open
P1461	J15_10	J15_11	150.00	250.0	140.0	0.1061	Open
P1462	J15_10	J16_10	150.00	200.0	130.0	0.0389	Open
P1463	J15_11	J15_12	150.00	500.0	125.0	0.0058	Open
P1464	J15_11	J16_11	150.00	500.0	125.0	0.0387	Open
P1465	J15_12	J15_13	150.00	100.0	135.0	0.1071	Open
P1466	J15_12	J16_12	150.00	150.0	140.0	0.1303	Open
P1467	J15_13	J15_14	150.00	250.0	130.0	0.1283	Open
P1468	J15_13	J16_13	150.00	100.0	140.0	0.0199	Open
P1469	J15_14	J15_15	150.00	300.0	135.0	0.0177	Open
P1470	J15_14	J16_14	150.00	250.0	130.0	0.0782	Open
P1471	J15_15	J15_16	150.00	150.0	125.0	0.1243	Open
P1472	J15_15	J16_15	150.00	250.0	140.0	0.0055	Open
P1473	J15_16	J15_17	150.00	300.0	140.0	0.0854	Open
P1474	J15_16	J16_16	150.00	200.0	135.0	0.1351	Open
P1475	J15_17	J15_18	150.00	250.0	130.0	0.0673	Open
P1476	J15_17	J16_17	150.00	100.0	125.0	0.0654	Open
P1477	J15_18	J15_19	150.00	250.0	140.0	0.0386	Open
P1478	J15_18	J16_18	150.00	200.0	130.0	0.1091	Open
P1479	J15_19	J15_20	150.00	150.0	135.0	0.0550	Open
P1480	J15_19	J16_19	150.00	150.0	140.0	0.1342	Open
P1481	J15_20	J15_21	150.00	100.0	125.0	0.1481	Open
P1482	J15_20	J16_20	150.00	150.0	140.0	0.0937	Open
P1483	J15_21	J15_22	150.00	600.0	120.0	0.0399	Open
P1484	J15_21	J16_21	150.00	300.0	130.0	0.0220	Open
P1485	J15_22	J15_23	150.00	100.0	125.0	0.1330	Open
P1486	J15_22	J16_22	150.00	150.0	130.0	0.0882	Open
P1487	J15_23	J15_24	150.00	150.0	130.0	0.0749	Open
P1488	J15_23	J16_23	150.00	150.0	140.0	0.1487	Open
P1489	J15_24	J15_25	150.00	100.0	140.0	0.0133	Open
P1490	J15_24	J16_24	150.00	300.0	135.0	0.0808	Open
P1491	J15_25	J15_26	150.00	200.0	125.0	0.1150	Open
P1492	J15_25	J16_25	150.00	150.0	135.0	0.0371	Open
P1493	J15_26	J15_27	150.00	250.0	130.0	0.0849	Open
P1494	J15_26	J16_26	150.00	250.0	125.0	0.0272	Open
P1495	J15_27	J15_28	150.00	200.0	130.0	0.0050	Open
P1496	J15_27	J16_27	150.00	300.0	135.0	0.1225	Open
P1497	J15_28	J15_29	150.00	250.0	130.0	0.0874	Open
P1498	J15_28	J16_28	150.00	200.0	125.0	0.0165	Open
P1499	J15_29	J15_30	150.00	200.0	125.0	0.0085	Open
P1500	J15_29	J16_29	150.00	100.0	125.0	0.0886	Open
P1501	J15_30	J15_31	150.00	200.0	130.0	0.1151	Open
P1502	J15_30	J16_30	150.00	100.0	130.0	0.0997	Open
P1503	J15_31	J15_32	150.00	450.0	130.0	0.0186	Open
P1504	J15_31	J16_31	150.00	450.0	125.0	0.0026	Open
P1505	J15_32	J15_33	150.00	250.0	140.0	0.0454	Open
P1506	J15_32	J16_32	150.00	150.0	135.0	0.0495	Open
P1507	J15_33	J15_34	150.00	100.0	125.0	0.0110	Open
P1508	J15_33	J16_33	150.00	150.0	140.0	0.0760	Open
P1509	J15_34	J15_35	150.00	150.0	135.0	0.1112	Open
P1510	J15_34	J16_34	150.00	150.0	140.0	0.0198	Open
P1511	J15_35	J15_36	150.00	150.0	125.0	0.0370	Open
P1512	J15_35	J16_35	150.00	150.0	130.0	0.1415	Open
P1513	J15_36	J15_37	150.00	300.0	140.0	0.1121	Open
P1514	J15_36	J16_36	150.00	300.0	125.0	0.0464	Open
P1515	J15_37	J15_38	150.00	250.0	135.0	0.0137	Open
P1516	J15_37	J16_37	150.00	100.0	140.0	0.0816	Open
P1517	J15_38	J15_39	150.00	250.0	140.0	0.1385	Open
P1518	J15_38	J16_38	150.00	200.0	140.0	0.0270	Open
P1519	J15_39	J15_40	150.00	200.0	130.0	0.1401	Open
P1520	J15_39	J16_39	150.00	300.0	140.0	0.0619	Open
P1521	J15_40	J15_41	150.00	200.0	140.0	0.0023	Open
P1522	J15_40	J16_40	150.00	250.0	130.0	0.0260	Open
P1523	J15_41	J15_42	150.00	350.0	120.0	0.0210	Open
P1524	J15_41	J16_41	150.00	450.0	120.0	0.0217	Open
P1525	J15_42	J15_43	150.00	100.0	130.0	0.0120	Open
P1526	J15_42	J16_42	150.00	200.0	125.0	0.0441	Open
P1527	J15_43	J15_44	150.00	250.0	135.0	0.0137	Open
P1528	J15_43	J16_43	150.00	200.0	140.0	0.1063	Open
P1529	J15_44	J15_45	150.00	300.0	140.0	0.0403	Open
P1530	J15_44	J16_44	150.00	100.0	130.0	0.1092	Open
P1531	J15_45	J15_46	150.00	200.0	125.0	0.0620	Open
P1532	J15_45	J16_45	150.00	250.0	130.0	0.0061	Open
P1533	J15_46	J15_47	150.00	200.0	130.0	0.1115	Open
P1534	J15_46	J16_46	150.00	300.0	135.0	0.0636	Open
P1535	J15_47	J15_48	150.00	300.0	125.0	0.0836	Open
P1536	J15_47	J16_47	150.00	250.0	135.0	0.1366	Open
P1537	J15_48	J15_49	150.00	150.0	135.0	0.0530	Open
P1538	J15_48	J16_48	150.00	250.0	125.0	0.1066	Open
P1539	J15_49	J15_50	150.00	300.0	125.0	0.0194	Open
P1540	J15_49	J16_49	150.00	200.0	130.0	0.1208	Open
P1541	J15_50	J15_51	150.00	250.0	135.0	0.0778	Open
P1542	J15_50	J16_50	150.00	250.0	135.0	0.0762	Open
P1543	J15_51	J15_52	150.00	400.0	125.0	0.0336	Open
P1544	J15_51	J16_51	150.00	600.0	130.0	0.0483	Open
P1545	J15_52	J16_52	150.00	300.0	135.0	0.1349	Open
P1546	J16_1	J16_2	150.00	300.0	120.0	0.0460	Open
P1547	J16_1	J17_1	150.00	500.0	130.0	0.0127	Open
P1548	J16_2	J16_3	150.00	250.0	125.0	0.0909	Open
P1549	J16_2	J17_2	150.00	100.0	135.0	0.0858	Open
P1550	J16_3	J16_4	150.00	250.0	125.0	0.0744	Open
P1551	J16_3	J17_3	150.00	100.0	135.0	0.1190	Open
P1552	J16_4	J16_5	150.00	200.0	140.0	0.1163	Open
P1553	J16_4	J17_4	150.00	300.0	135.0	0.1129	Open
P1554	J16_5	J16_6	150.00	250.0	140.0	0.1022	Open
P1555	J16_5	J17_5	150.00	250.0	135.0	0.0449	Open
P1556	J16_6	J16_7	150.00	150.0	135.0	0.0527	Open
P1557	J16_6	J17_6	150.00	200.0	125.0	0.0045	Open
P1558	J16_7	J16_8	150.00	200.0	125.0	0.0892	Open
P1559	J16_7	J17_7	150.00	200.0	135.0	0.0670	Open
P1560	J16_8	J16_9	150.00	200.0	125.0	0.0705	Open
P1561	J16_8	J17_8	150.00	200.0	135.0	0.0586	Open
P1562	J16_9	J16_10	150.00	200.0	130.0	0.0113	Open
P1563	J16_9	J17_9	150.00	250.0	125.0	0.0817	Open
P1564	J16_10	J16_11	150.00	150.0	135.0	0.1124	Open
P1565	J16_10	J17_10	150.00	150.0	130.0	0.0113	Open
P1566	J16_11	J16_12	150.00	350.0	130.0	0.0414	Open
P1567	J16_11	J17_11	150.00	500.0	125.0	0.0431	Open
P1568	J16_12	J16_13	150.00	100.0	140.0	0.1243	Open
P1569	J16_12	J17_12	150.00	200.0	140.0	0.1441	Open
P1570	J16_13	J16_14	150.00	200.0	135.0	0.0948	Open
P1571	J16_13	J17_13	150.00	150.0	135.0	0.0476	Open
P1572	J16_14	J16_15	150.00	150.0	135.0	0.0841	Open
P1573	J16_14	J17_14	150.00	100.0	125.0	0.0838	Open
P1574	J16_15	J16_16	150.00	100.0	125.0	0.0088	Open
P1575	J16_15	J17_15	150.00	200.0	125.0	0.0032	Open
P1576	J16_16	J16_17	150.00	100.0	135.0	0.0742	Open
P1577	J16_16	J17_16	150.00	200.0	130.0	0.1187	Open
P1578	J16_17	J16_18	150.00	150.0	140.0	0.0426	Open
P1579	J16_17	J17_17	150.00	200.0	135.0	0.0838	Open
P1580	J16_18	J16_19	150.00	300.0	130.0	0.1348	Open
P1581	J16_18	J17_18	150.00	250.0	130.0	0.1417	Open
P1582	J16_19	J16_20	150.00	300.0	130.0	0.0959	Open
P1583	J16_19	J17_19	150.00	150.0	130.0	0.0000	Open
P1584	J16_20	J16_21	150.00	250.0	140.0	0.0290	Open
P1585	J16_20	J17_20	150.00	250.0	130.0	0.0745	Open
P1586	J16_21	J16_22	150.00	300.0	130.0	0.0418	Open
P1587	J16_21	J17_21	150.00	350.0	120.0	0.0318	Open
P1588	J16_22	J16_23	150.00	150.0	130.0	0.0656	Open
P1589	J16_22	J17_22	150.00	200.0	125.0	0.1015	Open
P1590	J16_23	J16_24	150.00	250.0	130.0	0.0862	Open
P1591	J16_23	J17_23	150.00	300.0	125.0	0.1262	Open
P1592	J16_24	J16_25	150.00	250.0	130.0	0.0240	Open
P1593	J16_24	J17_24	150.00	250.0	125.0	0.0949	Open
P1594	J16_25	J16_26	150.00	300.0	125.0	0.0715	Open
P1595	J16_25	J17_25	150.00	300.0	125.0	0.0817	Open
P1596	J16_26	J16_27	150.00	200.0	140.0	0.0696	Open
P1597	J16_26	J17_26	150.00	100.0	135.0	0.0001	Open
P1598	J16_27	J16_28	150.00	250.0	130.0	0.1429	Open
P1599	J16_27	J17_27	150.00	150.0	140.0	0.0369	Open
P1600	J16_28	J16_29	150.00	100.0	130.0	0.1199	Open
P1601	J16_28	J17_28	150.00	250.0	135.0	0.0761	Open
P1602	J16_29	J16_30	150.00	300.0	125.0	0.0706	Open
P1603	J16_29	J17_29	150.00	300.0	130.0	0.1113	Open
P1604	J16_30	J16_31	150.00	200.0	140.0	0.1149	Open
P1605	J16_30	J17_30	150.00	100.0	130.0	0.0888	Open
P1606	J16_31	J16_32	150.00	600.0	120.0	0.0224	Open
P1607	J16_31	J17_31	150.00	350.0	130.0	0.0209	Open
P1608	J16_32	J16_33	150.00	300.0	140.0	0.0203	Open
P1609	J16_32	J17_32	150.00	200.0	135.0	0.1431	Open
P1610	J16_33	J16_34	150.00	300.0	140.0	0.1274	Open
P1611	J16_33	J17_33	150.00	300.0	130.0	0.1092	Open
P1612	J16_34	J16_35	150.00	150.0	135.0	0.0552	Open
P1613	J16_34	J17_34	150.00	200.0	125.0	0.0107	Open
P1614	J16_35	J16_36	150.00	250.0	130.0	0.0475	Open
P1615	J16_35	J17_35	150.00	300.0	125.0	0.0568	Open
P1616	J16_36	J16_37	150.00	200.0	135.0	0.1065	Open
P1617	J16_36	J17_36	150.00	200.0	140.0	0.1032	Open
P1618	J16_37	J16_38	150.00	300.0	130.0	0.0436	Open
P1619	J16_37	J17_37	150.00	150.0	135.0	0.1303	Open
P1620	J16_38	J16_39	150.00	100.0	140.0	0.0803	Open
P1621	J16_38	J17_38	150.00	250.0	135.0	0.1393	Open
P1622	J16_39	J16_40	150.00	100.0	130.0	0.1494	Open
P1623	J16_39	J17_39	150.00	250.0	140.0	0.1435	Open
P1624	J16_40	J16_41	150.00	100.0	140.0	0.1017	Open
P1625	J16_40	J17_40	150.00	200.0	140.0	0.1269	Open
P1626	J16_41	J16_42	150.00	500.0	130.0	0.0139	Open
P1627	J16_41	J17_41	150.00	300.0	125.0	0.0239	Open
P1628	J16_42	J16_43	150.00	300.0	125.0	0.1372	Open
P1629	J16_42	J17_42	150.00	200.0	125.0	0.0738	Open
P1630	J16_43	J16_44	150.00	100.0	125.0	0.0633	Open
P1631	J16_43	J17_43	150.00	250.0	130.0	0.1497	Open
P1632	J16_44	J16_45	150.00	300.0	140.0	0.0360	Open
P1633	J16_44	J17_44	150.00	200.0	135.0	0.0033	Open
P1634	J16_45	J16_46	150.00	200.0	130.0	0.0455	Open
P1635	J16_45	J17_45	150.00	200.0	135.0	0.0966	Open
P1636	J16_46	J16_47	150.00	200.0	140.0	0.1313	Open
P1637	J16_46	J17_46	150.00	250.0	130.0	0.0272	Open
P1638	J16_47	J16_48	150.00	250.0	135.0	0.1336	Open
P1639	J16_47	J17_47	150.00	300.0	130.0	0.1432	Open
P1640	J16_48	J16_49	150.00	300.0	125.0	0.0910	Open
P1641	J16_48	J17_48	150.00	100.0	130.0	0.0182	Open
P1642	J16_49	J16_50	150.00	150.0	140.0	0.0322	Open
P1643	J16_49	J17_49	150.00	100.0	140.0	0.1289	Open
P1644	J16_50	J16_51	150.00	300.0	130.0	0.0730	Open
P1645	J16_50	J17_50	150.00	300.0	140.0	0.0404	Open
P1646	J16_51	J16_52	150.00	350.0	120.0	0.0187	Open
P1647	J16_51	J17_51	150.00	450.0	120.0	0.0357	Open
P1648	J16_52	J17_52	150.00	200.0	140.0	0.0848	Open
P1649	J17_1	J17_2	150.00	350.0	120.0	0.0346	Open
P1650	J17_1	J18_1	150.00	500.0	130.0	0.0193	Open
P1651	J17_2	J17_3	150.00	200.0	140.0	0.0582	Open
P1652	J17_2	J18_2	150.00	200.0	130.0	0.1058	Open
P1653	J17_3	J17_4	150.00	200.0	135.0	0.0765	Open
P1654	J17_3	J18_3	150.00	200.0	130.0	0.1143	Open
P1655	J17_4	J17_5	150.00	250.0	135.0	0.0318	Open
P1656	J17_4	J18_4	150.00	300.0	140.0	0.1100	Open
P1657	J17_5	J17_6	150.00	300.0	140.0	0.0631	Open
P1658	J17_5	J18_5	150.00	300.0	130.0	0.1033	Open
P1659	J17_6	J17_7	150.00	300.0	135.0	0.1327	Open
P1660	J17_6	J18_6	150.00	200.0	125.0	0.0736	Open
P1661	J17_7	J17_8	150.00	300.0	135.0	0.0187	Open
P1662	J17_7	J18_7	150.00	150.0	125.0	0.0827	Open
P1663	J17_8	J17_9	150.00	200.0	135.0	0.1282	Open
P1664	J17_8	J18_8	150.00	100.0	135.0	0.0017	Open
P1665	J17_9	J17_10	150.00	100.0	140.0	0.0663	Open
P1666	J17_9	J18_9	150.00	250.0	130.0	0.0055	Open
P1667	J17_10	J17_11	150.00	150.0	125.0	0.1362	Open
P1668	J17_10	J18_10	150.00	150.0	130.0	0.1048	Open
P1669	J17_11	J17_12	150.00	350.0	120.0	0.0280	Open
P1670	J17_11	J18_11	150.00	450.0	125.0	0.0334	Open
P1671	J17_12	J17_13	150.00	200.0	130.0	0.0775	Open
P1672	J17_12	J18_12	150.00	300.0	135.0	0.0466	Open
P1673	J17_13	J17_14	150.00	200.0	135.0	0.1042	Open
P1674	J17_13	J18_13	150.00	150.0	135.0	0.1457	Open
P1675	J17_14	J17_15	150.00	300.0	125.0	0.0863	Open
P1676	J17_14	J18_14	150.00	200.0	125.0	0.0245	Open
P1677	J17_15	J17_16	150.00	250.0	140.0	0.1036	Open
P1678	J17_15	J18_15	150.00	200.0	135.0	0.0609	Open
P1679	J17_16	J17_17	150.00	300.0	130.0	0.0996	Open
P1680	J17_16	J18_16	150.00	150.0	125.0	0.0853	Open
P1681	J17_17	J17_18	150.00	200.0	130.0	0.0359	Open
P1682	J17_17	J18_17	150.00	300.0	140.0	0.0859	Open
P1683	J17_18	J17_19	150.00	150.0	130.0	0.0728	Open
P1684	J17_18	J18_18	150.00	300.0	140.0	0.0992	Open
P1685	J17_19	J17_20	150.00	200.0	140.0	0.0778	Open
P1686	J17_19	J18_19	150.00	250.0	140.0	0.1270	Open
P1687	J17_20	J17_21	150.00	250.0	125.0	0.0705	Open
P1688	J17_20	J18_20	150.00	300.0	130.0	0.1130	Open
P1689	J17_21	J17_22	150.00	500.0	130.0	0.0122	Open
P1690	J17_21	J18_21	150.00	600.0	130.0	0.0205	Open
P1691	J17_22	J17_23	150.00	250.0	135.0	0.0206	Open
P1692	J17_22	J18_22	150.00	200.0	140.0	0.1257	Open
P1693	J17_23	J17_24	150.00	200.0	135.0	0.0563	Open
P1694	J17_23	J18_23	150.00	100.0	125.0	0.1282	Open
P1695	J17_24	J17_25	150.00	250.0	140.0	0.0426	Open
P1696	J17_24	J18_24	150.00	150.0	130.0	0.1146	Open
P1697	J17_25	J17_26	150.00	250.0	140.0	0.1363	Open
P1698	J17_25	J18_25	150.00	100.0	125.0	0.1012	Open
P1699	J17_26	J17_27	150.00	250.0	135.0	0.0131	Open
P1700	J17_26	J18_26	150.00	250.0	125.0	0.0339	Open
P1701	J17_27	J17_28	150.00	250.0	135.0	0.1438	Open
P1702	J17_27	J18_27	150.00	200.0	130.0	0.0760	Open
P1703	J17_28	J17_29	150.00	300.0	140.0	0.0699	Open
P1704	J17_28	J18_28	150.00	100.0	135.0	0.0644	Open
P1705	J17_29	J17_30	150.00	150.0	130.0	0.0730	Open
P1706	J17_29	J18_29	150.00	300.0	140.0	0.1114	Open
P1707	J17_30	J17_31	150.00	300.0	130.0	0.0742	Open
P1708	J17_30	J18_30	150.00	200.0	140.0	0.1183	Open
P1709	J17_31	J17_32	150.00	400.0	125.0	0.0008	Open
P1710	J17_31	J18_31	150.00	400.0	120.0	0.0191	Open
P1711	J17_32	J17_33	150.00	300.0	125.0	0.0388	Open
P1712	J17_32	J18_32	150.00	150.0	130.0	0.0176	Open
P1713	J17_33	J17_34	150.00	250.0	140.0	0.1264	Open
P1714	J17_33	J18_33	150.00	250.0	140.0	0.0060	Open
P1715	J17_34	J17_35	150.00	150.0	135.0	0.0720	Open
P1716	J17_34	J18_34	150.00	300.0	140.0	0.1365	Open
P1717	J17_35	J17_36	150.00	150.0	135.0	0.1493	Open
P1718	J17_35	J18_35	150.00	250.0	125.0	0.0591	Open
P1719	J17_36	J17_37	150.00	200.0	140.0	0.0495	Open
P1720	J17_36	J18_36	150.00	300.0	130.0	0.0953	Open
P1721	J17_37	J17_38	150.00	100.0	140.0	0.0265	Open
P1722	J17_37	J18_37	150.00	200.0	135.0	0.0790	Open
P1723	J17_38	J17_39	150.00	100.0	130.0	0.0355	Open
P1724	J17_38	J18_38	150.00	100.0	130.0	0.0769	Open
P1725	J17_39	J17_40	150.00	300.0	135.0	0.0102	Open
P1726	J17_39	J18_39	150.00	150.0	130.0	0.1365	Open
P1727	J17_40	J17_41	150.00	100.0	125.0	0.1481	Open
P1728	J17_40	J18_40	150.00	300.0	135.0	0.0642	Open
P1729	J17_41	J17_42	150.00	350.0	120.0	0.0424	Open
P1730	J17_41	J18_41	150.00	450.0	125.0	0.0221	Open
P1731	J17_42	J17_43	150.00	100.0	125.0	0.0773	Open
P1732	J17_42	J18_42	150.00	100.0	130.0	0.1018	Open
P1733	J17_43	J17_44	150.00	200.0	125.0	0.0064	Open
P1734	J17_43	J18_43	150.00	250.0	135.0	0.0221	Open
P1735	J17_44	J17_45	150.00	250.0	125.0	0.0077	Open
P1736	J17_44	J18_44	150.00	300.0	130.0	0.1227	Open
P1737	J17_45	J17_46	150.00	100.0	130.0	0.0018	Open
P1738	J17_45	J18_45	150.00	250.0	140.0	0.1141	Open
P1739	J17_46	J17_47	150.00	150.0	130.0	0.1225	Open
P1740	J17_46	J18_46	150.00	300.0	140.0	0.0429	Open
P1741	J17_47	J17_48	150.00	150.0	130.0	0.0947	Open
P1742	J17_47	J18_47	150.00	250.0	130.0	0.1056	Open
P1743	J17_48	J17_49	150.00	300.0	130.0	0.0925	Open
P1744	J17_48	J18_48	150.00	250.0	130.0	0.1198	Open
P1745	J17_49	J17_50	150.00	100.0	140.0	0.0662	Open
P1746	J17_49	J18_49	150.00	150.0	135.0	0.0652	Open
P1747	J17_50	J17_51	150.00	200.0	125.0	0.0257	Open
P1748	J17_50	J18_50	150.00	150.0	140.0	0.0182	Open
P1749	J17_51	J17_52	150.00	400.0	120.0	0.0422	Open
P1750	J17_51	J18_51	150.00	600.0	120.0	0.0236	Open
P1751	J17_52	J18_52	150.00	300.0	135.0	0.0072	Open
P1752	J18_1	J18_2	150.00	350.0	120.0	0.0427	Open
P1753	J18_1	J19_1	150.00	450.0	120.0	0.0095	Open
P1754	J18_2	J18_3	150.00	150.0	135.0	0.0907	Open
P1755	J18_2	J19_2	150.00	250.0	125.0	0.0027	Open
P1756	J18_3	J18_4	150.00	150.0	130.0	0.0549	Open
P1757	J18_3	J19_3	150.00	150.0	125.0	0.0436	Open
P1758	J18_4	J18_5	150.00	250.0	140.0	0.1021	Open
P1759	J18_4	J19_4	150.00	150.0	130.0	0.1071	Open
P1760	J18_5	J18_6	150.00	150.0	140.0	0.0438	Open
P1761	J18_5	J19_5	150.00	150.0	125.0	0.1091	Open
P1762	J18_6	J18_7	150.00	200.0	125.0	0.0637	Open
P1763	J18_6	J19_6	150.00	100.0	135.0	0.0043	Open
P1764	J18_7	J18_8	150.00	300.0	125.0	0.1478	Open
P1765	J18_7	J19_7	150.00	200.0	125.0	0.1214	Open
P1766	J18_8	J18_9	150.00	100.0	140.0	0.0694	Open
P1767	J18_8	J19_8	150.00	150.0	125.0	0.1267	Open
P1768	J18_9	J18_10	150.00	300.0	135.0	0.0878	Open
P1769	J18_9	J19_9	150.00	100.0	140.0	0.0100	Open
P1770	J18_10	J18_11	150.00	100.0	130.0	0.1405	Open
P1771	J18_10	J19_10	150.00	100.0	135.0	0.0057	Open
P1772	J18_11	J18_12	150.00	600.0	120.0	0.0102	Open
P1773	J18_11	J19_11	150.00	300.0	125.0	0.0269	Open
P1774	J18_12	J18_13	150.00	250.0	140.0	0.1149	Open
P1775	J18_12	J19_12	150.00	250.0	125.0	0.1359	Open
P1776	J18_13	J18_14	150.00	150.0	130.0	0.0752	Open
P1777	J18_13	J19_13	150.00	250.0	140.0	0.0496	Open
P1778	J18_14	J18_15	150.00	150.0	140.0	0.0778	Open
P1779	J18_14	J19_14	150.00	250.0	130.0	0.0813	Open
P1780	J18_15	J18_16	150.00	200.0	130.0	0.1434	Open
P1781	J18_15	J19_15	150.00	300.0	125.0	0.1340	Open
P1782	J18_16	J18_17	150.00	250.0	125.0	0.1077	Open
P1783	J18_16	J19_16	150.00	250.0	140.0	0.0877	Open
P1784	J18_17	J18_18	150.00	250.0	140.0	0.0648	Open
P1785	J18_17	J19_17	150.00	150.0	125.0	0.0878	Open
P1786	J18_18	J18_19	150.00	300.0	140.0	0.1180	Open
P1787	J18_18	J19_18	150.00	300.0	125.0	0.1184	Open
P1788	J18_19	J18_20	150.00	200.0	140.0	0.0192	Open
P1789	J18_19	J19_19	150.00	150.0	135.0	0.0163	Open
P1790	J18_20	J18_21	150.00	250.0	140.0	0.1145	Open
P1791	J18_20	J19_20	150.00	250.0	125.0	0.0677	Open
P1792	J18_21	J18_22	150.00	450.0	125.0	0.0420	Open
P1793	J18_21	J19_21	150.00	450.0	120.0	0.0375	Open
P1794	J18_22	J18_23	150.00	250.0	125.0	0.1363	Open
P1795	J18_22	J19_22	150.00	150.0	130.0	0.0241	Open
P1796	J18_23	J18_24	150.00	200.0	125.0	0.0714	Open
P1797	J18_23	J19_23	150.00	300.0	130.0	0.0443	Open
P1798	J18_24	J18_25	150.00	200.0	130.0	0.0210	Open
P1799	J18_24	J19_24	150.00	300.0	140.0	0.1029	Open
P1800	J18_25	J18_26	150.00	250.0	135.0	0.0684	Open
P1801	J18_25	J19_25	150.00	150.0	135.0	0.0317	Open
P1802	J18_26	J18_27	150.00	250.0	135.0	0.1251	Open
P1803	J18_26	J19_26	150.00	150.0	135.0	0.0904	Open
P1804	J18_27	J18_28	150.00	150.0	125.0	0.0192	Open
P1805	J18_27	J19_27	150.00	150.0	135.0	0.0333	Open
P1806	J18_28	J18_29	150.00	150.0	135.0	0.0261	Open
P1807	J18_28	J19_28	150.00	250.0	140.0	0.1335	Open
P1808	J18_29	J18_30	150.00	250.0	125.0	0.0109	Open
P1809	J18_29	J19_29	150.00	150.0	135.0	0.0285	Open
P1810	J18_30	J18_31	150.00	250.0	125.0	0.1466	Open
P1811	J18_30	J19_30	150.00	300.0	135.0	0.0775	Open
P1812	J18_31	J18_32	150.00	300.0	120.0	0.0173	Open
P1813	J18_31	J19_31	150.00	300.0	125.0	0.0279	Open
P1814	J18_32	J18_33	150.00	300.0	125.0	0.1184	Open
P1815	J18_32	J19_32	150.00	150.0	135.0	0.1363	Open
P1816	J18_33	J18_34	150.00	300.0	130.0	0.0592	Open
P1817	J18_33	J19_33	150.00	150.0	125.0	0.1380	Open
P1818	J18_34	J18_35	150.00	250.0	125.0	0.1419	Open
P1819	J18_34	J19_34	150.00	250.0	125.0	0.1227	Open
P1820	J18_35	J18_36	150.00	200.0	140.0	0.0157	Open
P1821	J18_35	J19_35	150.00	250.0	135.0	0.1139	Open
P1822	J18_36	J18_37	150.00	150.0	135.0	0.0155	Open
P1823	J18_36	J19_36	150.00	100.0	125.0	0.0855	Open
P1824	J18_37	J18_38	150.00	200.0	130.0	0.1448	Open
P1825	J18_37	J19_37	150.00	150.0	130.0	0.0393	Open
P1826	J18_38	J18_39	150.00	250.0	140.0	0.0354	Open
P1827	J18_38	J19_38	150.00	300.0	125.0	0.0627	Open
P1828	J18_39	J18_40	150.00	250.0	135.0	0.1352	Open
P1829	J18_39	J19_39	150.00	200.0	140.0	0.0191	Open
P1830	J18_40	J18_41	150.00	250.0	130.0	0.0744	Open
P1831	J18_40	J19_40	150.00	150.0	130.0	0.1016	Open
P1832	J18_41	J18_42	150.00	300.0	120.0	0.0063	Open
P1833	J18_41	J19_41	150.00	450.0	120.0	0.0252	Open
P1834	J18_42	J18_43	150.00	200.0	135.0	0.1224	Open
P1835	J18_42	J19_42	150.00	100.0	135.0	0.1268	Open
P1836	J18_43	J18_44	150.00	300.0	125.0	0.0401	Open
P1837	J18_43	J19_43	150.00	300.0	125.0	0.1267	Open
P1838	J18_44	J18_45	150.00	300.0	125.0	0.1314	Open
P1839	J18_44	J19_44	150.00	300.0	135.0	0.1308	Open
P1840	J18_45	J18_46	150.00	300.0	125.0	0.0014	Open
P1841	J18_45	J19_45	150.00	150.0	125.0	0.0166	Open
P1842	J18_46	J18_47	150.00	150.0	135.0	0.0210	Open
P1843	J18_46	J19_46	150.00	250.0	140.0	0.0442	Open
P1844	J18_47	J18_48	150.00	300.0	140.0	0.0521	Open
P1845	J18_47	J19_47	150.00	300.0	130.0	0.0431	Open
P1846	J18_48	J18_49	150.00	150.0	125.0	0.0692	Open
P1847	J18_48	J19_48	150.00	100.0	140.0	0.1273	Open
P1848	J18_49	J18_50	150.00	250.0	135.0	0.1170	Open
P1849	J18_49	J19_49	150.00	100.0	125.0	0.1301	Open
P1850	J18_50	J18_51	150.00	150.0	125.0	0.0983	Open
P1851	J18_50	J19_50	150.00	100.0	125.0	0.1466	Open
P1852	J18_51	J18_52	150.00	600.0	125.0	0.0049	Open
P1853	J18_51	J19_51	150.00	500.0	125.0	0.0090	Open
P1854	J18_52	J19_52	150.00	200.0	130.0	0.0806	Open
P1855	J19_1	J19_2	150.00	450.0	125.0	0.0431	Open
P1856	J19_1	J20_1	150.00	300.0	125.0	0.0268	Open
P1857	J19_2	J19_3	150.00	300.0	125.0	0.0886	Open
P1858	J19_2	J20_2	150.00	150.0	135.0	0.0756	Open
P1859	J19_3	J19_4	150.00	300.0	130.0	0.1328	Open
P1860	J19_3	J20_3	150.00	300.0	125.0	0.0650	Open
P1861	J19_4	J19_5	150.00	200.0	140.0	0.0326	Open
P1862	J19_4	J20_4	150.00	200.0	135.0	0.0386	Open
P1863	J19_5	J19_6	150.00	250.0	125.0	0.1318	Open
P1864	J19_5	J20_5	150.00	150.0	135.0	0.1362	Open
P1865	J19_6	J19_7	150.00	100.0	140.0	0.0414	Open
P1866	J19_6	J20_6	150.00	200.0	125.0	0.0257	Open
P1867	J19_7	J19_8	150.00	300.0	130.0	0.0962	Open
P1868	J19_7	J20_7	150.00	100.0	140.0	0.1175	Open
P1869	J19_8	J19_9	150.00	300.0	135.0	0.1154	Open
P1870	J19_8	J20_8	150.00	200.0	140.0	0.0863	Open
P1871	J19_9	J19_10	150.00	250.0	125.0	0.0712	Open
P1872	J19_9	J20_9	150.00	100.0	140.0	0.0767	Open
P1873	J19_10	J19_11	150.00	300.0	140.0	0.0090	Open
P1874	J19_10	J20_10	150.00	300.0	125.0	0.0681	Open
P1875	J19_11	J19_12	150.00	600.0	125.0	0.0420	Open
P1876	J19_11	J20_11	150.00	300.0	130.0	0.0333	Open
P1877	J19_12	J19_13	150.00	250.0	135.0	0.0613	Open
P1878	J19_12	J20_12	150.00	150.0	130.0	0.0943	Open
P1879	J19_13	J19_14	150.00	250.0	130.0	0.0823	Open
P1880	J19_13	J20_13	150.00	250.0	130.0	0.0257	Open
P1881	J19_14	J19_15	150.00	100.0	125.0	0.0210	Open
P1882	J19_14	J20_14	150.00	300.0	125.0	0.0633	Open
P1883	J19_15	J19_16	150.00	250.0	130.0	0.1186	Open
P1884	J19_15	J20_15	150.00	100.0	130.0	0.1004	Open
P1885	J19_16	J19_17	150.00	250.0	140.0	0.0659	Open
P1886	J19_16	J20_16	150.00	250.0	130.0	0.1172	Open
P1887	J19_17	J19_18	150.00	150.0	130.0	0.0523	Open
P1888	J19_17	J20_17	150.00	250.0	140.0	0.0931	Open
P1889	J19_18	J19_19	150.00	200.0	140.0	0.1327	Open
P1890	J19_18	J20_18	150.00	150.0	140.0	0.0867	Open
P1891	J19_19	J19_20	150.00	200.0	130.0	0.0747	Open
P1892	J19_19	J20_19	150.00	150.0	140.0	0.0435	Open
P1893	J19_20	J19_21	150.00	200.0	140.0	0.0997	Open
P1894	J19_20	J20_20	150.00	250.0	125.0	0.0157	Open
P1895	J19_21	J19_22	150.00	600.0	130.0	0.0218	Open
P1896	J19_21	J20_21	150.00	400.0	130.0	0.0224	Open
P1897	J19_22	J19_23	150.00	250.0	140.0	0.0968	Open
P1898	J19_22	J20_22	150.00	150.0	130.0	0.0894	Open
P1899	J19_23	J19_24	150.00	100.0	125.0	0.1405	Open
P1900	J19_23	J20_23	150.00	250.0	125.0	0.1010	Open
P1901	J19_24	J19_25	150.00	200.0	125.0	0.0451	Open
P1902	J19_24	J20_24	150.00	150.0	130.0	0.0487	Open
P1903	J19_25	J19_26	150.00	250.0	135.0	0.0375	Open
P1904	J19_25	J20_25	150.00	150.0	135.0	0.0023	Open
P1905	J19_26	J19_27	150.00	200.0	135.0	0.1372	Open
P1906	J19_26	J20_26	150.00	250.0	130.0	0.0905	Open
P1907	J19_27	J19_28	150.00	200.0	130.0	0.0102	Open
P1908	J19_27	J20_27	150.00	150.0	140.0	0.0869	Open
P1909	J19_28	J19_29	150.00	100.0	135.0	0.0377	Open
P1910	J19_28	J20_28	150.00	300.0	125.0	0.0478	Open
P1911	J19_29	J19_30	150.00	100.0	135.0	0.0670	Open
P1912	J19_29	J20_29	150.00	250.0	135.0	0.0977	Open
P1913	J19_30	J19_31	150.00	250.0	135.0	0.0824	Open
P1914	J19_30	J20_30	150.00	250.0	130.0	0.0179	Open
P1915	J19_31	J19_32	150.00	350.0	125.0	0.0362	Open
P1916	J19_31	J20_31	150.00	300.0	120.0	0.0401	Open
P1917	J19_32	J19_33	150.00	300.0	125.0	0.1476	Open
P1918	J19_32	J20_32	150.00	250.0	140.0	0.1399	Open
P1919	J19_33	J19_34	150.00	200.0	130.0	0.0480	Open
P1920	J19_33	J20_33	150.00	200.0	135.0	0.1213	Open
P1921	J19_34	J19_35	150.00	150.0	135.0	0.1456	Open
P1922	J19_34	J20_34	150.00	250.0	130.0	0.0260	Open
P1923	J19_35	J19_36	150.00	300.0	135.0	0.1138	Open
P1924	J19_35	J20_35	150.00	300.0	135.0	0.1026	Open
P1925	J19_36	J19_37	150.00	200.0	140.0	0.0210	Open
P1926	J19_36	J20_36	150.00	250.0	140.0	0.0833	Open
P1927	J19_37	J19_38	150.00	100.0	135.0	0.0509	Open
P1928	J19_37	J20_37	150.00	100.0	135.0	0.0703	Open
P1929	J19_38	J19_39	150.00	300.0	125.0	0.0161	Open
P1930	J19_38	J20_38	150.00	100.0	130.0	0.0794	Open
P1931	J19_39	J19_40	150.00	250.0	140.0	0.1125	Open
P1932	J19_39	J20_39	150.00	250.0	125.0	0.0502	Open
P1933	J19_40	J19_41	150.00	300.0	140.0	0.0391	Open
P1934	J19_40	J20_40	150.00	200.0	140.0	0.1322	Open
P1935	J19_41	J19_42	150.00	500.0	120.0	0.0226	Open
P1936	J19_41	J20_41	150.00	450.0	125.0	0.0363	Open
P1937	J19_42	J19_43	150.00	200.0	130.0	0.1305	Open
P1938	J19_42	J20_42	150.00	150.0	140.0	0.0068	Open
P1939	J19_43	J19_44	150.00	250.0	125.0	0.0254	Open
P1940	J19_43	J20_43	150.00	250.0	130.0	0.0356	Open
P1941	J19_44	J19_45	150.00	300.0	140.0	0.0042	Open
P1942	J19_44	J20_44	150.00	250.0	140.0	0.1234	Open
P1943	J19_45	J19_46	150.00	100.0	140.0	0.0084	Open
P1944	J19_45	J20_45	150.00	250.0	130.0	0.1280	Open
P1945	J19_46	J19_47	150.00	300.0	135.0	0.1343	Open
P1946	J19_46	J20_46	150.00	150.0	135.0	0.0394	Open
P1947	J19_47	J19_48	150.00	150.0	125.0	0.0468	Open
P1948	J19_47	J20_47	150.00	250.0	130.0	0.0514	Open
P1949	J19_48	J19_49	150.00	150.0	125.0	0.0689	Open
P1950	J19_48	J20_48	150.00	100.0	125.0	0.0279	Open
P1951	J19_49	J19_50	150.00	300.0	130.0	0.1053	Open
P1952	J19_49	J20_49	150.00	100.0	130.0	0.0100	Open
P1953	J19_50	J19_51	150.00	300.0	125.0	0.0950	Open
P1954	J19_50	J20_50	150.00	200.0	130.0	0.0781	Open
P1955	J19_51	J19_52	150.00	350.0	120.0	0.0170	Open
P1956	J19_51	J20_51	150.00	300.0	125.0	0.0311	Open
P1957	J19_52	J20_52	150.00	300.0	125.0	0.0511	Open
P1958	J20_1	J20_2	150.00	400.0	120.0	0.0147	Open
P1959	J20_1	J21_1	150.00	350.0	125.0	0.0374	Open
P1960	J20_2	J20_3	150.00	300.0	135.0	0.1385	Open
P1961	J20_2	J21_2	150.00	100.0	135.0	0.0409	Open
P1962	J20_3	J20_4	150.00	250.0	130.0	0.0938	Open
P1963	J20_3	J21_3	150.00	250.0	125.0	0.0084	Open
P1964	J20_4	J20_5	150.00	100.0	130.0	0.0742	Open
P1965	J20_4	J21_4	150.00	150.0	140.0	0.0850	Open
P1966	J20_5	J20_6	150.00	150.0	140.0	0.0613	Open
P1967	J20_5	J21_5	150.00	200.0	135.0	0.0704	Open
P1968	J20_6	J20_7	150.00	150.0	135.0	0.0459	Open
P1969	J20_6	J21_6	150.00	250.0	125.0	0.1173	Open
P1970	J20_7	J20_8	150.00	150.0	140.0	0.0754	Open
P1971	J20_7	J21_7	150.00	300.0	140.0	0.1396	Open
P1972	J20_8	J20_9	150.00	200.0	140.0	0.1458	Open
P1973	J20_8	J21_8	150.00	300.0	140.0	0.0979	Open
P1974	J20_9	J20_10	150.00	250.0	140.0	0.0070	Open
P1975	J20_9	J21_9	150.00	150.0	140.0	0.0966	Open
P1976	J20_10	J20_11	150.00	250.0	125.0	0.0906	Open
P1977	J20_10	J21_10	150.00	150.0	125.0	0.1483	Open
P1978	J20_11	J20_12	150.00	500.0	130.0	0.0024	Open
P1979	J20_11	J21_11	150.00	450.0	125.0	0.0271	Open
P1980	J20_12	J20_13	150.00	150.0	125.0	0.0407	Open
P1981	J20_12	J21_12	150.00	250.0	125.0	0.0803	Open
P1982	J20_13	J20_14	150.00	150.0	140.0	0.0384	Open
P1983	J20_13	J21_13	150.00	300.0	135.0	0.0113	Open
P1984	J20_14	J20_15	150.00	100.0	130.0	0.1249	Open
P1985	J20_14	J21_14	150.00	150.0	130.0	0.0828	Open
P1986	J20_15	J20_16	150.00	200.0	130.0	0.1290	Open
P1987	J20_15	J21_15	150.00	250.0	130.0	0.0315	Open
P1988	J20_16	J20_17	150.00	200.0	130.0	0.1080	Open
P1989	J20_16	J21_16	150.00	150.0	130.0	0.1389	Open
P1990	J20_17	J20_18	150.00	150.0	140.0	0.0371	Open
P1991	J20_17	J21_17	150.00	150.0	140.0	0.0161	Open
P1992	J20_18	J20_19	150.00	200.0	140.0	0.0009	Open
P1993	J20_18	J21_18	150.00	200.0	135.0	0.0361	Open
P1994	J20_19	J20_20	150.00	100.0	135.0	0.0096	Open
P1995	J20_19	J21_19	150.00	200.0	130.0	0.0322	Open
P1996	J20_20	J20_21	150.00	150.0	130.0	0.0956	Open
P1997	J20_20	J21_20	150.00	200.0	125.0	0.0608	Open
P1998	J20_21	J20_22	150.00	500.0	125.0	0.0271	Open
P1999	J20_21	J21_21	150.00	450.0	130.0	0.0439	Open
P2000	J20_22	J20_23	150.00	100.0	140.0	0.1326	Open
P2001	J20_22	J21_22	150.00	150.0	130.0	0.1082	Open
P2002	J20_23	J20_24	150.00	250.0	125.0	0.1023	Open
P2003	J20_23	J21_23	150.00	100.0	140.0	0.1290	Open
P2004	J20_24	J20_25	150.00	150.0	130.0	0.1070	Open
P2005	J20_24	J21_24	150.00	300.0	140.0	0.0484	Open
P2006	J20_25	J20_26	150.00	250.0	135.0	0.1485	Open
P2007	J20_25	J21_25	150.00	100.0	135.0	0.0845	Open
P2008	J20_26	J20_27	150.00	100.0	135.0	0.0134	Open
P2009	J20_26	J21_26	150.00	150.0	135.0	0.0793	Open
P2010	J20_27	J20_28	150.00	300.0	130.0	0.0513	Open
P2011	J20_27	J21_27	150.00	150.0	135.0	0.1093	Open
P2012	J20_28	J20_29	150.00	100.0	130.0	0.0080	Open
P2013	J20_28	J21_28	150.00	150.0	140.0	0.1177	Open
P2014	J20_29	J20_30	150.00	300.0	135.0	0.0735	Open
P2015	J20_29	J21_29	150.00	300.0	135.0	0.0629	Open
P2016	J20_30	J20_31	150.00	200.0	135.0	0.0833	Open
P2017	J20_30	J21_30	150.00	300.0	135.0	0.0065	Open
P2018	J20_31	J20_32	150.00	300.0	120.0	0.0129	Open
P2019	J20_31	J21_31	150.00	400.0	130.0	0.0037	Open
P2020	J20_32	J20_33	150.00	100.0	140.0	0.1452	Open
P2021	J20_32	J21_32	150.00	150.0	125.0	0.0742	Open
P2022	J20_33	J20_34	150.00	150.0	140.0	0.0661	Open
P2023	J20_33	J21_33	150.00	200.0	135.0	0.0452	Open
P2024	J20_34	J20_35	150.00	300.0	125.0	0.0317	Open
P2025	J20_34	J21_34	150.00	250.0	130.0	0.1360	Open
P2026	J20_35	J20_36	150.00	300.0	125.0	0.1221	Open
P2027	J20_35	J21_35	150.00	300.0	125.0	0.0141	Open
P2028	J20_36	J20_37	150.00	150.0	135.0	0.1377	Open
P2029	J20_36	J21_36	150.00	150.0	125.0	0.0899	Open
P2030	J20_37	J20_38	150.00	300.0	130.0	0.1117	Open
P2031	J20_37	J21_37	150.00	250.0	140.0	0.1422	Open
P2032	J20_38	J20_39	150.00	100.0	125.0	0.0578	Open
P2033	J20_38	J21_38	150.00	150.0	135.0	0.0950	Open
P2034	J20_39	J20_40	150.00	100.0	135.0	0.0422	Open
P2035	J20_39	J21_39	150.00	100.0	125.0	0.0478	Open
P2036	J20_40	J20_41	150.00	300.0	125.0	0.1178	Open
P2037	J20_40	J21_40	150.00	100.0	140.0	0.1170	Open
P2038	J20_41	J20_42	150.00	350.0	125.0	0.0150	Open
P2039	J20_41	J21_41	150.00	600.0	125.0	0.0444	Open
P2040	J20_42	J20_43	150.00	250.0	125.0	0.0472	Open
P2041	J20_42	J21_42	150.00	300.0	140.0	0.0351	Open
P2042	J20_43	J20_44	150.00	250.0	125.0	0.0812	Open
P2043	J20_43	J21_43	150.00	150.0	130.0	0.0911	Open
P2044	J20_44	J20_45	150.00	300.0	135.0	0.1418	Open
P2045	J20_44	J21_44	150.00	250.0	125.0	0.1493	Open
P2046	J20_45	J20_46	150.00	250.0	130.0	0.0480	Open
P2047	J20_45	J21_45	150.00	200.0	135.0	0.1287	Open
P2048	J20_46	J20_47	150.00	150.0	140.0	0.1448	Open
P2049	J20_46	J21_46	150.00	100.0	135.0	0.1387	Open
P2050	J20_47	J20_48	150.00	300.0	125.0	0.0699	Open
P2051	J20_47	J21_47	150.00	300.0	130.0	0.0970	Open
P2052	J20_48	J20_49	150.00	150.0	125.0	0.1445	Open
P2053	J20_48	J21_48	150.00	100.0	135.0	0.1124	Open
P2054	J20_49	J20_50	150.00	150.0	130.0	0.0368	Open
P2055	J20_49	J21_49	150.00	100.0	130.0	0.0871	Open
P2056	J20_50	J20_51	150.00	100.0	125.0	0.1052	Open
P2057	J20_50	J21_50	150.00	100.0	140.0	0.1225	Open
P2058	J20_51	J20_52	150.00	400.0	125.0	0.0213	Open
P2059	J20_51	J21_51	150.00	500.0	125.0	0.0068	Open
P2060	J20_52	J21_52	150.00	200.0	135.0	0.0550	Open
P2061	J21_1	J21_2	150.00	500.0	125.0	0.0328	Open
P2062	J21_1	J22_1	150.00	350.0	120.0	0.0434	Open
P2063	J21_2	J21_3	150.00	450.0	120.0	0.0274	Open
P2064	J21_2	J22_2	150.00	450.0	120.0	0.0200	Open
P2065	J21_3	J21_4	150.00	350.0	125.0	0.0266	Open
P2066	J21_3	J22_3	150.00	600.0	125.0	0.0414	Open
P2067	J21_4	J21_5	150.00	450.0	120.0	0.0109	Open
P2068	J21_4	J22_4	150.00	450.0	120.0	0.0354	Open
P2069	J21_5	J21_6	150.00	600.0	130.0	0.0066	Open
P2070	J21_5	J22_5	150.00	500.0	130.0	0.0197	Open
P2071	J21_6	J21_7	150.00	300.0	130.0	0.0052	Open
P2072	J21_6	J22_6	150.00	400.0	125.0	0.0104	Open
P2073	J21_7	J21_8	150.00	500.0	125.0	0.0352	Open
P2074	J21_7	J22_7	150.00	350.0	130.0	0.0026	Open
P2075	J21_8	J21_9	150.00	350.0	120.0	0.0267	Open
P2076	J21_8	J22_8	150.00	600.0	130.0	0.0273	Open
P2077	J21_9	J21_10	150.00	600.0	125.0	0.0402	Open
P2078	J21_9	J22_9	150.00	600.0	125.0	0.0003	Open
P2079	J21_10	J21_11	150.00	600.0	120.0	0.0225	Open
P2080	J21_10	J22_10	150.00	300.0	120.0	0.0130	Open
P2081	J21_11	J21_12	150.00	300.0	125.0	0.0081	Open
P2082	J21_11	J22_11	150.00	350.0	125.0	0.0037	Open
P2083	J21_12	J21_13	150.00	300.0	130.0	0.0301	Open
P2084	J21_12	J22_12	150.00	400.0	130.0	0.0051	Open
P2085	J21_13	J21_14	150.00	500.0	125.0	0.0192	Open
P2086	J21_13	J22_13	150.00	400.0	125.0	0.0333	Open
P2087	J21_14	J21_15	150.00	600.0	130.0	0.0257	Open
P2088	J21_14	J22_14	150.00	500.0	130.0	0.0409	Open
P2089	J21_15	J21_16	150.00	300.0	120.0	0.0314	Open
P2090	J21_15	J22_15	150.00	300.0	120.0	0.0164	Open
P2091	J21_16	J21_17	150.00	450.0	130.0	0.0218	Open
P2092	J21_16	J22_16	150.00	600.0	130.0	0.0482	Open
P2093	J21_17	J21_18	150.00	350.0	120.0	0.0153	Open
P2094	J21_17	J22_17	150.00	500.0	120.0	0.0051	Open
P2095	J21_18	J21_19	150.00	300.0	120.0	0.0064	Open
P2096	J21_18	J22_18	150.00	400.0	130.0	0.0340	Open
P2097	J21_19	J21_20	150.00	450.0	125.0	0.0304	Open
P2098	J21_19	J22_19	150.00	300.0	130.0	0.0250	Open
P2099	J21_20	J21_21	150.00	300.0	130.0	0.0476	Open
P2100	J21_20	J22_20	150.00	500.0	125.0	0.0431	Open
P2101	J21_21	J21_22	150.00	600.0	120.0	0.0290	Open
P2102	J21_21	J22_21	150.00	450.0	120.0	0.0057	Open
P2103	J21_22	J21_23	150.00	500.0	125.0	0.0338	Open
P2104	J21_22	J22_22	150.00	350.0	120.0	0.0428	Open
P2105	J21_23	J21_24	150.00	500.0	130.0	0.0468	Open
P2106	J21_23	J22_23	150.00	500.0	125.0	0.0317	Open
P2107	J21_24	J21_25	150.00	450.0	120.0	0.0472	Open
P2108	J21_24	J22_24	150.00	350.0	125.0	0.0483	Open
P2109	J21_25	J21_26	150.00	450.0	130.0	0.0234	Open
P2110	J21_25	J22_25	150.00	600.0	120.0	0.0331	Open
P2111	J21_26	J21_27	150.00	500.0	125.0	0.0391	Open
P2112	J21_26	J22_26	150.00	300.0	130.0	0.0092	Open
P2113	J21_27	J21_28	150.00	600.0	130.0	0.0422	Open
P2114	J21_27	J22_27	150.00	300.0	130.0	0.0339	Open
P2115	J21_28	J21_29	150.00	350.0	125.0	0.0138	Open
P2116	J21_28	J22_28	150.00	350.0	130.0	0.0479	Open
P2117	J21_29	J21_30	150.00	500.0	125.0	0.0186	Open
P2118	J21_29	J22_29	150.00	600.0	125.0	0.0412	Open
P2119	J21_30	J21_31	150.00	500.0	120.0	0.0170	Open
P2120	J21_30	J22_30	150.00	450.0	125.0	0.0313	Open
P2121	J21_31	J21_32	150.00	300.0	130.0	0.0050	Open
P2122	J21_31	J22_31	150.00	600.0	130.0	0.0175	Open
P2123	J21_32	J21_33	150.00	600.0	120.0	0.0172	Open
P2124	J21_32	J22_32	150.00	600.0	130.0	0.0271	Open
P2125	J21_33	J21_34	150.00	450.0	125.0	0.0034	Open
P2126	J21_33	J22_33	150.00	450.0	125.0	0.0094	Open
P2127	J21_34	J21_35	150.00	300.0	120.0	0.0347	Open
P2128	J21_34	J22_34	150.00	300.0	125.0	0.0386	Open
P2129	J21_35	J21_36	150.00	500.0	120.0	0.0091	Open
P2130	J21_35	J22_35	150.00	350.0	120.0	0.0277	Open
P2131	J21_36	J21_37	150.00	400.0	120.0	0.0335	Open
P2132	J21_36	J22_36	150.00	500.0	120.0	0.0201	Open
P2133	J21_37	J21_38	150.00	500.0	125.0	0.0267	Open
P2134	J21_37	J22_37	150.00	350.0	130.0	0.0118	Open
P2135	J21_38	J21_39	150.00	500.0	120.0	0.0074	Open
P2136	J21_38	J22_38	150.00	450.0	130.0	0.0075	Open
P2137	J21_39	J21_40	150.00	450.0	130.0	0.0219	Open
P2138	J21_39	J22_39	150.00	500.0	130.0	0.0193	Open
P2139	J21_40	J21_41	150.00	450.0	120.0	0.0340	Open
P2140	J21_40	J22_40	150.00	600.0	130.0	0.0434	Open
P2141	J21_41	J21_42	150.00	350.0	130.0	0.0029	Open
P2142	J21_41	J22_41	150.00	450.0	125.0	0.0285	Open
P2143	J21_42	J21_43	150.00	400.0	130.0	0.0498	Open
P2144	J21_42	J22_42	150.00	350.0	130.0	0.0135	Open
P2145	J21_43	J21_44	150.00	500.0	130.0	0.0033	Open
P2146	J21_43	J22_43	150.00	500.0	125.0	0.0313	Open
P2147	J21_44	J21_45	150.00	350.0	120.0	0.0225	Open
P2148	J21_44	J22_44	150.00	350.0	125.0	0.0475	Open
P2149	J21_45	J21_46	150.00	450.0	120.0	0.0408	Open
P2150	J21_45	J22_45	150.00	500.0	125.0	0.0440	Open
P2151	J21_46	J21_47	150.00	400.0	125.0	0.0479	Open
P2152	J21_46	J22_46	150.00	450.0	125.0	0.0185	Open
P2153	J21_47	J21_48	150.00	300.0	120.0	0.0106	Open
P2154	J21_47	J22_47	150.00	300.0	130.0	0.0046	Open
P2155	J21_48	J21_49	150.00	600.0	130.0	0.0006	Open
P2156	J21_48	J22_48	150.00	450.0	120.0	0.0215	Open
P2157	J21_49	J21_50	150.00	300.0	130.0	0.0131	Open
P2158	J21_49	J22_49	150.00	400.0	130.0	0.0181	Open
P2159	J21_50	J21_51	150.00	500.0	120.0	0.0146	Open
P2160	J21_50	J22_50	150.00	350.0	120.0	0.0025	Open
P2161	J21_51	J21_52	150.00	450.0	120.0	0.0084	Open
P2162	J21_51	J22_51	150.00	600.0	125.0	0.0205	Open
P2163	J21_52	J22_52	150.00	500.0	120.0	0.0127	Open
P2164	J22_1	J22_2	150.00	300.0	125.0	0.0474	Open
P2165	J22_1	J23_1	150.00	350.0	130.0	0.0173	Open
P2166	J22_2	J22_3	150.00	300.0	140.0	0.0645	Open
P2167	J22_2	J23_2	150.00	200.0	125.0	0.0425	Open
P2168	J22_3	J22_4	150.00	100.0	135.0	0.0310	Open
P2169	J22_3	J23_3	150.00	150.0	135.0	0.0255	Open
P2170	J22_4	J22_5	150.00	150.0	130.0	0.0752	Open
P2171	J22_4	J23_4	150.00	300.0	125.0	0.1486	Open
P2172	J22_5	J22_6	150.00	150.0	140.0	0.1089	Open
P2173	J22_5	J23_5	150.00	200.0	130.0	0.0538	Open
P2174	J22_6	J22_7	150.00	150.0	130.0	0.1005	Open
P2175	J22_6	J23_6	150.00	200.0	140.0	0.0559	Open
P2176	J22_7	J22_8	150.00	100.0	125.0	0.1346	Open
P2177	J22_7	J23_7	150.00	100.0	135.0	0.0108	Open
P2178	J22_8	J22_9	150.00	150.0	135.0	0.0392	Open
P2179	J22_8	J23_8	150.00	250.0	130.0	0.1203	Open
P2180	J22_9	J22_10	150.00	200.0	135.0	0.0437	Open
P2181	J22_9	J23_9	150.00	150.0	135.0	0.1103	Open
P2182	J22_10	J22_11	150.00	100.0	130.0	0.0038	Open
P2183	J22_10	J23_10	150.00	250.0	125.0	0.0003	Open
P2184	J22_11	J22_12	150.00	350.0	125.0	0.0456	Open
P2185	J22_11	J23_11	150.00	350.0	130.0	0.0243	Open
P2186	J22_12	J22_13	150.00	200.0	130.0	0.0557	Open
P2187	J22_12	J23_12	150.00	300.0	125.0	0.1484	Open
P2188	J22_13	J22_14	150.00	300.0	135.0	0.1453	Open
P2189	J22_13	J23_13	150.00	300.0	130.0	0.0552	Open
P2190	J22_14	J22_15	150.00	100.0	130.0	0.0395	Open
P2191	J22_14	J23_14	150.00	200.0	130.0	0.1002	Open
P2192	J22_15	J22_16	150.00	200.0	135.0	0.1005	Open
P2193	J22_15	J23_15	150.00	200.0	130.0	0.1079	Open
P2194	J22_16	J22_17	150.00	150.0	140.0	0.0982	Open
P2195	J22_16	J23_16	150.00	150.0	135.0	0.0560	Open
P2196	J22_17	J22_18	150.00	200.0	140.0	0.0161	Open
P2197	J22_17	J23_17	150.00	250.0	135.0	0.1020	Open
P2198	J22_18	J22_19	150.00	300.0	135.0	0.0815	Open
P2199	J22_18	J23_18	150.00	250.0	130.0	0.1327	Open
P2200	J22_19	J22_20	150.00	200.0	125.0	0.0491	Open
P2201	J22_19	J23_19	150.00	150.0	135.0	0.0084	Open
P2202	J22_20	J22_21	150.00	100.0	140.0	0.0785	Open
P2203	J22_20	J23_20	150.00	300.0	125.0	0.0441	Open
P2204	J22_21	J22_22	150.00	400.0	125.0	0.0290	Open
P2205	J22_21	J23_21	150.00	350.0	125.0	0.0355	Open
P2206	J22_22	J22_23	150.00	150.0	135.0	0.0262	Open
P2207	J22_22	J23_22	150.00	300.0	135.0	0.0143	Open
P2208	J22_23	J22_24	150.00	200.0	125.0	0.0796	Open
P2209	J22_23	J23_23	150.00	250.0	125.0	0.0918	Open
P2210	J22_24	J22_25	150.00	150.0	125.0	0.1203	Open
P2211	J22_24	J23_24	150.00	100.0	125.0	0.0950	Open
P2212	J22_25	J22_26	150.00	250.0	135.0	0.1290	Open
P2213	J22_25	J23_25	150.00	150.0	135.0	0.1249	Open
P2214	J22_26	J22_27	150.00	200.0	140.0	0.0129	Open
P2215	J22_26	J23_26	150.00	150.0	125.0	0.0993	Open
P2216	J22_27	J22_28	150.00	200.0	125.0	0.0571	Open
P2217	J22_27	J23_27	150.00	100.0	125.0	0.1196	Open
P2218	J22_28	J22_29	150.00	200.0	130.0	0.0362	Open
P2219	J22_28	J23_28	150.00	300.0	125.0	0.0843	Open
P2220	J22_29	J22_30	150.00	300.0	140.0	0.1206	Open
P2221	J22_29	J23_29	150.00	100.0	140.0	0.1258	Open
P2222	J22_30	J22_31	150.00	150.0	140.0	0.1468	Open
P2223	J22_30	J23_30	150.00	100.0	140.0	0.0279	Open
P2224	J22_31	J22_32	150.00	400.0	125.0	0.0345	Open
P2225	J22_31	J23_31	150.00	500.0	130.0	0.0308	Open
P2226	J22_32	J22_33	150.00	250.0	135.0	0.1140	Open
P2227	J22_32	J23_32	150.00	100.0	135.0	0.0080	Open
P2228	J22_33	J22_34	150.00	300.0	125.0	0.0845	Open
P2229	J22_33	J23_33	150.00	100.0	130.0	0.1006	Open
P2230	J22_34	J22_35	150.00	250.0	135.0	0.0815	Open
P2231	J22_34	J23_34	150.00	250.0	140.0	0.0512	Open
P2232	J22_35	J22_36	150.00	250.0	125.0	0.0364	Open
P2233	J22_35	J23_35	150.00	150.0	135.0	0.1317	Open
P2234	J22_36	J22_37	150.00	150.0	125.0	0.0155	Open
P2235	J22_36	J23_36	150.00	300.0	140.0	0.0774	Open
P2236	J22_37	J22_38	150.00	100.0	130.0	0.0480	Open
P2237	J22_37	J23_37	150.00	200.0	140.0	0.0250	Open
P2238	J22_38	J22_39	150.00	300.0	130.0	0.0979	Open
P2239	J22_38	J23_38	150.00	100.0	130.0	0.0203	Open
P2240	J22_39	J22_40	150.00	200.0	135.0	0.0172	Open
P2241	J22_39	J23_39	150.00	250.0	135.0	0.0505	Open
P2242	J22_40	J22_41	150.00	100.0	130.0	0.0075	Open
P2243	J22_40	J23_40	150.00	150.0	135.0	0.0500	Open
P2244	J22_41	J22_42	150.00	600.0	130.0	0.0488	Open
P2245	J22_41	J23_41	150.00	350.0	130.0	0.0225	Open
P2246	J22_42	J22_43	150.00	150.0	130.0	0.0951	Open
P2247	J22_42	J23_42	150.00	300.0	130.0	0.0289	Open
P2248	J22_43	J22_44	150.00	150.0	140.0	0.0661	Open
P2249	J22_43	J23_43	150.00	200.0	135.0	0.0552	Open
P2250	J22_44	J22_45	150.00	250.0	125.0	0.0044	Open
P2251	J22_44	J23_44	150.00	100.0	135.0	0.1282	Open
P2252	J22_45	J22_46	150.00	200.0	140.0	0.0302	Open
P2253	J22_45	J23_45	150.00	300.0	130.0	0.0335	Open
P2254	J22_46	J22_47	150.00	100.0	135.0	0.1486	Open
P2255	J22_46	J23_46	150.00	300.0	135.0	0.0955	Open
P2256	J22_47	J22_48	150.00	150.0	135.0	0.1467	Open
P2257	J22_47	J23_47	150.00	250.0	125.0	0.0193	Open
P2258	J22_48	J22_49	150.00	300.0	125.0	0.0867	Open
P2259	J22_48	J23_48	150.00	250.0	130.0	0.0364	Open
P2260	J22_49	J22_50	150.00	250.0	140.0	0.0036	Open
P2261	J22_49	J23_49	150.00	300.0	135.0	0.1097	Open
P2262	J22_50	J22_51	150.00	150.0	140.0	0.0758	Open
P2263	J22_50	J23_50	150.00	300.0	125.0	0.0080	Open
P2264	J22_51	J22_52	150.00	400.0	125.0	0.0004	Open
P2265	J22_51	J23_51	150.00	350.0	120.0	0.0186	Open
P2266	J22_52	J23_52	150.00	150.0	125.0	0.0495	Open
P2267	J23_1	J23_2	150.00	350.0	120.0	0.0289	Open
P2268	J23_1	J24_1	150.00	450.0	120.0	0.0487	Open
P2269	J23_2	J23_3	150.00	100.0	140.0	0.1094	Open
P2270	J23_2	J24_2	150.00	150.0	140.0	0.0354	Open
P2271	J23_3	J23_4	150.00	250.0	130.0	0.0486	Open
P2272	J23_3	J24_3	150.00	100.0	130.0	0.1302	Open
P2273	J23_4	J23_5	150.00	250.0	140.0	0.0479	Open
P2274	J23_4	J24_4	150.00	100.0	130.0	0.1148	Open
P2275	J23_5	J23_6	150.00	100.0	140.0	0.0243	Open
P2276	J23_5	J24_5	150.00	200.0	135.0	0.0280	Open
P2277	J23_6	J23_7	150.00	150.0	135.0	0.0818	Open
P2278	J23_6	J24_6	150.00	200.0	130.0	0.1107	Open
P2279	J23_7	J23_8	150.00	250.0	140.0	0.0299	Open
P2280	J23_7	J24_7	150.00	300.0	140.0	0.0781	Open
P2281	J23_8	J23_9	150.00	100.0	140.0	0.1106	Open
P2282	J23_8	J24_8	150.00	100.0	125.0	0.0177	Open
P2283	J23_9	J23_10	150.00	300.0	125.0	0.0577	Open
P2284	J23_9	J24_9	150.00	100.0	130.0	0.0200	Open
P2285	J23_10	J23_11	150.00	150.0	130.0	0.1339	Open
P2286	J23_10	J24_10	150.00	300.0	130.0	0.0668	Open
P2287	J23_11	J23_12	150.00	600.0	125.0	0.0362	Open
P2288	J23_11	J24_11	150.00	300.0	125.0	0.0290	Open
P2289	J23_12	J23_13	150.00	100.0	130.0	0.0452	Open
P2290	J23_12	J24_12	150.00	200.0	135.0	0.0992	Open
P2291	J23_13	J23_14	150.00	250.0	130.0	0.0718	Open
P2292	J23_13	J24_13	150.00	300.0	140.0	0.1054	Open
P2293	J23_14	J23_15	150.00	100.0	130.0	0.1068	Open
P2294	J23_14	J24_14	150.00	100.0	130.0	0.0008	Open
P2295	J23_15	J23_16	150.00	200.0	130.0	0.0832	Open
P2296	J23_15	J24_15	150.00	200.0	130.0	0.0637	Open
P2297	J23_16	J23_17	150.00	100.0	135.0	0.1030	Open
P2298	J23_16	J24_16	150.00	150.0	135.0	0.0257	Open
P2299	J23_17	J23_18	150.00	100.0	140.0	0.1021	Open
P2300	J23_17	J24_17	150.00	150.0	135.0	0.0305	Open
P2301	J23_18	J23_19	150.00	300.0	130.0	0.0559	Open
P2302	J23_18	J24_18	150.00	150.0	125.0	0.1023	Open
P2303	J23_19	J23_20	150.00	100.0	130.0	0.1142	Open
P2304	J23_19	J24_19	150.00	250.0	140.0	0.1234	Open
P2305	J23_20	J23_21	150.00	100.0	135.0	0.0821	Open
P2306	J23_20	J24_20	150.00	250.0	140.0	0.0540	Open
P2307	J23_21	J23_22	150.00	300.0	120.0	0.0242	Open
P2308	J23_21	J24_21	150.00	600.0	130.0	0.0489	Open
P2309	J23_22	J23_23	150.00	150.0	140.0	0.1176	Open
P2310	J23_22	J24_22	150.00	250.0	130.0	0.1005	Open
P2311	J23_23	J23_24	150.00	100.0	140.0	0.0495	Open
P2312	J23_23	J24_23	150.00	250.0	140.0	0.0305	Open
P2313	J23_24	J23_25	150.00	250.0	135.0	0.1105	Open
P2314	J23_24	J24_24	150.00	150.0	130.0	0.1304	Open
P2315	J23_25	J23_26	150.00	100.0	140.0	0.1128	Open
P2316	J23_25	J24_25	150.00	250.0	140.0	0.0742	Open
P2317	J23_26	J23_27	150.00	150.0	140.0	0.0767	Open
P2318	J23_26	J24_26	150.00	250.0	140.0	0.0811	Open
P2319	J23_27	J23_28	150.00	250.0	140.0	0.0547	Open
P2320	J23_27	J24_27	150.00	300.0	135.0	0.1127	Open
P2321	J23_28	J23_29	150.00	150.0	135.0	0.0126	Open
P2322	J23_28	J24_28	150.00	250.0	140.0	0.0614	Open
P2323	J23_29	J23_30	150.00	200.0	130.0	0.0513	Open
P2324	J23_29	J24_29	150.00	250.0	135.0	0.0787	Open
P2325	J23_30	J23_31	150.00	300.0	125.0	0.1189	Open
P2326	J23_30	J24_30	150.00	300.0	130.0	0.0344	Open
P2327	J23_31	J23_32	150.00	500.0	125.0	0.0096	Open
P2328	J23_31	J24_31	150.00	600.0	125.0	0.0473	Open
P2329	J23_32	J23_33	150.00	200.0	135.0	0.1347	Open
P2330	J23_32	J24_32	150.00	200.0	125.0	0.0142	Open
P2331	J23_33	J23_34	150.00	250.0	140.0	0.1266	Open
P2332	J23_33	J24_33	150.00	250.0	135.0	0.0093	Open
P2333	J23_34	J23_35	150.00	100.0	140.0	0.1343	Open
P2334	J23_34	J24_34	150.00	250.0	140.0	0.0134	Open
P2335	J23_35	J23_36	150.00	200.0	125.0	0.0806	Open
P2336	J23_35	J24_35	150.00	300.0	130.0	0.0546	Open
P2337	J23_36	J23_37	150.00	100.0	130.0	0.0039	Open
P2338	J23_36	J24_36	150.00	200.0	140.0	0.1222	Open
P2339	J23_37	J23_38	150.00	300.0	125.0	0.0946	Open
P2340	J23_37	J24_37	150.00	250.0	130.0	0.0454	Open
P2341	J23_38	J23_39	150.00	150.0	130.0	0.0987	Open
P2342	J23_38	J24_38	150.00	100.0	140.0	0.0971	Open
P2343	J23_39	J23_40	150.00	200.0	135.0	0.0909	Open
P2344	J23_39	J24_39	150.00	200.0	140.0	0.1241	Open
P2345	J23_40	J23_41	150.00	300.0	135.0	0.1076	Open
P2346	J23_40	J24_40	150.00	250.0	125.0	0.0979	Open
P2347	J23_41	J23_42	150.00	300.0	130.0	0.0379	Open
P2348	J23_41	J24_41	150.00	300.0	130.0	0.0260	Open
P2349	J23_42	J23_43	150.00	300.0	135.0	0.0163	Open
P2350	J23_42	J24_42	150.00	250.0	140.0	0.0428	Open
P2351	J23_43	J23_44	150.00	150.0	135.0	0.1493	Open
P2352	J23_43	J24_43	150.00	250.0	130.0	0.0275	Open
P2353	J23_44	J23_45	150.00	100.0	140.0	0.1244	Open
P2354	J23_44	J24_44	150.00	300.0	130.0	0.0896	Open
P2355	J23_45	J23_46	150.00	250.0	130.0	0.0144	Open
P2356	J23_45	J24_45	150.00	250.0	140.0	0.1326	Open
P2357	J23_46	J23_47	150.00	150.0	135.0	0.1202	Open
P2358	J23_46	J24_46	150.00	300.0	130.0	0.0103	Open
P2359	J23_47	J23_48	150.00	150.0	130.0	0.0144	Open
P2360	J23_47	J24_47	150.00	200.0	140.0	0.1004	Open
P2361	J23_48	J23_49	150.00	250.0	135.0	0.0800	Open
P2362	J23_48	J24_48	150.00	200.0	135.0	0.0536	Open
P2363	J23_49	J23_50	150.00	300.0	135.0	0.1067	Open
P2364	J23_49	J24_49	150.00	150.0	140.0	0.0689	Open
P2365	J23_50	J23_51	150.00	150.0	125.0	0.0353	Open
P2366	J23_50	J24_50	150.00	150.0	140.0	0.1420	Open
P2367	J23_51	J23_52	150.00	450.0	120.0	0.0459	Open
P2368	J23_51	J24_51	150.00	500.0	130.0	0.0303	Open
P2369	J23_52	J24_52	150.00	150.0	125.0	0.0043	Open
P2370	J24_1	J24_2	150.00	600.0	120.0	0.0006	Open
P2371	J24_1	J25_1	150.00	500.0	125.0	0.0016	Open
P2372	J24_2	J24_3	150.00	250.0	140.0	0.1426	Open
P2373	J24_2	J25_2	150.00	250.0	140.0	0.0075	Open
P2374	J24_3	J24_4	150.00	200.0	140.0	0.1376	Open
P2375	J24_3	J25_3	150.00	150.0	140.0	0.1208	Open
P2376	J24_4	J24_5	150.00	300.0	130.0	0.0981	Open
P2377	J24_4	J25_4	150.00	150.0	125.0	0.1129	Open
P2378	J24_5	J24_6	150.00	100.0	130.0	0.0070	Open
P2379	J24_5	J25_5	150.00	250.0	140.0	0.0444	Open
P2380	J24_6	J24_7	150.00	300.0	140.0	0.0405	Open
P2381	J24_6	J25_6	150.00	200.0	130.0	0.0035	Open
P2382	J24_7	J24_8	150.00	300.0	135.0	0.0267	Open
P2383	J24_7	J25_7	150.00	150.0	135.0	0.0193	Open
P2384	J24_8	J24_9	150.00	300.0	140.0	0.0064	Open
P2385	J24_8	J25_8	150.00	300.0	135.0	0.0146	Open
P2386	J24_9	J24_10	150.00	100.0	140.0	0.1430	Open
P2387	J24_9	J25_9	150.00	300.0	130.0	0.0074	Open
P2388	J24_10	J24_11	150.00	300.0	135.0	0.1282	Open
P2389	J24_10	J25_10	150.00	200.0	135.0	0.0234	Open
P2390	J24_11	J24_12	150.00	400.0	125.0	0.0382	Open
P2391	J24_11	J25_11	150.00	500.0	125.0	0.0419	Open
P2392	J24_12	J24_13	150.00	150.0	130.0	0.0483	Open
P2393	J24_12	J25_12	150.00	100.0	140.0	0.0621	Open
P2394	J24_13	J24_14	150.00	200.0	140.0	0.0086	Open
P2395	J24_13	J25_13	150.00	150.0	135.0	0.0818	Open
P2396	J24_14	J24_15	150.00	100.0	140.0	0.0045	Open
P2397	J24_14	J25_14	150.00	300.0	135.0	0.1386	Open
P2398	J24_15	J24_16	150.00	300.0	125.0	0.1068	Open
P2399	J24_15	J25_15	150.00	200.0	135.0	0.0865	Open
P2400	J24_16	J24_17	150.00	300.0	125.0	0.1165	Open
P2401	J24_16	J25_16	150.00	200.0	125.0	0.0287	Open
P2402	J24_17	J24_18	150.00	100.0	135.0	0.0075	Open
P2403	J24_17	J25_17	150.00	200.0	125.0	0.0849	Open
P2404	J24_18	J24_19	150.00	300.0	130.0	0.0986	Open
P2405	J24_18	J25_18	150.00	200.0	140.0	0.0323	Open
P2406	J24_19	J24_20	150.00	300.0	135.0	0.1293	Open
P2407	J24_19	J25_19	150.00	250.0	140.0	0.0362	Open
P2408	J24_20	J24_21	150.00	100.0	135.0	0.0067	Open
P2409	J24_20	J25_20	150.00	150.0	140.0	0.0712	Open
P2410	J24_21	J24_22	150.00	300.0	125.0	0.0169	Open
P2411	J24_21	J25_21	150.00	450.0	120.0	0.0339	Open
P2412	J24_22	J24_23	150.00	200.0	140.0	0.0108	Open
P2413	J24_22	J25_22	150.00	150.0	140.0	0.0725	Open
P2414	J24_23	J24_24	150.00	250.0	125.0	0.0485	Open
P2415	J24_23	J25_23	150.00	150.0	130.0	0.1467	Open
P2416	J24_24	J24_25	150.00	250.0	130.0	0.0730	Open
P2417	J24_24	J25_24	150.00	150.0	125.0	0.1395	Open
P2418	J24_25	J24_26	150.00	100.0	140.0	0.1179	Open
P2419	J24_25	J25_25	150.00	150.0	135.0	0.0427	Open
P2420	J24_26	J24_27	150.00	100.0	135.0	0.1225	Open
P2421	J24_26	J25_26	150.00	250.0	130.0	0.0465	Open
P2422	J24_27	J24_28	150.00	300.0	140.0	0.0655	Open
P2423	J24_27	J25_27	150.00	100.0	130.0	0.1272	Open
P2424	J24_28	J24_29	150.00	150.0	135.0	0.1061	Open
P2425	J24_28	J25_28	150.00	250.0	140.0	0.1201	Open
P2426	J24_29	J24_30	150.00	300.0	140.0	0.0761	Open
P2427	J24_29	J25_29	150.00	100.0	140.0	0.0521	Open
P2428	J24_30	J24_31	150.00	100.0	135.0	0.1047	Open
P2429	J24_30	J25_30	150.00	150.0	130.0	0.0250	Open
P2430	J24_31	J24_32	150.00	350.0	130.0	0.0120	Open
P2431	J24_31	J25_31	150.00	600.0	125.0	0.0414	Open
P2432	J24_32	J24_33	150.00	250.0	130.0	0.0963	Open
P2433	J24_32	J25_32	150.00	200.0	140.0	0.0538	Open
P2434	J24_33	J24_34	150.00	150.0	140.0	0.0248	Open
P2435	J24_33	J25_33	150.00	150.0	135.0	0.1152	Open
P2436	J24_34	J24_35	150.00	150.0	135.0	0.0910	Open
P2437	J24_34	J25_34	150.00	250.0	135.0	0.0884	Open
P2438	J24_35	J24_36	150.00	250.0	130.0	0.1368	Open
P2439	J24_35	J25_35	150.00	250.0	130.0	0.1014	Open
P2440	J24_36	J24_37	150.00	300.0	125.0	0.0670	Open
P2441	J24_36	J25_36	150.00	100.0	140.0	0.0702	Open
P2442	J24_37	J24_38	150.00	300.0	130.0	0.0149	Open
P2443	J24_37	J25_37	150.00	250.0	130.0	0.1359	Open
P2444	J24_38	J24_39	150.00	200.0	140.0	0.0179	Open
P2445	J24_38	J25_38	150.00	100.0	130.0	0.0657	Open
P2446	J24_39	J24_40	150.00	150.0	140.0	0.0923	Open
P2447	J24_39	J25_39	150.00	100.0	130.0	0.0435	Open
P2448	J24_40	J24_41	150.00	300.0	125.0	0.0932	Open
P2449	J24_40	J25_40	150.00	300.0	125.0	0.0086	Open
P2450	J24_41	J24_42	150.00	300.0	130.0	0.0317	Open
P2451	J24_41	J25_41	150.00	600.0	130.0	0.0316	Open
P2452	J24_42	J24_43	150.00	100.0	140.0	0.0415	Open
P2453	J24_42	J25_42	150.00	100.0	130.0	0.0879	Open
P2454	J24_43	J24_44	150.00	100.0	130.0	0.0841	Open
P2455	J24_43	J25_43	150.00	100.0	140.0	0.1258	Open
P2456	J24_44	J24_45	150.00	100.0	140.0	0.1358	Open
P2457	J24_44	J25_44	150.00	150.0	140.0	0.1411	Open
P2458	J24_45	J24_46	150.00	250.0	135.0	0.0965	Open
P2459	J24_45	J25_45	150.00	100.0	125.0	0.0108	Open
P2460	J24_46	J24_47	150.00	250.0	135.0	0.0257	Open
P2461	J24_46	J25_46	150.00	200.0	130.0	0.1289	Open
P2462	J24_47	J24_48	150.00	250.0	130.0	0.1046	Open
P2463	J24_47	J25_47	150.00	100.0	125.0	0.0835	Open
P2464	J24_48	J24_49	150.00	250.0	130.0	0.0403	Open
P2465	J24_48	J25_48	150.00	250.0	130.0	0.0333	Open
P2466	J24_49	J24_50	150.00	150.0	140.0	0.1438	Open
P2467	J24_49	J25_49	150.00	250.0	130.0	0.1000	Open
P2468	J24_50	J24_51	150.00	300.0	135.0	0.0315	Open
P2469	J24_50	J25_50	150.00	200.0	130.0	0.0160	Open
P2470	J24_51	J24_52	150.00	450.0	120.0	0.0370	Open
P2471	J24_51	J25_51	150.00	300.0	130.0	0.0248	Open
P2472	J24_52	J25_52	150.00	150.0	130.0	0.1008	Open
P2473	J25_1	J25_2	150.00	350.0	120.0	0.0387	Open
P2474	J25_1	J26_1	150.00	350.0	125.0	0.0346	Open
P2475	J25_2	J25_3	150.00	250.0	130.0	0.0011	Open
P2476	J25_2	J26_2	150.00	150.0	130.0	0.0508	Open
P2477	J25_3	J25_4	150.00	250.0	130.0	0.0226	Open
P2478	J25_3	J26_3	150.00	100.0	130.0	0.0392	Open
P2479	J25_4	J25_5	150.00	150.0	135.0	0.0393	Open
P2480	J25_4	J26_4	150.00	100.0	135.0	0.0637	Open
P2481	J25_5	J25_6	150.00	200.0	140.0	0.1110	Open
P2482	J25_5	J26_5	150.00	250.0	125.0	0.0610	Open
P2483	J25_6	J25_7	150.00	300.0	135.0	0.0372	Open
P2484	J25_6	J26_6	150.00	100.0	130.0	0.0048	Open
P2485	J25_7	J25_8	150.00	250.0	135.0	0.0254	Open
P2486	J25_7	J26_7	150.00	200.0	130.0	0.0677	Open
P2487	J25_8	J25_9	150.00	100.0	130.0	0.0800	Open
P2488	J25_8	J26_8	150.00	100.0	125.0	0.0307	Open
P2489	J25_9	J25_10	150.00	250.0	135.0	0.0176	Open
P2490	J25_9	J26_9	150.00	250.0	140.0	0.1213	Open
P2491	J25_10	J25_11	150.00	250.0	125.0	0.0667	Open
P2492	J25_10	J26_10	150.00	250.0	135.0	0.0590	Open
P2493	J25_11	J25_12	150.00	600.0	120.0	0.0121	Open
P2494	J25_11	J26_11	150.00	350.0	125.0	0.0239	Open
P2495	J25_12	J25_13	150.00	150.0	125.0	0.0709	Open
P2496	J25_12	J26_12	150.00	200.0	135.0	0.0369	Open
P2497	J25_13	J25_14	150.00	250.0	135.0	0.0516	Open
P2498	J25_13	J26_13	150.00	100.0	130.0	0.1209	Open
P2499	J25_14	J25_15	150.00	300.0	125.0	0.1229	Open
P2500	J25_14	J26_14	150.00	200.0	135.0	0.0214	Open
P2501	J25_15	J25_16	150.00	250.0	135.0	0.0162	Open
P2502	J25_15	J26_15	150.00	250.0	140.0	0.0946	Open
P2503	J25_16	J25_17	150.00	200.0	140.0	0.0613	Open
P2504	J25_16	J26_16	150.00	250.0	130.0	0.0448	Open
P2505	J25_17	J25_18	150.00	300.0	130.0	0.1057	Open
P2506	J25_17	J26_17	150.00	150.0	140.0	0.0716	Open
P2507	J25_18	J25_19	150.00	150.0	140.0	0.0162	Open
P2508	J25_18	J26_18	150.00	100.0	140.0	0.0887	Open
P2509	J25_19	J25_20	150.00	300.0	135.0	0.0884	Open
P2510	J25_19	J26_19	150.00	200.0	125.0	0.1425	Open
P2511	J25_20	J25_21	150.00	200.0	135.0	0.0644	Open
P2512	J25_20	J26_20	150.00	100.0	125.0	0.0567	Open
P2513	J25_21	J25_22	150.00	600.0	130.0	0.0002	Open
P2514	J25_21	J26_21	150.00	450.0	120.0	0.0057	Open
P2515	J25_22	J25_23	150.00	100.0	140.0	0.0290	Open
P2516	J25_22	J26_22	150.00	100.0	130.0	0.0225	Open
P2517	J25_23	J25_24	150.00	200.0	135.0	0.1180	Open
P2518	J25_23	J26_23	150.00	200.0	130.0	0.0719	Open
P2519	J25_24	J25_25	150.00	200.0	130.0	0.0795	Open
P2520	J25_24	J26_24	150.00	200.0	135.0	0.1391	Open
P2521	J25_25	J25_26	150.00	250.0	130.0	0.0268	Open
P2522	J25_25	J26_25	150.00	150.0	125.0	0.1228	Open
P2523	J25_26	J25_27	150.00	100.0	125.0	0.0236	Open
P2524	J25_26	J26_26	150.00	200.0	125.0	0.0616	Open
P2525	J25_27	J25_28	150.00	150.0	135.0	0.1409	Open
P2526	J25_27	J26_27	150.00	150.0	140.0	0.1379	Open
P2527	J25_28	J25_29	150.00	200.0	130.0	0.0942	Open
P2528	J25_28	J26_28	150.00	100.0	140.0	0.0052	Open
P2529	J25_29	J25_30	150.00	100.0	140.0	0.0738	Open
P2530	J25_29	J26_29	150.00	150.0	140.0	0.1446	Open
P2531	J25_30	J25_31	150.00	250.0	135.0	0.0697	Open
P2532	J25_30	J26_30	150.00	250.0	135.0	0.1131	Open
P2533	J25_31	J25_32	150.00	600.0	130.0	0.0273	Open
P2534	J25_31	J26_31	150.00	350.0	125.0	0.0499	Open
P2535	J25_32	J25_33	150.00	100.0	125.0	0.0184	Open
P2536	J25_32	J26_32	150.00	300.0	130.0	0.0382	Open
P2537	J25_33	J25_34	150.00	100.0	125.0	0.1203	Open
P2538	J25_33	J26_33	150.00	250.0	125.0	0.1353	Open
P2539	J25_34	J25_35	150.00	200.0	140.0	0.0629	Open
P2540	J25_34	J26_34	150.00	200.0	130.0	0.1374	Open
P2541	J25_35	J25_36	150.00	150.0	140.0	0.0709	Open
P2542	J25_35	J26_35	150.00	200.0	125.0	0.1211	Open
P2543	J25_36	J25_37	150.00	150.0	140.0	0.0381	Open
P2544	J25_36	J26_36	150.00	100.0	130.0	0.0203	Open
P2545	J25_37	J25_38	150.00	100.0	130.0	0.0104	Open
P2546	J25_37	J26_37	150.00	200.0	130.0	0.1099	Open
P2547	J25_38	J25_39	150.00	200.0	130.0	0.0750	Open
P2548	J25_38	J26_38	150.00	300.0	130.0	0.1194	Open
P2549	J25_39	J25_40	150.00	250.0	135.0	0.1048	Open
P2550	J25_39	J26_39	150.00	150.0	130.0	0.0440	Open
P2551	J25_40	J25_41	150.00	250.0	130.0	0.0049	Open
P2552	J25_40	J26_40	150.00	100.0	130.0	0.0583	Open
P2553	J25_41	J25_42	150.00	450.0	130.0	0.0185	Open
P2554	J25_41	J26_41	150.00	600.0	120.0	0.0257	Open
P2555	J25_42	J25_43	150.00	150.0	130.0	0.0790	Open
P2556	J25_42	J26_42	150.00	200.0	130.0	0.1053	Open
P2557	J25_43	J25_44	150.00	250.0	135.0	0.0032	Open
P2558	J25_43	J26_43	150.00	300.0	125.0	0.0819	Open
P2559	J25_44	J25_45	150.00	150.0	140.0	0.0223	Open
P2560	J25_44	J26_44	150.00	200.0	140.0	0.0802	Open
P2561	J25_45	J25_46	150.00	150.0	135.0	0.1479	Open
P2562	J25_45	J26_45	150.00	100.0	140.0	0.0672	Open
P2563	J25_46	J25_47	150.00	300.0	125.0	0.0715	Open
P2564	J25_46	J26_46	150.00	250.0	125.0	0.0085	Open
P2565	J25_47	J25_48	150.00	100.0	140.0	0.1183	Open
P2566	J25_47	J26_47	150.00	150.0	130.0	0.0941	Open
P2567	J25_48	J25_49	150.00	150.0	130.0	0.1139	Open
P2568	J25_48	J26_48	150.00	200.0	125.0	0.0130	Open
P2569	J25_49	J25_50	150.00	100.0	130.0	0.0954	Open
P2570	J25_49	J26_49	150.00	300.0	125.0	0.0566	Open
P2571	J25_50	J25_51	150.00	200.0	130.0	0.1282	Open
P2572	J25_50	J26_50	150.00	300.0	140.0	0.1165	Open
P2573	J25_51	J25_52	150.00	400.0	130.0	0.0122	Open
P2574	J25_51	J26_51	150.00	300.0	125.0	0.0256	Open
P2575	J25_52	J26_52	150.00	200.0	130.0	0.1227	Open
P2576	J26_1	J26_2	150.00	600.0	120.0	0.0060	Open
P2577	J26_1	J27_1	150.00	500.0	120.0	0.0130	Open
P2578	J26_2	J26_3	150.00	250.0	135.0	0.0392	Open
P2579	J26_2	J27_2	150.00	200.0	135.0	0.0409	Open
P2580	J26_3	J26_4	150.00	250.0	130.0	0.0397	Open
P2581	J26_3	J27_3	150.00	200.0	140.0	0.1433	Open
P2582	J26_4	J26_5	150.00	150.0	140.0	0.1118	Open
P2583	J26_4	J27_4	150.00	100.0	135.0	0.0771	Open
P2584	J26_5	J26_6	150.00	300.0	140.0	0.1280	Open
P2585	J26_5	J27_5	150.00	300.0	140.0	0.1008	Open
P2586	J26_6	J26_7	150.00	100.0	130.0	0.0916	Open
P2587	J26_6	J27_6	150.00	250.0	125.0	0.1434	Open
P2588	J26_7	J26_8	150.00	300.0	140.0	0.0248	Open
P2589	J26_7	J27_7	150.00	300.0	135.0	0.0161	Open
P2590	J26_8	J26_9	150.00	150.0	140.0	0.1069	Open
P2591	J26_8	J27_8	150.00	150.0	130.0	0.1481	Open
P2592	J26_9	J26_10	150.00	250.0	130.0	0.1112	Open
P2593	J26_9	J27_9	150.00	150.0	130.0	0.1247	Open
P2594	J26_10	J26_11	150.00	200.0	135.0	0.0593	Open
P2595	J26_10	J27_10	150.00	100.0	130.0	0.0536	Open
P2596	J26_11	J26_12	150.00	500.0	120.0	0.0065	Open
P2597	J26_11	J27_11	150.00	500.0	120.0	0.0013	Open
P2598	J26_12	J26_13	150.00	100.0	125.0	0.0496	Open
P2599	J26_12	J27_12	150.00	300.0	140.0	0.0997	Open
P2600	J26_13	J26_14	150.00	150.0	130.0	0.1362	Open
P2601	J26_13	J27_13	150.00	200.0	130.0	0.1433	Open
P2602	J26_14	J26_15	150.00	150.0	130.0	0.0375	Open
P2603	J26_14	J27_14	150.00	300.0	130.0	0.1027	Open
P2604	J26_15	J26_16	150.00	150.0	130.0	0.0340	Open
P2605	J26_15	J27_15	150.00	150.0	135.0	0.1497	Open
P2606	J26_16	J26_17	150.00	300.0	125.0	0.1211	Open
P2607	J26_16	J27_16	150.00	100.0	140.0	0.0854	Open
P2608	J26_17	J26_18	150.00	100.0	125.0	0.0088	Open
P2609	J26_17	J27_17	150.00	100.0	130.0	0.0398	Open
P2610	J26_18	J26_19	150.00	100.0	125.0	0.0914	Open
P2611	J26_18	J27_18	150.00	250.0	140.0	0.0744	Open
P2612	J26_19	J26_20	150.00	200.0	130.0	0.0416	Open
P2613	J26_19	J27_19	150.00	300.0	140.0	0.1419	Open
P2614	J26_20	J26_21	150.00	300.0	140.0	0.0826	Open
P2615	J26_20	J27_20	150.00	150.0	135.0	0.0853	Open
P2616	J26_21	J26_22	150.00	450.0	125.0	0.0210	Open
P2617	J26_21	J27_21	150.00	300.0	125.0	0.0067	Open
P2618	J26_22	J26_23	150.00	250.0	135.0	0.1461	Open
P2619	J26_22	J27_22	150.00	250.0	135.0	0.0827	Open
P2620	J26_23	J26_24	150.00	200.0	140.0	0.1498	Open
P2621	J26_23	J27_23	150.00	100.0	130.0	0.1381	Open
P2622	J26_24	J26_25	150.00	100.0	135.0	0.0382	Open
P2623	J26_24	J27_24	150.00	300.0	125.0	0.0709	Open
P2624	J26_25	J26_26	150.00	250.0	140.0	0.0663	Open
P2625	J26_25	J27_25	150.00	100.0	125.0	0.0729	Open
P2626	J26_26	J26_27	150.00	200.0	125.0	0.1400	Open
P2627	J26_26	J27_26	150.00	200.0	130.0	0.1014	Open
P2628	J26_27	J26_28	150.00	150.0	130.0	0.1243	Open
P2629	J26_27	J27_27	150.00	250.0	140.0	0.0937	Open
P2630	J26_28	J26_29	150.00	200.0	125.0	0.0130	Open
P2631	J26_28	J27_28	150.00	300.0	125.0	0.1404	Open
P2632	J26_29	J26_30	150.00	300.0	135.0	0.0210	Open
P2633	J26_29	J27_29	150.00	300.0	140.0	0.0342	Open
P2634	J26_30	J26_31	150.00	250.0	140.0	0.0442	Open
P2635	J26_30	J27_30	150.00	100.0	140.0	0.1232	Open
P2636	J26_31	J26_32	150.00	350.0	130.0	0.0392	Open
P2637	J26_31	J27_31	150.00	350.0	130.0	0.0007	Open
P2638	J26_32	J26_33	150.00	300.0	125.0	0.0656	Open
P2639	J26_32	J27_32	150.00	100.0	125.0	0.0194	Open
P2640	J26_33	J26_34	150.00	300.0	130.0	0.0152	Open
P2641	J26_33	J27_33	150.00	200.0	140.0	0.0952	Open
P2642	J26_34	J26_35	150.00	150.0	135.0	0.0582	Open
P2643	J26_34	J27_34	150.00	100.0	135.0	0.0154	Open
P2644	J26_35	J26_36	150.00	250.0	125.0	0.0771	Open
P2645	J26_35	J27_35	150.00	200.0	125.0	0.0315	Open
P2646	J26_36	J26_37	150.00	250.0	135.0	0.0227	Open
P2647	J26_36	J27_36	150.00	100.0	140.0	0.0294	Open
P2648	J26_37	J26_38	150.00	300.0	135.0	0.1084	Open
P2649	J26_37	J27_37	150.00	100.0	140.0	0.1139	Open
P2650	J26_38	J26_39	150.00	100.0	125.0	0.0258	Open
P2651	J26_38	J27_38	150.00	250.0	130.0	0.0845	Open
P2652	J26_39	J26_40	150.00	200.0	135.0	0.0278	Open
P2653	J26_39	J27_39	150.00	200.0	125.0	0.0230	Open
P2654	J26_40	J26_41	150.00	300.0	125.0	0.1445	Open
P2655	J26_40	J27_40	150.00	300.0	140.0	0.0471	Open
P2656	J26_41	J26_42	150.00	350.0	125.0	0.0456	Open
P2657	J26_41	J27_41	150.00	500.0	130.0	0.0454	Open
P2658	J26_42	J26_43	150.00	150.0	130.0	0.0174	Open
P2659	J26_42	J27_42	150.00	100.0	140.0	0.1206	Open
P2660	J26_43	J26_44	150.00	100.0	135.0	0.1015	Open
P2661	J26_43	J27_43	150.00	200.0	135.0	0.0760	Open
P2662	J26_44	J26_45	150.00	150.0	130.0	0.0048	Open
P2663	J26_44	J27_44	150.00	100.0	140.0	0.1219	Open
P2664	J26_45	J26_46	150.00	150.0	125.0	0.0879	Open
P2665	J26_45	J27_45	150.00	250.0	135.0	0.1379	Open
P2666	J26_46	J26_47	150.00	100.0	140.0	0.0176	Open
P2667	J26_46	J27_46	150.00	300.0	135.0	0.0469	Open
P2668	J26_47	J26_48	150.00	150.0	140.0	0.0077	Open
P2669	J26_47	J27_47	150.00	200.0	135.0	0.1241	Open
P2670	J26_48	J26_49	150.00	150.0	140.0	0.0366	Open
P2671	J26_48	J27_48	150.00	250.0	135.0	0.0836	Open
P2672	J26_49	J26_50	150.00	100.0	135.0	0.0849	Open
P2673	J26_49	J27_49	150.00	150.0	135.0	0.0138	Open
P2674	J26_50	J26_51	150.00	100.0	130.0	0.1081	Open
P2675	J26_50	J27_50	150.00	150.0	125.0	0.0498	Open
P2676	J26_51	J26_52	150.00	300.0	130.0	0.0049	Open
P2677	J26_51	J27_51	150.00	400.0	130.0	0.0219	Open
P2678	J26_52	J27_52	150.00	200.0	125.0	0.0865	Open
P2679	J27_1	J27_2	150.00	400.0	125.0	0.0376	Open
P2680	J27_1	J28_1	150.00	400.0	130.0	0.0233	Open
P2681	J27_2	J27_3	150.00	100.0	130.0	0.0537	Open
P2682	J27_2	J28_2	150.00	300.0	130.0	0.0411	Open
P2683	J27_3	J27_4	150.00	250.0	125.0	0.0842	Open
P2684	J27_3	J28_3	150.00	200.0	140.0	0.1492	Open
P2685	J27_4	J27_5	150.00	150.0	140.0	0.1158	Open
P2686	J27_4	J28_4	150.00	300.0	130.0	0.0787	Open
P2687	J27_5	J27_6	150.00	200.0	125.0	0.0646	Open
P2688	J27_5	J28_5	150.00	200.0	140.0	0.1098	Open
P2689	J27_6	J27_7	150.00	300.0	125.0	0.1115	Open
P2690	J27_6	J28_6	150.00	150.0	135.0	0.0852	Open
P2691	J27_7	J27_8	150.00	100.0	140.0	0.1272	Open
P2692	J27_7	J28_7	150.00	300.0	135.0	0.0676	Open
P2693	J27_8	J27_9	150.00	250.0	125.0	0.0554	Open
P2694	J27_8	J28_8	150.00	250.0	130.0	0.1189	Open
P2695	J27_9	J27_10	150.00	300.0	135.0	0.0153	Open
P2696	J27_9	J28_9	150.00	200.0	130.0	0.0428	Open
P2697	J27_10	J27_11	150.00	100.0	125.0	0.0946	Open
P2698	J27_10	J28_10	150.00	250.0	125.0	0.1053	Open
P2699	J27_11	J27_12	150.00	600.0	125.0	0.0172	Open
P2700	J27_11	J28_11	150.00	600.0	125.0	0.0223	Open
P2701	J27_12	J27_13	150.00	200.0	135.0	0.0238	Open
P2702	J27_12	J28_12	150.00	150.0	140.0	0.0022	Open
P2703	J27_13	J27_14	150.00	200.0	135.0	0.1306	Open
P2704	J27_13	J28_13	150.00	200.0	140.0	0.1064	Open
P2705	J27_14	J27_15	150.00	200.0	130.0	0.1018	Open
P2706	J27_14	J28_14	150.00	200.0	130.0	0.1324	Open
P2707	J27_15	J27_16	150.00	200.0	135.0	0.0009	Open
P2708	J27_15	J28_15	150.00	100.0	125.0	0.0121	Open
P2709	J27_16	J27_17	150.00	150.0	130.0	0.0094	Open
P2710	J27_16	J28_16	150.00	150.0	130.0	0.0165	Open
P2711	J27_17	J27_18	150.00	150.0	130.0	0.0739	Open
P2712	J27_17	J28_17	150.00	150.0	125.0	0.0165	Open
P2713	J27_18	J27_19	150.00	150.0	135.0	0.0779	Open
P2714	J27_18	J28_18	150.00	200.0	135.0	0.0313	Open
P2715	J27_19	J27_20	150.00	150.0	140.0	0.0879	Open
P2716	J27_19	J28_19	150.00	250.0	140.0	0.0333	Open
P2717	J27_20	J27_21	150.00	200.0	130.0	0.1483	Open
P2718	J27_20	J28_20	150.00	200.0	140.0	0.0425	Open
P2719	J27_21	J27_22	150.00	450.0	130.0	0.0216	Open
P2720	J27_21	J28_21	150.00	500.0	130.0	0.0413	Open
P2721	J27_22	J27_23	150.00	150.0	125.0	0.0660	Open
P2722	J27_22	J28_22	150.00	200.0	130.0	0.0692	Open
P2723	J27_23	J27_24	150.00	200.0	125.0	0.1488	Open
P2724	J27_23	J28_23	150.00	100.0	130.0	0.1092	Open
P2725	J27_24	J27_25	150.00	250.0	135.0	0.1438	Open
P2726	J27_24	J28_24	150.00	200.0	125.0	0.0803	Open
P2727	J27_25	J27_26	150.00	100.0	135.0	0.0257	Open
P2728	J27_25	J28_25	150.00	300.0	130.0	0.0921	Open
P2729	J27_26	J27_27	150.00	150.0	125.0	0.0514	Open
P2730	J27_26	J28_26	150.00	150.0	125.0	0.0563	Open
P2731	J27_27	J27_28	150.00	300.0	140.0	0.0072	Open
P2732	J27_27	J28_27	150.00	150.0	135.0	0.1114	Open
P2733	J27_28	J27_29	150.00	150.0	135.0	0.1243	Open
P2734	J27_28	J28_28	150.00	200.0	135.0	0.1310	Open
P2735	J27_29	J27_30	150.00	300.0	130.0	0.0596	Open
P2736	J27_29	J28_29	150.00	200.0	135.0	0.0185	Open
P2737	J27_30	J27_31	150.00	300.0	135.0	0.1339	Open
P2738	J27_30	J28_30	150.00	300.0	135.0	0.0335	Open
P2739	J27_31	J27_32	150.00	600.0	125.0	0.0488	Open
P2740	J27_31	J28_31	150.00	350.0	120.0	0.0015	Open
P2741	J27_32	J27_33	150.00	250.0	135.0	0.0631	Open
P2742	J27_32	J28_32	150.00	300.0	135.0	0.0823	Open
P2743	J27_33	J27_34	150.00	100.0	130.0	0.0139	Open
P2744	J27_33	J28_33	150.00	200.0	130.0	0.0587	Open
P2745	J27_34	J27_35	150.00	150.0	125.0	0.1438	Open
P2746	J27_34	J28_34	150.00	150.0	140.0	0.1022	Open
P2747	J27_35	J27_36	150.00	150.0	125.0	0.0102	Open
P2748	J27_35	J28_35	150.00	150.0	135.0	0.0743	Open
P2749	J27_36	J27_37	150.00	100.0	125.0	0.0556	Open
P2750	J27_36	J28_36	150.00	200.0	135.0	0.0636	Open
P2751	J27_37	J27_38	150.00	250.0	135.0	0.1176	Open
P2752	J27_37	J28_37	150.00	300.0	130.0	0.1193	Open
P2753	J27_38	J27_39	150.00	250.0	125.0	0.0577	Open
P2754	J27_38	J28_38	150.00	100.0	125.0	0.0777	Open
P2755	J27_39	J27_40	150.00	200.0	130.0	0.1318	Open
P2756	J27_39	J28_39	150.00	250.0	135.0	0.0917	Open
P2757	J27_40	J27_41	150.00	200.0	140.0	0.0050	Open
P2758	J27_40	J28_40	150.00	100.0	125.0	0.0738	Open
P2759	J27_41	J27_42	150.00	350.0	120.0	0.0205	Open
P2760	J27_41	J28_41	150.00	600.0	125.0	0.0192	Open
P2761	J27_42	J27_43	150.00	250.0	135.0	0.1457	Open
P2762	J27_42	J28_42	150.00	100.0	135.0	0.1167	Open
P2763	J27_43	J27_44	150.00	250.0	135.0	0.0601	Open
P2764	J27_43	J28_43	150.00	300.0	140.0	0.0263	Open
P2765	J27_44	J27_45	150.00	300.0	125.0	0.0973	Open
P2766	J27_44	J28_44	150.00	300.0	130.0	0.0726	Open
P2767	J27_45	J27_46	150.00	250.0	140.0	0.0675	Open
P2768	J27_45	J28_45	150.00	100.0	130.0	0.1210	Open
P2769	J27_46	J27_47	150.00	300.0	130.0	0.0166	Open
P2770	J27_46	J28_46	150.00	150.0	140.0	0.0021	Open
P2771	J27_47	J27_48	150.00	300.0	125.0	0.0266	Open
P2772	J27_47	J28_47	150.00	300.0	135.0	0.0290	Open
P2773	J27_48	J27_49	150.00	200.0	130.0	0.1310	Open
P2774	J27_48	J28_48	150.00	300.0	125.0	0.1345	Open
P2775	J27_49	J27_50	150.00	150.0	130.0	0.1375	Open
P2776	J27_49	J28_49	150.00	100.0	135.0	0.1115	Open
P2777	J27_50	J27_51	150.00	100.0	130.0	0.0325	Open
P2778	J27_50	J28_50	150.00	150.0	135.0	0.0257	Open
P2779	J27_51	J27_52	150.00	500.0	130.0	0.0329	Open
P2780	J27_51	J28_51	150.00	450.0	120.0	0.0486	Open
P2781	J27_52	J28_52	150.00	200.0	125.0	0.0147	Open
P2782	J28_1	J28_2	150.00	500.0	130.0	0.0387	Open
P2783	J28_1	J29_1	150.00	400.0	125.0	0.0357	Open
P2784	J28_2	J28_3	150.00	300.0	130.0	0.1096	Open
P2785	J28_2	J29_2	150.00	100.0	130.0	0.0198	Open
P2786	J28_3	J28_4	150.00	250.0	135.0	0.1235	Open
P2787	J28_3	J29_3	150.00	100.0	130.0	0.0968	Open
P2788	J28_4	J28_5	150.00	200.0	130.0	0.0482	Open
P2789	J28_4	J29_4	150.00	250.0	140.0	0.0098	Open
P2790	J28_5	J28_6	150.00	300.0	140.0	0.0615	Open
P2791	J28_5	J29_5	150.00	100.0	125.0	0.1420	Open
P2792	J28_6	J28_7	150.00	100.0	130.0	0.0403	Open
P2793	J28_6	J29_6	150.00	150.0	130.0	0.0335	Open
P2794	J28_7	J28_8	150.00	100.0	125.0	0.0529	Open
P2795	J28_7	J29_7	150.00	250.0	130.0	0.0242	Open
P2796	J28_8	J28_9	150.00	200.0	140.0	0.0088	Open
P2797	J28_8	J29_8	150.00	300.0	125.0	0.0564	Open
P2798	J28_9	J28_10	150.00	100.0	125.0	0.0457	Open
P2799	J28_9	J29_9	150.00	300.0	125.0	0.0215	Open
P2800	J28_10	J28_11	150.00	200.0	140.0	0.0290	Open
P2801	J28_10	J29_10	150.00	200.0	125.0	0.1392	Open
P2802	J28_11	J28_12	150.00	500.0	130.0	0.0164	Open
P2803	J28_11	J29_11	150.00	350.0	125.0	0.0447	Open
P2804	J28_12	J28_13	150.00	300.0	125.0	0.1361	Open
P2805	J28_12	J29_12	150.00	200.0	130.0	0.0830	Open
P2806	J28_13	J28_14	150.00	200.0	140.0	0.1030	Open
P2807	J28_13	J29_13	150.00	200.0	135.0	0.0575	Open
P2808	J28_14	J28_15	150.00	150.0	125.0	0.0186	Open
P2809	J28_14	J29_14	150.00	100.0	135.0	0.0158	Open
P2810	J28_15	J28_16	150.00	200.0	135.0	0.0150	Open
P2811	J28_15	J29_15	150.00	200.0	135.0	0.0733	Open
P2812	J28_16	J28_17	150.00	200.0	135.0	0.0647	Open
P2813	J28_16	J29_16	150.00	300.0	130.0	0.1154	Open
P2814	J28_17	J28_18	150.00	300.0	130.0	0.0444	Open
P2815	J28_17	J29_17	150.00	250.0	130.0	0.1291	Open
P2816	J28_18	J28_19	150.00	250.0	135.0	0.0007	Open
P2817	J28_18	J29_18	150.00	250.0	135.0	0.0696	Open
P2818	J28_19	J28_20	150.00	250.0	125.0	0.0218	Open
P2819	J28_19	J29_19	150.00	150.0	130.0	0.0079	Open
P2820	J28_20	J28_21	150.00	300.0	125.0	0.1178	Open
P2821	J28_20	J29_20	150.00	100.0	130.0	0.0417	Open
P2822	J28_21	J28_22	150.00	400.0	120.0	0.0242	Open
P2823	J28_21	J29_21	150.00	400.0	125.0	0.0449	Open
P2824	J28_22	J28_23	150.00	150.0	130.0	0.0522	Open
P2825	J28_22	J29_22	150.00	200.0	125.0	0.0303	Open
P2826	J28_23	J28_24	150.00	200.0	140.0	0.0577	Open
P2827	J28_23	J29_23	150.00	100.0	125.0	0.0925	Open
P2828	J28_24	J28_25	150.00	200.0	140.0	0.0746	Open
P2829	J28_24	J29_24	150.00	100.0	130.0	0.0686	Open
P2830	J28_25	J28_26	150.00	100.0	125.0	0.1154	Open
P2831	J28_25	J29_25	150.00	150.0	140.0	0.0489	Open
P2832	J28_26	J28_27	150.00	100.0	130.0	0.0570	Open
P2833	J28_26	J29_26	150.00	150.0	125.0	0.0813	Open
P2834	J28_27	J28_28	150.00	250.0	130.0	0.0288	Open
P2835	J28_27	J29_27	150.00	100.0	135.0	0.0786	Open
P2836	J28_28	J28_29	150.00	300.0	140.0	0.0217	Open
P2837	J28_28	J29_28	150.00	100.0	140.0	0.1421	Open
P2838	J28_29	J28_30	150.00	300.0	135.0	0.0232	Open
P2839	J28_29	J29_29	150.00	250.0	135.0	0.0238	Open
P2840	J28_30	J28_31	150.00	200.0	130.0	0.1013	Open
P2841	J28_30	J29_30	150.00	100.0	135.0	0.0885	Open
P2842	J28_31	J28_32	150.00	300.0	120.0	0.0117	Open
P2843	J28_31	J29_31	150.00	450.0	125.0	0.0252	Open
P2844	J28_32	J28_33	150.00	250.0	135.0	0.0872	Open
P2845	J28_32	J29_32	150.00	200.0	140.0	0.0854	Open
P2846	J28_33	J28_34	150.00	150.0	130.0	0.1448	Open
P2847	J28_33	J29_33	150.00	200.0	140.0	0.1169	Open
P2848	J28_34	J28_35	150.00	200.0	125.0	0.0215	Open
P2849	J28_34	J29_34	150.00	300.0	140.0	0.0177	Open
P2850	J28_35	J28_36	150.00	150.0	135.0	0.0271	Open
P2851	J28_35	J29_35	150.00	150.0	130.0	0.1018	Open
P2852	J28_36	J28_37	150.00	300.0	140.0	0.0430	Open
P2853	J28_36	J29_36	150.00	250.0	140.0	0.1013	Open
P2854	J28_37	J28_38	150.00	250.0	130.0	0.1125	Open
P2855	J28_37	J29_37	150.00	250.0	140.0	0.0012	Open
P2856	J28_38	J28_39	150.00	250.0	135.0	0.1057	Open
P2857	J28_38	J29_38	150.00	150.0	140.0	0.1253	Open
P2858	J28_39	J28_40	150.00	150.0	130.0	0.1003	Open
P2859	J28_39	J29_39	150.00	100.0	130.0	0.0748	Open
P2860	J28_40	J28_41	150.00	200.0	130.0	0.0701	Open
P2861	J28_40	J29_40	150.00	200.0	140.0	0.0226	Open
P2862	J28_41	J28_42	150.00	450.0	125.0	0.0064	Open
P2863	J28_41	J29_41	150.00	350.0	120.0	0.0151	Open
P2864	J28_42	J28_43	150.00	100.0	135.0	0.0094	Open
P2865	J28_42	J29_42	150.00	200.0	140.0	0.1366	Open
P2866	J28_43	J28_44	150.00	300.0	135.0	0.1188	Open
P2867	J28_43	J29_43	150.00	250.0	135.0	0.1314	Open
P2868	J28_44	J28_45	150.00	300.0	140.0	0.0453	Open
P2869	J28_44	J29_44	150.00	200.0	140.0	0.0160	Open
P2870	J28_45	J28_46	150.00	250.0	140.0	0.0075	Open
P2871	J28_45	J29_45	150.00	300.0	135.0	0.0668	Open
P2872	J28_46	J28_47	150.00	300.0	130.0	0.0230	Open
P2873	J28_46	J29_46	150.00	200.0	135.0	0.0462	Open
P2874	J28_47	J28_48	150.00	150.0	140.0	0.0955	Open
P2875	J28_47	J29_47	150.00	200.0	125.0	0.0881	Open
P2876	J28_48	J28_49	150.00	150.0	135.0	0.1352	Open
P2877	J28_48	J29_48	150.00	100.0	140.0	0.0761	Open
P2878	J28_49	J28_50	150.00	300.0	135.0	0.1185	Open
P2879	J28_49	J29_49	150.00	250.0	130.0	0.1401	Open
P2880	J28_50	J28_51	150.00	100.0	130.0	0.0266	Open
P2881	J28_50	J29_50	150.00	300.0	135.0	0.0662	Open
P2882	J28_51	J28_52	150.00	300.0	120.0	0.0311	Open
P2883	J28_51	J29_51	150.00	500.0	130.0	0.0111	Open
P2884	J28_52	J29_52	150.00	150.0	130.0	0.0792	Open
P2885	J29_1	J29_2	150.00	300.0	120.0	0.0304	Open
P2886	J29_1	J30_1	150.00	450.0	120.0	0.0309	Open
P2887	J29_2	J29_3	150.00	150.0	130.0	0.0679	Open
P2888	J29_2	J30_2	150.00	150.0	140.0	0.0322	Open
P2889	J29_3	J29_4	150.00	300.0	130.0	0.1015	Open
P2890	J29_3	J30_3	150.00	250.0	130.0	0.1062	Open
P2891	J29_4	J29_5	150.00	250.0	135.0	0.0548	Open
P2892	J29_4	J30_4	150.00	300.0	135.0	0.1240	Open
P2893	J29_5	J29_6	150.00	200.0	135.0	0.0468	Open
P2894	J29_5	J30_5	150.00	300.0	140.0	0.0055	Open
P2895	J29_6	J29_7	150.00	250.0	140.0	0.0872	Open
P2896	J29_6	J30_6	150.00	200.0	135.0	0.0104	Open
P2897	J29_7	J29_8	150.00	100.0	140.0	0.0008	Open
P2898	J29_7	J30_7	150.00	300.0	130.0	0.1408	Open
P2899	J29_8	J29_9	150.00	150.0	140.0	0.0597	Open
P2900	J29_8	J30_8	150.00	150.0	125.0	0.0233	Open
P2901	J29_9	J29_10	150.00	300.0	130.0	0.1132	Open
P2902	J29_9	J30_9	150.00	200.0	125.0	0.0394	Open
P2903	J29_10	J29_11	150.00	150.0	135.0	0.0341	Open
P2904	J29_10	J30_10	150.00	250.0	140.0	0.0035	Open
P2905	J29_11	J29_12	150.00	300.0	130.0	0.0009	Open
P2906	J29_11	J30_11	150.00	350.0	130.0	0.0164	Open
P2907	J29_12	J29_13	150.00	300.0	130.0	0.0039	Open
P2908	J29_12	J30_12	150.00	100.0	140.0	0.0530	Open
P2909	J29_13	J29_14	150.00	100.0	135.0	0.0434	Open
P2910	J29_13	J30_13	150.00	150.0	130.0	0.0980	Open
P2911	J29_14	J29_15	150.00	100.0	130.0	0.0605	Open
P2912	J29_14	J30_14	150.00	200.0	125.0	0.0642	Open
P2913	J29_15	J29_16	150.00	250.0	130.0	0.1019	Open
P2914	J29_15	J30_15	150.00	200.0	140.0	0.0132	Open
P2915	J29_16	J29_17	150.00	150.0	130.0	0.1092	Open
P2916	J29_16	J30_16	150.00	150.0	125.0	0.0703	Open
P2917	J29_17	J29_18	150.00	200.0	125.0	0.0094	Open
P2918	J29_17	J30_17	150.00	100.0	130.0	0.0396	Open
P2919	J29_18	J29_19	150.00	150.0	125.0	0.1255	Open
P2920	J29_18	J30_18	150.00	300.0	140.0	0.1018	Open
P2921	J29_19	J29_20	150.00	250.0	130.0	0.0836	Open
P2922	J29_19	J30_19	150.00	300.0	125.0	0.1415	Open
P2923	J29_20	J29_21	150.00	150.0	130.0	0.1045	Open
P2924	J29_20	J30_20	150.00	150.0	130.0	0.0322	Open
P2925	J29_21	J29_22	150.00	450.0	130.0	0.0474	Open
P2926	J29_21	J30_21	150.00	600.0	130.0	0.0388	Open
P2927	J29_22	J29_23	150.00	250.0	140.0	0.0676	Open
P2928	J29_22	J30_22	150.00	200.0	130.0	0.0102	Open
P2929	J29_23	J29_24	150.00	300.0	125.0	0.0699	Open
P2930	J29_23	J30_23	150.00	150.0	130.0	0.1314	Open
P2931	J29_24	J29_25	150.00	300.0	135.0	0.0763	Open
P2932	J29_24	J30_24	150.00	150.0	130.0	0.1164	Open
P2933	J29_25	J29_26	150.00	150.0	140.0	0.0500	Open
P2934	J29_25	J30_25	150.00	300.0	125.0	0.1337	Open
P2935	J29_26	J29_27	150.00	250.0	135.0	0.1215	Open
P2936	J29_26	J30_26	150.00	150.0	130.0	0.0668	Open
P2937	J29_27	J29_28	150.00	150.0	135.0	0.1230	Open
P2938	J29_27	J30_27	150.00	150.0	125.0	0.1102	Open
P2939	J29_28	J29_29	150.00	100.0	140.0	0.0394	Open
P2940	J29_28	J30_28	150.00	200.0	125.0	0.0986	Open
P2941	J29_29	J29_30	150.00	200.0	135.0	0.1128	Open
P2942	J29_29	J30_29	150.00	150.0	135.0	0.1352	Open
P2943	J29_30	J29_31	150.00	300.0	135.0	0.0886	Open
P2944	J29_30	J30_30	150.00	300.0	135.0	0.0297	Open
P2945	J29_31	J29_32	150.00	600.0	130.0	0.0361	Open
P2946	J29_31	J30_31	150.00	600.0	130.0	0.0017	Open
P2947	J29_32	J29_33	150.00	200.0	130.0	0.0581	Open
P2948	J29_32	J30_32	150.00	150.0	140.0	0.1167	Open
P2949	J29_33	J29_34	150.00	100.0	130.0	0.1471	Open
P2950	J29_33	J30_33	150.00	200.0	125.0	0.0402	Open
P2951	J29_34	J29_35	150.00	300.0	130.0	0.0597	Open
P2952	J29_34	J30_34	150.00	250.0	125.0	0.0338	Open
P2953	J29_35	J29_36	150.00	250.0	135.0	0.0665	Open
P2954	J29_35	J30_35	150.00	150.0	140.0	0.0178	Open
P2955	J29_36	J29_37	150.00	150.0	135.0	0.1089	Open
P2956	J29_36	J30_36	150.00	100.0	125.0	0.0796	Open
P2957	J29_37	J29_38	150.00	200.0	135.0	0.1034	Open
P2958	J29_37	J30_37	150.00	100.0	140.0	0.0638	Open
P2959	J29_38	J29_39	150.00	300.0	135.0	0.0199	Open
P2960	J29_38	J30_38	150.00	150.0	125.0	0.0185	Open
P2961	J29_39	J29_40	150.00	300.0	135.0	0.0202	Open
P2962	J29_39	J30_39	150.00	100.0	130.0	0.0543	Open
P2963	J29_40	J29_41	150.00	200.0	125.0	0.0141	Open
P2964	J29_40	J30_40	150.00	200.0	140.0	0.1268	Open
P2965	J29_41	J29_42	150.00	600.0	125.0	0.0139	Open
P2966	J29_41	J30_41	150.00	500.0	130.0	0.0140	Open
P2967	J29_42	J29_43	150.00	200.0	125.0	0.0950	Open
P2968	J29_42	J30_42	150.00	150.0	125.0	0.0954	Open
P2969	J29_43	J29_44	150.00	300.0	125.0	0.0733	Open
P2970	J29_43	J30_43	150.00	300.0	130.0	0.0376	Open
P2971	J29_44	J29_45	150.00	150.0	135.0	0.1430	Open
P2972	J29_44	J30_44	150.00	300.0	140.0	0.1005	Open
P2973	J29_45	J29_46	150.00	100.0	130.0	0.0110	Open
P2974	J29_45	J30_45	150.00	150.0	130.0	0.1370	Open
P2975	J29_46	J29_47	150.00	250.0	125.0	0.0871	Open
P2976	J29_46	J30_46	150.00	150.0	130.0	0.1267	Open
P2977	J29_47	J29_48	150.00	250.0	125.0	0.1422	Open
P2978	J29_47	J30_47	150.00	100.0	140.0	0.1292	Open
P2979	J29_48	J29_49	150.00	300.0	140.0	0.0277	Open
P2980	J29_48	J30_48	150.00	200.0	140.0	0.0470	Open
P2981	J29_49	J29_50	150.00	150.0	125.0	0.1455	Open
P2982	J29_49	J30_49	150.00	300.0	135.0	0.0845	Open
P2983	J29_50	J29_51	150.00	150.0	140.0	0.0326	Open
P2984	J29_50	J30_50	150.00	250.0	135.0	0.0815	Open
P2985	J29_51	J29_52	150.00	450.0	130.0	0.0143	Open
P2986	J29_51	J30_51	150.00	600.0	120.0	0.0011	Open
P2987	J29_52	J30_52	150.00	300.0	130.0	0.1047	Open
P2988	J30_1	J30_2	150.00	500.0	120.0	0.0446	Open
P2989	J30_1	J31_1	150.00	500.0	120.0	0.0438	Open
P2990	J30_2	J30_3	150.00	150.0	135.0	0.0192	Open
P2991	J30_2	J31_2	150.00	200.0	135.0	0.1078	Open
P2992	J30_3	J30_4	150.00	300.0	135.0	0.0886	Open
P2993	J30_3	J31_3	150.00	100.0	125.0	0.0796	Open
P2994	J30_4	J30_5	150.00	150.0	125.0	0.0619	Open
P2995	J30_4	J31_4	150.00	300.0	125.0	0.0301	Open
P2996	J30_5	J30_6	150.00	150.0	140.0	0.0448	Open
P2997	J30_5	J31_5	150.00	200.0	125.0	0.1005	Open
P2998	J30_6	J30_7	150.00	150.0	130.0	0.0685	Open
P2999	J30_6	J31_6	150.00	100.0	130.0	0.1301	Open
P3000	J30_7	J30_8	150.00	150.0	135.0	0.0856	Open
P3001	J30_7	J31_7	150.00	250.0	140.0	0.1212	Open
P3002	J30_8	J30_9	150.00	100.0	125.0	0.0891	Open
P3003	J30_8	J31_8	150.00	100.0	130.0	0.0846	Open
P3004	J30_9	J30_10	150.00	150.0	125.0	0.1133	Open
P3005	J30_9	J31_9	150.00	300.0	140.0	0.1114	Open
P3006	J30_10	J30_11	150.00	300.0	125.0	0.1011	Open
P3007	J30_10	J31_10	150.00	300.0	135.0	0.0407	Open
P3008	J30_11	J30_12	150.00	600.0	130.0	0.0073	Open
P3009	J30_11	J31_11	150.00	500.0	130.0	0.0100	Open
P3010	J30_12	J30_13	150.00	150.0	125.0	0.0345	Open
P3011	J30_12	J31_12	150.00	150.0	130.0	0.1127	Open
P3012	J30_13	J30_14	150.00	200.0	140.0	0.0711	Open
P3013	J30_13	J31_13	150.00	300.0	125.0	0.1418	Open
P3014	J30_14	J30_15	150.00	250.0	125.0	0.0324	Open
P3015	J30_14	J31_14	150.00	200.0	125.0	0.1380	Open
P3016	J30_15	J30_16	150.00	200.0	140.0	0.1216	Open
P3017	J30_15	J31_15	150.00	100.0	130.0	0.0591	Open
P3018	J30_16	J30_17	150.00	300.0	140.0	0.0972	Open
P3019	J30_16	J31_16	150.00	100.0	130.0	0.0935	Open
P3020	J30_17	J30_18	150.00	250.0	125.0	0.0094	Open
P3021	J30_17	J31_17	150.00	250.0	130.0	0.0745	Open
P3022	J30_18	J30_19	150.00	100.0	140.0	0.0061	Open
P3023	J30_18	J31_18	150.00	200.0	140.0	0.0133	Open
P3024	J30_19	J30_20	150.00	150.0	140.0	0.0424	Open
P3025	J30_19	J31_19	150.00	150.0	140.0	0.1167	Open
P3026	J30_20	J30_21	150.00	250.0	140.0	0.0315	Open
P3027	J30_20	J31_20	150.00	250.0	140.0	0.0033	Open
P3028	J30_21	J30_22	150.00	450.0	130.0	0.0490	Open
P3029	J30_21	J31_21	150.00	500.0	125.0	0.0352	Open
P3030	J30_22	J30_23	150.00	200.0	140.0	0.1292	Open
P3031	J30_22	J31_22	150.00	150.0	130.0	0.0814	Open
P3032	J30_23	J30_24	150.00	150.0	140.0	0.0883	Open
P3033	J30_23	J31_23	150.00	100.0	140.0	0.1364	Open
P3034	J30_24	J30_25	150.00	150.0	135.0	0.0150	Open
P3035	J30_24	J31_24	150.00	300.0	130.0	0.0002	Open
P3036	J30_25	J30_26	150.00	200.0	140.0	0.0014	Open
P3037	J30_25	J31_25	150.00	300.0	125.0	0.0723	Open
P3038	J30_26	J30_27	150.00	300.0	125.0	0.0066	Open
P3039	J30_26	J31_26	150.00	150.0	125.0	0.1178	Open
P3040	J30_27	J30_28	150.00	250.0	140.0	0.1215	Open
P3041	J30_27	J31_27	150.00	100.0	135.0	0.1496	Open
P3042	J30_28	J30_29	150.00	100.0	135.0	0.0359	Open
P3043	J30_28	J31_28	150.00	300.0	130.0	0.1358	Open
P3044	J30_29	J30_30	150.00	200.0	125.0	0.0015	Open
P3045	J30_29	J31_29	150.00	300.0	125.0	0.0845	Open
P3046	J30_30	J30_31	150.00	300.0	125.0	0.0921	Open
P3047	J30_30	J31_30	150.00	300.0	140.0	0.1013	Open
P3048	J30_31	J30_32	150.00	450.0	130.0	0.0270	Open
P3049	J30_31	J31_31	150.00	450.0	120.0	0.0122	Open
P3050	J30_32	J30_33	150.00	250.0	125.0	0.1271	Open
P3051	J30_32	J31_32	150.00	200.0	125.0	0.0344	Open
P3052	J30_33	J30_34	150.00	200.0	125.0	0.0356	Open
P3053	J30_33	J31_33	150.00	300.0	125.0	0.0571	Open
P3054	J30_34	J30_35	150.00	100.0	130.0	0.1234	Open
P3055	J30_34	J31_34	150.00	300.0	135.0	0.1102	Open
P3056	J30_35	J30_36	150.00	150.0	135.0	0.1442	Open
P3057	J30_35	J31_35	150.00	150.0	130.0	0.0991	Open
P3058	J30_36	J30_37	150.00	250.0	130.0	0.1162	Open
P3059	J30_36	J31_36	150.00	300.0	135.0	0.0748	Open
P3060	J30_37	J30_38	150.00	150.0	125.0	0.0987	Open
P3061	J30_37	J31_37	150.00	150.0	125.0	0.1111	Open
P3062	J30_38	J30_39	150.00	250.0	130.0	0.1143	Open
P3063	J30_38	J31_38	150.00	250.0	130.0	0.0545	Open
P3064	J30_39	J30_40	150.00	300.0	140.0	0.1172	Open
P3065	J30_39	J31_39	150.00	300.0	140.0	0.0678	Open
P3066	J30_40	J30_41	150.00	150.0	130.0	0.0140	Open
P3067	J30_40	J31_40	150.00	250.0	130.0	0.0552	Open
P3068	J30_41	J30_42	150.00	350.0	120.0	0.0088	Open
P3069	J30_41	J31_41	150.00	500.0	125.0	0.0403	Open
P3070	J30_42	J30_43	150.00	250.0	140.0	0.1015	Open
P3071	J30_42	J31_42	150.00	100.0	135.0	0.0682	Open
P3072	J30_43	J30_44	150.00	200.0	140.0	0.1396	Open
P3073	J30_43	J31_43	150.00	150.0	140.0	0.1267	Open
P3074	J30_44	J30_45	150.00	200.0	140.0	0.1233	Open
P3075	J30_44	J31_44	150.00	200.0	130.0	0.0530	Open
P3076	J30_45	J30_46	150.00	300.0	130.0	0.0761	Open
P3077	J30_45	J31_45	150.00	200.0	140.0	0.0572	Open
P3078	J30_46	J30_47	150.00	250.0	130.0	0.0097	Open
P3079	J30_46	J31_46	150.00	100.0	135.0	0.1171	Open
P3080	J30_47	J30_48	150.00	200.0	130.0	0.0809	Open
P3081	J30_47	J31_47	150.00	250.0	135.0	0.0095	Open
P3082	J30_48	J30_49	150.00	100.0	135.0	0.0706	Open
P3083	J30_48	J31_48	150.00	300.0	135.0	0.0160	Open
P3084	J30_49	J30_50	150.00	100.0	125.0	0.0835	Open
P3085	J30_49	J31_49	150.00	100.0	135.0	0.1087	Open
P3086	J30_50	J30_51	150.00	200.0	140.0	0.1120	Open
P3087	J30_50	J31_50	150.00	200.0	135.0	0.1170	Open
P3088	J30_51	J30_52	150.00	450.0	130.0	0.0236	Open
P3089	J30_51	J31_51	150.00	350.0	125.0	0.0319	Open
P3090	J30_52	J31_52	150.00	100.0	135.0	0.0670	Open
P3091	J31_1	J31_2	150.00	600.0	130.0	0.0125	Open
P3092	J31_1	J32_1	150.00	350.0	125.0	0.0264	Open
P3093	J31_2	J31_3	150.00	350.0	130.0	0.0395	Open
P3094	J31_2	J32_2	150.00	350.0	120.0	0.0031	Open
P3095	J31_3	J31_4	150.00	450.0	125.0	0.0212	Open
P3096	J31_3	J32_3	150.00	600.0	130.0	0.0012	Open
P3097	J31_4	J31_5	150.00	500.0	125.0	0.0351	Open
P3098	J31_4	J32_4	150.00	300.0	130.0	0.0218	Open
P3099	J31_5	J31_6	150.00	300.0	120.0	0.0158	Open
P3100	J31_5	J32_5	150.00	450.0	120.0	0.0198	Open
P3101	J31_6	J31_7	150.00	500.0	130.0	0.0211	Open
P3102	J31_6	J32_6	150.00	350.0	125.0	0.0401	Open
P3103	J31_7	J31_8	150.00	450.0	130.0	0.0130	Open
P3104	J31_7	J32_7	150.00	600.0	120.0	0.0083	Open
P3105	J31_8	J31_9	150.00	500.0	130.0	0.0083	Open
P3106	J31_8	J32_8	150.00	400.0	130.0	0.0316	Open
P3107	J31_9	J31_10	150.00	500.0	120.0	0.0387	Open
P3108	J31_9	J32_9	150.00	350.0	120.0	0.0171	Open
P3109	J31_10	J31_11	150.00	600.0	130.0	0.0254	Open
P3110	J31_10	J32_10	150.00	300.0	120.0	0.0107	Open
P3111	J31_11	J31_12	150.00	450.0	120.0	0.0160	Open
P3112	J31_11	J32_11	150.00	450.0	120.0	0.0449	Open
P3113	J31_12	J31_13	150.00	350.0	120.0	0.0325	Open
P3114	J31_12	J32_12	150.00	400.0	120.0	0.0360	Open
P3115	J31_13	J31_14	150.00	450.0	125.0	0.0105	Open
P3116	J31_13	J32_13	150.00	500.0	125.0	0.0479	Open
P3117	J31_14	J31_15	150.00	400.0	120.0	0.0175	Open
P3118	J31_14	J32_14	150.00	350.0	120.0	0.0305	Open
P3119	J31_15	J31_16	150.00	500.0	120.0	0.0455	Open
P3120	J31_15	J32_15	150.00	300.0	130.0	0.0222	Open
P3121	J31_16	J31_17	150.00	500.0	120.0	0.0162	Open
P3122	J31_16	J32_16	150.00	450.0	130.0	0.0326	Open
P3123	J31_17	J31_18	150.00	350.0	125.0	0.0243	Open
P3124	J31_17	J32_17	150.00	300.0	120.0	0.0456	Open
P3125	J31_18	J31_19	150.00	300.0	130.0	0.0128	Open
P3126	J31_18	J32_18	150.00	400.0	125.0	0.0476	Open
P3127	J31_19	J31_20	150.00	300.0	120.0	0.0389	Open
P3128	J31_19	J32_19	150.00	500.0	120.0	0.0127	Open
P3129	J31_20	J31_21	150.00	450.0	130.0	0.0315	Open
P3130	J31_20	J32_20	150.00	600.0	120.0	0.0394	Open
P3131	J31_21	J31_22	150.00	400.0	125.0	0.0397	Open
P3132	J31_21	J32_21	150.00	400.0	125.0	0.0373	Open
P3133	J31_22	J31_23	150.00	400.0	120.0	0.0322	Open
P3134	J31_22	J32_22	150.00	450.0	120.0	0.0227	Open
P3135	J31_23	J31_24	150.00	600.0	125.0	0.0192	Open
P3136	J31_23	J32_23	150.00	500.0	130.0	0.0188	Open
P3137	J31_24	J31_25	150.00	350.0	125.0	0.0408	Open
P3138	J31_24	J32_24	150.00	500.0	120.0	0.0044	Open
P3139	J31_25	J31_26	150.00	450.0	125.0	0.0380	Open
P3140	J31_25	J32_25	150.00	500.0	125.0	0.0477	Open
P3141	J31_26	J31_27	150.00	450.0	125.0	0.0052	Open
P3142	J31_26	J32_26	150.00	350.0	130.0	0.0391	Open
P3143	J31_27	J31_28	150.00	600.0	130.0	0.0259	Open
P3144	J31_27	J32_27	150.00	450.0	125.0	0.0409	Open
P3145	J31_28	J31_29	150.00	350.0	130.0	0.0192	Open
P3146	J31_28	J32_28	150.00	500.0	130.0	0.0459	Open
P3147	J31_29	J31_30	150.00	300.0	125.0	0.0012	Open
P3148	J31_29	J32_29	150.00	450.0	130.0	0.0194	Open
P3149	J31_30	J31_31	150.00	450.0	130.0	0.0208	Open
P3150	J31_30	J32_30	150.00	300.0	125.0	0.0396	Open
P3151	J31_31	J31_32	150.00	300.0	130.0	0.0363	Open
P3152	J31_31	J32_31	150.00	400.0	120.0	0.0206	Open
P3153	J31_32	J31_33	150.00	400.0	120.0	0.0268	Open
P3154	J31_32	J32_32	150.00	350.0	120.0	0.0014	Open
P3155	J31_33	J31_34	150.00	500.0	120.0	0.0313	Open
P3156	J31_33	J32_33	150.00	400.0	130.0	0.0295	Open
P3157	J31_34	J31_35	150.00	600.0	125.0	0.0351	Open
P3158	J31_34	J32_34	150.00	500.0	120.0	0.0267	Open
P3159	J31_35	J31_36	150.00	350.0	130.0	0.0375	Open
P3160	J31_35	J32_35	150.00	450.0	130.0	0.0163	Open
P3161	J31_36	J31_37	150.00	350.0	130.0	0.0259	Open
P3162	J31_36	J32_36	150.00	600.0	125.0	0.0348	Open
P3163	J31_37	J31_38	150.00	300.0	125.0	0.0378	Open
P3164	J31_37	J32_37	150.00	500.0	125.0	0.0229	Open
P3165	J31_38	J31_39	150.00	350.0	130.0	0.0085	Open
P3166	J31_38	J32_38	150.00	500.0	130.0	0.0258	Open
P3167	J31_39	J31_40	150.00	500.0	120.0	0.0140	Open
P3168	J31_39	J32_39	150.00	500.0	120.0	0.0227	Open
P3169	J31_40	J31_41	150.00	300.0	120.0	0.0076	Open
P3170	J31_40	J32_40	150.00	600.0	120.0	0.0231	Open
P3171	J31_41	J31_42	150.00	350.0	130.0	0.0227	Open
P3172	J31_41	J32_41	150.00	500.0	130.0	0.0261	Open
P3173	J31_42	J31_43	150.00	400.0	120.0	0.0213	Open
P3174	J31_42	J32_42	150.00	350.0	120.0	0.0101	Open
P3175	J31_43	J31_44	150.00	500.0	120.0	0.0358	Open
P3176	J31_43	J32_43	150.00	300.0	130.0	0.0336	Open
P3177	J31_44	J31_45	150.00	400.0	125.0	0.0242	Open
P3178	J31_44	J32_44	150.00	350.0	120.0	0.0468	Open
P3179	J31_45	J31_46	150.00	300.0	120.0	0.0425	Open
P3180	J31_45	J32_45	150.00	350.0	125.0	0.0327	Open
P3181	J31_46	J31_47	150.00	500.0	120.0	0.0435	Open
P3182	J31_46	J32_46	150.00	600.0	130.0	0.0412	Open
P3183	J31_47	J31_48	150.00	400.0	130.0	0.0466	Open
P3184	J31_47	J32_47	150.00	600.0	125.0	0.0234	Open
P3185	J31_48	J31_49	150.00	600.0	130.0	0.0398	Open
P3186	J31_48	J32_48	150.00	600.0	120.0	0.0073	Open
P3187	J31_49	J31_50	150.00	300.0	125.0	0.0301	Open
P3188	J31_49	J32_49	150.00	400.0	125.0	0.0131	Open
P3189	J31_50	J31_51	150.00	450.0	125.0	0.0284	Open
P3190	J31_50	J32_50	150.00	500.0	125.0	0.0137	Open
P3191	J31_51	J31_52	150.00	400.0	125.0	0.0400	Open
P3192	J31_51	J32_51	150.00	450.0	130.0	0.0451	Open
P3193	J31_52	J32_52	150.00	400.0	125.0	0.0469	Open
P3194	J32_1	J32_2	150.00	500.0	130.0	0.0142	Open
P3195	J32_1	J33_1	150.00	500.0	130.0	0.0347	Open
P3196	J32_2	J32_3	150.00	200.0	125.0	0.1397	Open
P3197	J32_2	J33_2	150.00	300.0	125.0	0.0812	Open
P3198	J32_3	J32_4	150.00	250.0	140.0	0.0793	Open
P3199	J32_3	J33_3	150.00	250.0	140.0	0.1443	Open
P3200	J32_4	J32_5	150.00	200.0	125.0	0.0098	Open
P3201	J32_4	J33_4	150.00	100.0	130.0	0.0860	Open
P3202	J32_5	J32_6	150.00	250.0	130.0	0.0373	Open
P3203	J32_5	J33_5	150.00	200.0	140.0	0.0792	Open
P3204	J32_6	J32_7	150.00	150.0	140.0	0.0880	Open
P3205	J32_6	J33_6	150.00	100.0	135.0	0.1202	Open
P3206	J32_7	J32_8	150.00	100.0	135.0	0.0858	Open
P3207	J32_7	J33_7	150.00	200.0	125.0	0.1344	Open
P3208	J32_8	J32_9	150.00	200.0	125.0	0.1195	Open
P3209	J32_8	J33_8	150.00	150.0	125.0	0.0507	Open
P3210	J32_9	J32_10	150.00	250.0	140.0	0.0506	Open
P3211	J32_9	J33_9	150.00	150.0	135.0	0.0509	Open
P3212	J32_10	J32_11	150.00	250.0	140.0	0.0406	Open
P3213	J32_10	J33_10	150.00	250.0	140.0	0.1007	Open
P3214	J32_11	J32_12	150.00	400.0	120.0	0.0253	Open
P3215	J32_11	J33_11	150.00	350.0	120.0	0.0211	Open
P3216	J32_12	J32_13	150.00	100.0	135.0	0.0491	Open
P3217	J32_12	J33_12	150.00	100.0	130.0	0.0524	Open
P3218	J32_13	J32_14	150.00	150.0	130.0	0.0466	Open
P3219	J32_13	J33_13	150.00	100.0	140.0	0.1440	Open
P3220	J32_14	J32_15	150.00	250.0	130.0	0.0139	Open
P3221	J32_14	J33_14	150.00	250.0	140.0	0.1232	Open
P3222	J32_15	J32_16	150.00	250.0	125.0	0.0316	Open
P3223	J32_15	J33_15	150.00	300.0	125.0	0.0489	Open
P3224	J32_16	J32_17	150.00	150.0	135.0	0.1453	Open
P3225	J32_16	J33_16	150.00	250.0	130.0	0.1161	Open
P3226	J32_17	J32_18	150.00	300.0	140.0	0.0890	Open
P3227	J32_17	J33_17	150.00	250.0	140.0	0.0375	Open
P3228	J32_18	J32_19	150.00	250.0	140.0	0.1163	Open
P3229	J32_18	J33_18	150.00	250.0	130.0	0.0439	Open
P3230	J32_19	J32_20	150.00	150.0	140.0	0.1430	Open
P3231	J32_19	J33_19	150.00	200.0	130.0	0.0691	Open
P3232	J32_20	J32_21	150.00	300.0	130.0	0.1409	Open
P3233	J32_20	J33_20	150.00	300.0	125.0	0.1008	Open
P3234	J32_21	J32_22	150.00	300.0	130.0	0.0428	Open
P3235	J32_21	J33_21	150.00	300.0	125.0	0.0050	Open
P3236	J32_22	J32_23	150.00	250.0	125.0	0.1420	Open
P3237	J32_22	J33_22	150.00	150.0	135.0	0.0152	Open
P3238	J32_23	J32_24	150.00	200.0	130.0	0.1438	Open
P3239	J32_23	J33_23	150.00	250.0	135.0	0.1107	Open
P3240	J32_24	J32_25	150.00	300.0	130.0	0.0948	Open
P3241	J32_24	J33_24	150.00	300.0	135.0	0.0370	Open
P3242	J32_25	J32_26	150.00	150.0	135.0	0.0570	Open
P3243	J32_25	J33_25	150.00	250.0	135.0	0.1047	Open
P3244	J32_26	J32_27	150.00	200.0	135.0	0.1167	Open
P3245	J32_26	J33_26	150.00	300.0	125.0	0.1270	Open
P3246	J32_27	J32_28	150.00	300.0	135.0	0.0620	Open
P3247	J32_27	J33_27	150.00	300.0	140.0	0.1241	Open
P3248	J32_28	J32_29	150.00	200.0	140.0	0.0539	Open
P3249	J32_28	J33_28	150.00	200.0	130.0	0.1278	Open
P3250	J32_29	J32_30	150.00	150.0	130.0	0.1287	Open
P3251	J32_29	J33_29	150.00	200.0	140.0	0.0431	Open
P3252	J32_30	J32_31	150.00	100.0	140.0	0.0458	Open
P3253	J32_30	J33_30	150.00	200.0	125.0	0.0077	Open
P3254	J32_31	J32_32	150.00	400.0	130.0	0.0303	Open
P3255	J32_31	J33_31	150.00	300.0	130.0	0.0393	Open
P3256	J32_32	J32_33	150.00	300.0	125.0	0.0574	Open
P3257	J32_32	J33_32	150.00	200.0	140.0	0.0199	Open
P3258	J32_33	J32_34	150.00	150.0	135.0	0.0263	Open
P3259	J32_33	J33_33	150.00	200.0	135.0	0.0630	Open
P3260	J32_34	J32_35	150.00	200.0	135.0	0.0548	Open
P3261	J32_34	J33_34	150.00	150.0	130.0	0.0064	Open
P3262	J32_35	J32_36	150.00	300.0	140.0	0.0856	Open
P3263	J32_35	J33_35	150.00	300.0	130.0	0.0050	Open
P3264	J32_36	J32_37	150.00	100.0	135.0	0.0710	Open
P3265	J32_36	J33_36	150.00	200.0	130.0	0.1299	Open
P3266	J32_37	J32_38	150.00	100.0	140.0	0.1144	Open
P3267	J32_37	J33_37	150.00	200.0	135.0	0.0804	Open
P3268	J32_38	J32_39	150.00	250.0	130.0	0.1153	Open
P3269	J32_38	J33_38	150.00	100.0	140.0	0.1101	Open
P3270	J32_39	J32_40	150.00	250.0	135.0	0.0830	Open
P3271	J32_39	J33_39	150.00	250.0	140.0	0.0581	Open
P3272	J32_40	J32_41	150.00	250.0	135.0	0.1259	Open
P3273	J32_40	J33_40	150.00	100.0	140.0	0.0914	Open
P3274	J32_41	J32_42	150.00	500.0	120.0	0.0075	Open
P3275	J32_41	J33_41	150.00	450.0	125.0	0.0134	Open
P3276	J32_42	J32_43	150.00	300.0	130.0	0.0370	Open
P3277	J32_42	J33_42	150.00	150.0	125.0	0.0185	Open
P3278	J32_43	J32_44	150.00	300.0	130.0	0.1365	Open
P3279	J32_43	J33_43	150.00	250.0	140.0	0.1299	Open
P3280	J32_44	J32_45	150.00	100.0	140.0	0.0597	Open
P3281	J32_44	J33_44	150.00	100.0	125.0	0.0841	Open
P3282	J32_45	J32_46	150.00	250.0	125.0	0.0538	Open
P3283	J32_45	J33_45	150.00	200.0	130.0	0.0141	Open
P3284	J32_46	J32_47	150.00	300.0	125.0	0.1259	Open
P3285	J32_46	J33_46	150.00	100.0	135.0	0.0870	Open
P3286	J32_47	J32_48	150.00	100.0	125.0	0.0075	Open
P3287	J32_47	J33_47	150.00	300.0	125.0	0.0054	Open
P3288	J32_48	J32_49	150.00	150.0	140.0	0.0439	Open
P3289	J32_48	J33_48	150.00	200.0	130.0	0.1157	Open
P3290	J32_49	J32_50	150.00	250.0	130.0	0.0136	Open
P3291	J32_49	J33_49	150.00	200.0	125.0	0.0271	Open
P3292	J32_50	J32_51	150.00	300.0	135.0	0.0428	Open
P3293	J32_50	J33_50	150.00	200.0	130.0	0.1327	Open
P3294	J32_51	J32_52	150.00	400.0	130.0	0.0337	Open
P3295	J32_51	J33_51	150.00	500.0	125.0	0.0184	Open
P3296	J32_52	J33_52	150.00	100.0	140.0	0.1123	Open
P3297	J33_1	J33_2	150.00	300.0	120.0	0.0127	Open
P3298	J33_1	J34_1	150.00	400.0	120.0	0.0225	Open
P3299	J33_2	J33_3	150.00	250.0	140.0	0.1388	Open
P3300	J33_2	J34_2	150.00	150.0	140.0	0.1280	Open
P3301	J33_3	J33_4	150.00	150.0	140.0	0.1492	Open
P3302	J33_3	J34_3	150.00	250.0	140.0	0.1305	Open
P3303	J33_4	J33_5	150.00	250.0	140.0	0.0896	Open
P3304	J33_4	J34_4	150.00	250.0	140.0	0.1208	Open
P3305	J33_5	J33_6	150.00	250.0	135.0	0.0782	Open
P3306	J33_5	J34_5	150.00	100.0	125.0	0.0478	Open
P3307	J33_6	J33_7	150.00	200.0	140.0	0.0238	Open
P3308	J33_6	J34_6	150.00	150.0	135.0	0.0136	Open
P3309	J33_7	J33_8	150.00	100.0	125.0	0.1205	Open
P3310	J33_7	J34_7	150.00	100.0	135.0	0.1032	Open
P3311	J33_8	J33_9	150.00	200.0	125.0	0.0159	Open
P3312	J33_8	J34_8	150.00	300.0	135.0	0.0434	Open
P3313	J33_9	J33_10	150.00	100.0	130.0	0.0555	Open
P3314	J33_9	J34_9	150.00	150.0	125.0	0.0320	Open
P3315	J33_10	J33_11	150.00	100.0	135.0	0.0433	Open
P3316	J33_10	J34_10	150.00	300.0	135.0	0.1282	Open
P3317	J33_11	J33_12	150.00	500.0	120.0	0.0053	Open
P3318	J33_11	J34_11	150.00	450.0	120.0	0.0449	Open
P3319	J33_12	J33_13	150.00	100.0	125.0	0.1266	Open
P3320	J33_12	J34_12	150.00	250.0	135.0	0.0163	Open
P3321	J33_13	J33_14	150.00	200.0	140.0	0.0291	Open
P3322	J33_13	J34_13	150.00	200.0	125.0	0.0153	Open
P3323	J33_14	J33_15	150.00	100.0	140.0	0.1033	Open
P3324	J33_14	J34_14	150.00	200.0	140.0	0.0759	Open
P3325	J33_15	J33_16	150.00	300.0	130.0	0.0600	Open
P3326	J33_15	J34_15	150.00	250.0	125.0	0.1161	Open
P3327	J33_16	J33_17	150.00	250.0	125.0	0.0721	Open
P3328	J33_16	J34_16	150.00	100.0	130.0	0.0641	Open
P3329	J33_17	J33_18	150.00	200.0	135.0	0.0308	Open
P3330	J33_17	J34_17	150.00	250.0	135.0	0.1201	Open
P3331	J33_18	J33_19	150.00	250.0	135.0	0.0822	Open
P3332	J33_18	J34_18	150.00	250.0	130.0	0.0216	Open
P3333	J33_19	J33_20	150.00	150.0	135.0	0.0861	Open
P3334	J33_19	J34_19	150.00	250.0	140.0	0.1104	Open
P3335	J33_20	J33_21	150.00	300.0	130.0	0.0829	Open
P3336	J33_20	J34_20	150.00	200.0	130.0	0.1339	Open
P3337	J33_21	J33_22	150.00	450.0	130.0	0.0182	Open
P3338	J33_21	J34_21	150.00	450.0	120.0	0.0360	Open
P3339	J33_22	J33_23	150.00	300.0	140.0	0.0726	Open
P3340	J33_22	J34_22	150.00	300.0	140.0	0.0262	Open
P3341	J33_23	J33_24	150.00	300.0	130.0	0.1464	Open
P3342	J33_23	J34_23	150.00	200.0	130.0	0.0816	Open
P3343	J33_24	J33_25	150.00	250.0	135.0	0.1466	Open
P3344	J33_24	J34_24	150.00	150.0	140.0	0.0689	Open
P3345	J33_25	J33_26	150.00	100.0	130.0	0.1300	Open
P3346	J33_25	J34_25	150.00	300.0	140.0	0.1475	Open
P3347	J33_26	J33_27	150.00	250.0	135.0	0.1057	Open
P3348	J33_26	J34_26	150.00	300.0	125.0	0.0914	Open
P3349	J33_27	J33_28	150.00	100.0	130.0	0.1100	Open
P3350	J33_27	J34_27	150.00	200.0	125.0	0.1146	Open
P3351	J33_28	J33_29	150.00	150.0	130.0	0.1062	Open
P3352	J33_28	J34_28	150.00	250.0	140.0	0.0222	Open
P3353	J33_29	J33_30	150.00	250.0	135.0	0.0281	Open
P3354	J33_29	J34_29	150.00	200.0	140.0	0.1158	Open
P3355	J33_30	J33_31	150.00	200.0	130.0	0.1090	Open
P3356	J33_30	J34_30	150.00	100.0	130.0	0.0392	Open
P3357	J33_31	J33_32	150.00	500.0	125.0	0.0041	Open
P3358	J33_31	J34_31	150.00	300.0	120.0	0.0047	Open
P3359	J33_32	J33_33	150.00	200.0	130.0	0.0307	Open
P3360	J33_32	J34_32	150.00	300.0	130.0	0.1392	Open
P3361	J33_33	J33_34	150.00	250.0	125.0	0.1252	Open
P3362	J33_33	J34_33	150.00	150.0	125.0	0.0170	Open
P3363	J33_34	J33_35	150.00	300.0	130.0	0.0920	Open
P3364	J33_34	J34_34	150.00	300.0	135.0	0.0072	Open
P3365	J33_35	J33_36	150.00	150.0	130.0	0.0620	Open
P3366	J33_35	J34_35	150.00	250.0	130.0	0.0497	Open
P3367	J33_36	J33_37	150.00	150.0	130.0	0.1429	Open
P3368	J33_36	J34_36	150.00	200.0	130.0	0.0786	Open
P3369	J33_37	J33_38	150.00	100.0	130.0	0.0175	Open
P3370	J33_37	J34_37	150.00	300.0	135.0	0.0867	Open
P3371	J33_38	J33_39	150.00	200.0	140.0	0.0881	Open
P3372	J33_38	J34_38	150.00	250.0	125.0	0.0315	Open
P3373	J33_39	J33_40	150.00	250.0	140.0	0.0171	Open
P3374	J33_39	J34_39	150.00	200.0	125.0	0.0963	Open
P3375	J33_40	J33_41	150.00	150.0	130.0	0.0179	Open
P3376	J33_40	J34_40	150.00	300.0	130.0	0.0600	Open
P3377	J33_41	J33_42	150.00	500.0	125.0	0.0416	Open
P3378	J33_41	J34_41	150.00	350.0	125.0	0.0000	Open
P3379	J33_42	J33_43	150.00	150.0	135.0	0.1227	Open
P3380	J33_42	J34_42	150.00	150.0	130.0	0.0539	Open
P3381	J33_43	J33_44	150.00	200.0	125.0	0.0021	Open
P3382	J33_43	J34_43	150.00	100.0	125.0	0.0627	Open
P3383	J33_44	J33_45	150.00	300.0	130.0	0.0640	Open
P3384	J33_44	J34_44	150.00	300.0	125.0	0.0844	Open
P3385	J33_45	J33_46	150.00	300.0	140.0	0.0348	Open
P3386	J33_45	J34_45	150.00	150.0	130.0	0.0223	Open
P3387	J33_46	J33_47	150.00	200.0	140.0	0.0540	Open
P3388	J33_46	J34_46	150.00	250.0	130.0	0.1201	Open
P3389	J33_47	J33_48	150.00	300.0	140.0	0.1439	Open
P3390	J33_47	J34_47	150.00	300.0	140.0	0.0399	Open
P3391	J33_48	J33_49	150.00	150.0	135.0	0.0292	Open
P3392	J33_48	J34_48	150.00	200.0	140.0	0.0546	Open
P3393	J33_49	J33_50	150.00	250.0	140.0	0.1083	Open
P3394	J33_49	J34_49	150.00	300.0	125.0	0.0402	Open
P3395	J33_50	J33_51	150.00	100.0	125.0	0.1489	Open
P3396	J33_50	J34_50	150.00	200.0	125.0	0.0024	Open
P3397	J33_51	J33_52	150.00	350.0	125.0	0.0309	Open
P3398	J33_51	J34_51	150.00	450.0	130.0	0.0429	Open
P3399	J33_52	J34_52	150.00	150.0	130.0	0.1222	Open
P3400	J34_1	J34_2	150.00	450.0	120.0	0.0421	Open
P3401	J34_1	J35_1	150.00	300.0	130.0	0.0404	Open
P3402	J34_2	J34_3	150.00	250.0	135.0	0.1329	Open
P3403	J34_2	J35_2	150.00	150.0	140.0	0.1042	Open
P3404	J34_3	J34_4	150.00	250.0	140.0	0.0973	Open
P3405	J34_3	J35_3	150.00	150.0	140.0	0.1339	Open
P3406	J34_4	J34_5	150.00	200.0	140.0	0.1068	Open
P3407	J34_4	J35_4	150.00	250.0	135.0	0.1276	Open
P3408	J34_5	J34_6	150.00	250.0	140.0	0.1129	Open
P3409	J34_5	J35_5	150.00	250.0	130.0	0.1242	Open
P3410	J34_6	J34_7	150.00	150.0	125.0	0.1440	Open
P3411	J34_6	J35_6	150.00	150.0	130.0	0.1449	Open
P3412	J34_7	J34_8	150.00	300.0	125.0	0.0925	Open
P3413	J34_7	J35_7	150.00	250.0	135.0	0.0679	Open
P3414	J34_8	J34_9	150.00	100.0	130.0	0.0400	Open
P3415	J34_8	J35_8	150.00	200.0	135.0	0.0393	Open
P3416	J34_9	J34_10	150.00	100.0	125.0	0.0073	Open
P3417	J34_9	J35_9	150.00	250.0	140.0	0.0935	Open
P3418	J34_10	J34_11	150.00	100.0	130.0	0.0287	Open
P3419	J34_10	J35_10	150.00	150.0	130.0	0.0591	Open
P3420	J34_11	J34_12	150.00	600.0	125.0	0.0036	Open
P3421	J34_11	J35_11	150.00	300.0	130.0	0.0353	Open
P3422	J34_12	J34_13	150.00	300.0	135.0	0.0322	Open
P3423	J34_12	J35_12	150.00	150.0	125.0	0.1038	Open
P3424	J34_13	J34_14	150.00	100.0	125.0	0.0662	Open
P3425	J34_13	J35_13	150.00	150.0	130.0	0.0084	Open
P3426	J34_14	J34_15	150.00	250.0	130.0	0.0377	Open
P3427	J34_14	J35_14	150.00	250.0	135.0	0.0617	Open
P3428	J34_15	J34_16	150.00	300.0	135.0	0.1258	Open
P3429	J34_15	J35_15	150.00	300.0	140.0	0.1045	Open
P3430	J34_16	J34_17	150.00	250.0	135.0	0.0416	Open
P3431	J34_16	J35_16	150.00	250.0	140.0	0.1225	Open
P3432	J34_17	J34_18	150.00	200.0	140.0	0.1470	Open
P3433	J34_17	J35_17	150.00	100.0	140.0	0.0516	Open
P3434	J34_18	J34_19	150.00	300.0	135.0	0.0473	Open
P3435	J34_18	J35_18	150.00	200.0	125.0	0.0856	Open
P3436	J34_19	J34_20	150.00	150.0	125.0	0.1121	Open
P3437	J34_19	J35_19	150.00	150.0	130.0	0.0501	Open
P3438	J34_20	J34_21	150.00	100.0	140.0	0.1308	Open
P3439	J34_20	J35_20	150.00	200.0	135.0	0.0766	Open
P3440	J34_21	J34_22	150.00	350.0	125.0	0.0328	Open
P3441	J34_21	J35_21	150.00	450.0	125.0	0.0303	Open
P3442	J34_22	J34_23	150.00	200.0	140.0	0.0597	Open
P3443	J34_22	J35_22	150.00	150.0	140.0	0.0967	Open
P3444	J34_23	J34_24	150.00	100.0	135.0	0.0644	Open
P3445	J34_23	J35_23	150.00	200.0	140.0	0.1303	Open
P3446	J34_24	J34_25	150.00	200.0	140.0	0.0106	Open
P3447	J34_24	J35_24	150.00	150.0	125.0	0.0181	Open
P3448	J34_25	J34_26	150.00	200.0	140.0	0.0440	Open
P3449	J34_25	J35_25	150.00	150.0	135.0	0.0390	Open
P3450	J34_26	J34_27	150.00	300.0	130.0	0.0802	Open
P3451	J34_26	J35_26	150.00	100.0	140.0	0.0827	Open
P3452	J34_27	J34_28	150.00	100.0	125.0	0.0389	Open
P3453	J34_27	J35_27	150.00	300.0	140.0	0.0841	Open
P3454	J34_28	J34_29	150.00	250.0	135.0	0.0608	Open
P3455	J34_28	J35_28	150.00	150.0	135.0	0.1273	Open
P3456	J34_29	J34_30	150.00	300.0	125.0	0.0015	Open
P3457	J34_29	J35_29	150.00	250.0	140.0	0.0241	Open
P3458	J34_30	J34_31	150.00	300.0	135.0	0.0539	Open
P3459	J34_30	J35_30	150.00	100.0	135.0	0.1105	Open
P3460	J34_31	J34_32	150.00	500.0	130.0	0.0490	Open
P3461	J34_31	J35_31	150.00	350.0	125.0	0.0342	Open
P3462	J34_32	J34_33	150.00	100.0	130.0	0.0556	Open
P3463	J34_32	J35_32	150.00	200.0	135.0	0.0699	Open
P3464	J34_33	J34_34	150.00	200.0	125.0	0.0926	Open
P3465	J34_33	J35_33	150.00	100.0	130.0	0.0069	Open
P3466	J34_34	J34_35	150.00	250.0	140.0	0.0671	Open
P3467	J34_34	J35_34	150.00	250.0	140.0	0.1068	Open
P3468	J34_35	J34_36	150.00	100.0	140.0	0.0513	Open
P3469	J34_35	J35_35	150.00	250.0	135.0	0.0765	Open
P3470	J34_36	J34_37	150.00	150.0	140.0	0.1475	Open
P3471	J34_36	J35_36	150.00	150.0	140.0	0.0518	Open
P3472	J34_37	J34_38	150.00	200.0	140.0	0.1298	Open
P3473	J34_37	J35_37	150.00	100.0	140.0	0.0702	Open
P3474	J34_38	J34_39	150.00	150.0	125.0	0.0026	Open
P3475	J34_38	J35_38	150.00	300.0	140.0	0.0362	Open
P3476	J34_39	J34_40	150.00	150.0	125.0	0.1238	Open
P3477	J34_39	J35_39	150.00	100.0	130.0	0.1310	Open
P3478	J34_40	J34_41	150.00	200.0	135.0	0.0489	Open
P3479	J34_40	J35_40	150.00	200.0	135.0	0.1427	Open
P3480	J34_41	J34_42	150.00	400.0	125.0	0.0252	Open
P3481	J34_41	J35_41	150.00	300.0	125.0	0.0384	Open
P3482	J34_42	J34_43	150.00	200.0	125.0	0.1470	Open
P3483	J34_42	J35_42	150.00	100.0	140.0	0.1264	Open
P3484	J34_43	J34_44	150.00	250.0	140.0	0.0316	Open
P3485	J34_43	J35_43	150.00	200.0	125.0	0.1121	Open
P3486	J34_44	J34_45	150.00	100.0	130.0	0.0474	Open
P3487	J34_44	J35_44	150.00	200.0	130.0	0.0826	Open
P3488	J34_45	J34_46	150.00	300.0	135.0	0.0812	Open
P3489	J34_45	J35_45	150.00	200.0	125.0	0.0315	Open
P3490	J34_46	J34_47	150.00	200.0	135.0	0.0060	Open
P3491	J34_46	J35_46	150.00	100.0	125.0	0.0393	Open
P3492	J34_47	J34_48	150.00	100.0	135.0	0.1321	Open
P3493	J34_47	J35_47	150.00	150.0	140.0	0.1061	Open
P3494	J34_48	J34_49	150.00	100.0	125.0	0.1106	Open
P3495	J34_48	J35_48	150.00	150.0	125.0	0.1160	Open
P3496	J34_49	J34_50	150.00	150.0	140.0	0.0978	Open
P3497	J34_49	J35_49	150.00	100.0	140.0	0.0255	Open
P3498	J34_50	J34_51	150.00	300.0	125.0	0.0528	Open
P3499	J34_50	J35_50	150.00	100.0	135.0	0.1186	Open
P3500	J34_51	J34_52	150.00	300.0	130.0	0.0080	Open
P3501	J34_51	J35_51	150.00	300.0	120.0	0.0206	Open
P3502	J34_52	J35_52	150.00	150.0	135.0	0.0807	Open
P3503	J35_1	J35_2	150.00	300.0	125.0	0.0299	Open
P3504	J35_1	J36_1	150.00	300.0	130.0	0.0343	Open
P3505	J35_2	J35_3	150.00	100.0	130.0	0.0814	Open
P3506	J35_2	J36_2	150.00	300.0	125.0	0.0334	Open
P3507	J35_3	J35_4	150.00	150.0	130.0	0.0484	Open
P3508	J35_3	J36_3	150.00	300.0	135.0	0.1376	Open
P3509	J35_4	J35_5	150.00	200.0	140.0	0.0359	Open
P3510	J35_4	J36_4	150.00	100.0	130.0	0.1262	Open
P3511	J35_5	J35_6	150.00	250.0	125.0	0.0893	Open
P3512	J35_5	J36_5	150.00	250.0	130.0	0.0792	Open
P3513	J35_6	J35_7	150.00	200.0	135.0	0.1338	Open
P3514	J35_6	J36_6	150.00	100.0	125.0	0.1013	Open
P3515	J35_7	J35_8	150.00	100.0	130.0	0.0461	Open
P3516	J35_7	J36_7	150.00	150.0	125.0	0.1206	Open
P3517	J35_8	J35_9	150.00	200.0	135.0	0.1257	Open
P3518	J35_8	J36_8	150.00	150.0	140.0	0.1330	Open
P3519	J35_9	J35_10	150.00	250.0	140.0	0.0040	Open
P3520	J35_9	J36_9	150.00	200.0	130.0	0.0950	Open
P3521	J35_10	J35_11	150.00	100.0	125.0	0.0933	Open
P3522	J35_10	J36_10	150.00	150.0	125.0	0.0447	Open
P3523	J35_11	J35_12	150.00	400.0	130.0	0.0044	Open
P3524	J35_11	J36_11	150.00	450.0	120.0	0.0110	Open
P3525	J35_12	J35_13	150.00	100.0	125.0	0.1236	Open
P3526	J35_12	J36_12	150.00	100.0	130.0	0.0265	Open
P3527	J35_13	J35_14	150.00	200.0	140.0	0.1338	Open
P3528	J35_13	J36_13	150.00	300.0	125.0	0.0380	Open
P3529	J35_14	J35_15	150.00	200.0	140.0	0.0253	Open
P3530	J35_14	J36_14	150.00	100.0	140.0	0.0496	Open
P3531	J35_15	J35_16	150.00	200.0	140.0	0.1038	Open
P3532	J35_15	J36_15	150.00	300.0	125.0	0.0081	Open
P3533	J35_16	J35_17	150.00	300.0	135.0	0.0644	Open
P3534	J35_16	J36_16	150.00	100.0	135.0	0.0917	Open
P3535	J35_17	J35_18	150.00	100.0	140.0	0.0886	Open
P3536	J35_17	J36_17	150.00	100.0	135.0	0.1388	Open
P3537	J35_18	J35_19	150.00	250.0	130.0	0.1492	Open
P3538	J35_18	J36_18	150.00	250.0	125.0	0.0194	Open
P3539	J35_19	J35_20	150.00	300.0	125.0	0.1444	Open
P3540	J35_19	J36_19	150.00	100.0	140.0	0.0001	Open
P3541	J35_20	J35_21	150.00	200.0	130.0	0.1324	Open
P3542	J35_20	J36_20	150.00	200.0	140.0	0.0067	Open
P3543	J35_21	J35_22	150.00	450.0	120.0	0.0433	Open
P3544	J35_21	J36_21	150.00	500.0	120.0	0.0169	Open
P3545	J35_22	J35_23	150.00	100.0	130.0	0.0809	Open
P3546	J35_22	J36_22	150.00	300.0	135.0	0.0042	Open
P3547	J35_23	J35_24	150.00	300.0	130.0	0.0814	Open
P3548	J35_23	J36_23	150.00	250.0	140.0	0.0827	Open
P3549	J35_24	J35_25	150.00	150.0	125.0	0.0310	Open
P3550	J35_24	J36_24	150.00	250.0	135.0	0.1358	Open
P3551	J35_25	J35_26	150.00	300.0	140.0	0.0485	Open
P3552	J35_25	J36_25	150.00	150.0	140.0	0.0789	Open
P3553	J35_26	J35_27	150.00	300.0	130.0	0.0932	Open
P3554	J35_26	J36_26	150.00	250.0	135.0	0.0009	Open
P3555	J35_27	J35_28	150.00	250.0	125.0	0.1063	Open
P3556	J35_27	J36_27	150.00	250.0	140.0	0.0861	Open
P3557	J35_28	J35_29	150.00	100.0	130.0	0.0033	Open
P3558	J35_28	J36_28	150.00	300.0	135.0	0.0933	Open
P3559	J35_29	J35_30	150.00	250.0	135.0	0.0010	Open
P3560	J35_29	J36_29	150.00	100.0	130.0	0.1037	Open
P3561	J35_30	J35_31	150.00	300.0	125.0	0.0126	Open
P3562	J35_30	J36_30	150.00	300.0	135.0	0.0019	Open
P3563	J35_31	J35_32	150.00	350.0	125.0	0.0369	Open
P3564	J35_31	J36_31	150.00	450.0	125.0	0.0218	Open
P3565	J35_32	J35_33	150.00	300.0	140.0	0.1360	Open
P3566	J35_32	J36_32	150.00	150.0	125.0	0.0279	Open
P3567	J35_33	J35_34	150.00	300.0	135.0	0.0697	Open
P3568	J35_33	J36_33	150.00	200.0	130.0	0.0358	Open
P3569	J35_34	J35_35	150.00	100.0	140.0	0.1073	Open
P3570	J35_34	J36_34	150.00	200.0	125.0	0.1242	Open
P3571	J35_35	J35_36	150.00	200.0	125.0	0.1052	Open
P3572	J35_35	J36_35	150.00	150.0	135.0	0.1028	Open
P3573	J35_36	J35_37	150.00	150.0	140.0	0.0469	Open
P3574	J35_36	J36_36	150.00	100.0	130.0	0.0708	Open
P3575	J35_37	J35_38	150.00	300.0	140.0	0.1363	Open
P3576	J35_37	J36_37	150.00	200.0	130.0	0.0926	Open
P3577	J35_38	J35_39	150.00	200.0	130.0	0.0064	Open
P3578	J35_38	J36_38	150.00	200.0	125.0	0.1315	Open
P3579	J35_39	J35_40	150.00	300.0	140.0	0.1266	Open
P3580	J35_39	J36_39	150.00	150.0	140.0	0.0164	Open
P3581	J35_40	J35_41	150.00	300.0	130.0	0.0910	Open
P3582	J35_40	J36_40	150.00	100.0	125.0	0.0318	Open
P3583	J35_41	J35_42	150.00	450.0	120.0	0.0323	Open
P3584	J35_41	J36_41	150.00	600.0	130.0	0.0138	Open
P3585	J35_42	J35_43	150.00	150.0	130.0	0.1444	Open
P3586	J35_42	J36_42	150.00	150.0	135.0	0.0444	Open
P3587	J35_43	J35_44	150.00	300.0	130.0	0.0925	Open
P3588	J35_43	J36_43	150.00	200.0	130.0	0.1476	Open
P3589	J35_44	J35_45	150.00	250.0	125.0	0.0767	Open
P3590	J35_44	J36_44	150.00	150.0	135.0	0.1445	Open
P3591	J35_45	J35_46	150.00	200.0	130.0	0.0116	Open
P3592	J35_45	J36_45	150.00	150.0	125.0	0.0707	Open
P3593	J35_46	J35_47	150.00	250.0	140.0	0.0443	Open
P3594	J35_46	J36_46	150.00	150.0	140.0	0.0993	Open
P3595	J35_47	J35_48	150.00	250.0	125.0	0.1076	Open
P3596	J35_47	J36_47	150.00	300.0	135.0	0.0501	Open
P3597	J35_48	J35_49	150.00	250.0	130.0	0.1294	Open
P3598	J35_48	J36_48	150.00	250.0	125.0	0.0881	Open
P3599	J35_49	J35_50	150.00	150.0	140.0	0.0455	Open
P3600	J35_49	J36_49	150.00	250.0	125.0	0.1183	Open
P3601	J35_50	J35_51	150.00	150.0	140.0	0.1173	Open
P3602	J35_50	J36_50	150.00	300.0	130.0	0.0104	Open
P3603	J35_51	J35_52	150.00	300.0	120.0	0.0024	Open
P3604	J35_51	J36_51	150.00	350.0	125.0	0.0376	Open
P3605	J35_52	J36_52	150.00	200.0	125.0	0.1292	Open
P3606	J36_1	J36_2	150.00	500.0	130.0	0.0072	Open
P3607	J36_1	J37_1	150.00	300.0	120.0	0.0405	Open
P3608	J36_2	J36_3	150.00	300.0	130.0	0.0946	Open
P3609	J36_2	J37_2	150.00	200.0	125.0	0.0327	Open
P3610	J36_3	J36_4	150.00	250.0	125.0	0.1176	Open
P3611	J36_3	J37_3	150.00	150.0	130.0	0.1135	Open
P3612	J36_4	J36_5	150.00	300.0	140.0	0.0892	Open
P3613	J36_4	J37_4	150.00	300.0	125.0	0.1103	Open
P3614	J36_5	J36_6	150.00	150.0	130.0	0.1377	Open
P3615	J36_5	J37_5	150.00	150.0	125.0	0.0447	Open
P3616	J36_6	J36_7	150.00	200.0	140.0	0.1053	Open
P3617	J36_6	J37_6	150.00	150.0	130.0	0.0127	Open
P3618	J36_7	J36_8	150.00	300.0	125.0	0.1411	Open
P3619	J36_7	J37_7	150.00	200.0	140.0	0.0724	Open
P3620	J36_8	J36_9	150.00	250.0	140.0	0.0097	Open
P3621	J36_8	J37_8	150.00	300.0	125.0	0.0920	Open
P3622	J36_9	J36_10	150.00	300.0	125.0	0.0930	Open
P3623	J36_9	J37_9	150.00	300.0	130.0	0.1413	Open
P3624	J36_10	J36_11	150.00	150.0	135.0	0.0551	Open
P3625	J36_10	J37_10	150.00	300.0	130.0	0.0194	Open
P3626	J36_11	J36_12	150.00	350.0	125.0	0.0133	Open
P3627	J36_11	J37_11	150.00	600.0	125.0	0.0351	Open
P3628	J36_12	J36_13	150.00	200.0	135.0	0.0134	Open
P3629	J36_12	J37_12	150.00	300.0	140.0	0.0144	Open
P3630	J36_13	J36_14	150.00	300.0	140.0	0.0713	Open
P3631	J36_13	J37_13	150.00	200.0	140.0	0.0233	Open
P3632	J36_14	J36_15	150.00	300.0	140.0	0.1371	Open
P3633	J36_14	J37_14	150.00	150.0	135.0	0.0818	Open
P3634	J36_15	J36_16	150.00	300.0	135.0	0.0562	Open
P3635	J36_15	J37_15	150.00	200.0	140.0	0.0644	Open
P3636	J36_16	J36_17	150.00	150.0	135.0	0.0764	Open
P3637	J36_16	J37_16	150.00	150.0	130.0	0.0072	Open
P3638	J36_17	J36_18	150.00	100.0	135.0	0.0617	Open
P3639	J36_17	J37_17	150.00	200.0	130.0	0.1326	Open
P3640	J36_18	J36_19	150.00	200.0	125.0	0.1331	Open
P3641	J36_18	J37_18	150.00	300.0	125.0	0.0267	Open
P3642	J36_19	J36_20	150.00	150.0	130.0	0.1401	Open
P3643	J36_19	J37_19	150.00	250.0	125.0	0.0206	Open
P3644	J36_20	J36_21	150.00	300.0	135.0	0.0482	Open
P3645	J36_20	J37_20	150.00	150.0	140.0	0.1233	Open
P3646	J36_21	J36_22	150.00	400.0	120.0	0.0240	Open
P3647	J36_21	J37_21	150.00	400.0	120.0	0.0408	Open
P3648	J36_22	J36_23	150.00	100.0	130.0	0.1204	Open
P3649	J36_22	J37_22	150.00	100.0	130.0	0.0422	Open
P3650	J36_23	J36_24	150.00	250.0	140.0	0.1457	Open
P3651	J36_23	J37_23	150.00	150.0	140.0	0.0206	Open
P3652	J36_24	J36_25	150.00	300.0	130.0	0.1040	Open
P3653	J36_24	J37_24	150.00	150.0	135.0	0.1361	Open
P3654	J36_25	J36_26	150.00	300.0	135.0	0.0810	Open
P3655	J36_25	J37_25	150.00	150.0	125.0	0.0778	Open
P3656	J36_26	J36_27	150.00	200.0	125.0	0.0261	Open
P3657	J36_26	J37_26	150.00	250.0	135.0	0.0539	Open
P3658	J36_27	J36_28	150.00	100.0	135.0	0.0695	Open
P3659	J36_27	J37_27	150.00	250.0	130.0	0.1009	Open
P3660	J36_28	J36_29	150.00	300.0	140.0	0.1198	Open
P3661	J36_28	J37_28	150.00	250.0	135.0	0.1363	Open
P3662	J36_29	J36_30	150.00	300.0	125.0	0.0309	Open
P3663	J36_29	J37_29	150.00	150.0	125.0	0.1195	Open
P3664	J36_30	J36_31	150.00	250.0	130.0	0.0423	Open
P3665	J36_30	J37_30	150.00	100.0	140.0	0.0633	Open
P3666	J36_31	J36_32	150.00	400.0	130.0	0.0413	Open
P3667	J36_31	J37_31	150.00	350.0	130.0	0.0473	Open
P3668	J36_32	J36_33	150.00	100.0	140.0	0.1240	Open
P3669	J36_32	J37_32	150.00	250.0	125.0	0.0128	Open
P3670	J36_33	J36_34	150.00	100.0	135.0	0.1312	Open
P3671	J36_33	J37_33	150.00	100.0	140.0	0.1228	Open
P3672	J36_34	J36_35	150.00	100.0	135.0	0.1456	Open
P3673	J36_34	J37_34	150.00	100.0	130.0	0.1473	Open
P3674	J36_35	J36_36	150.00	200.0	140.0	0.1166	Open
P3675	J36_35	J37_35	150.00	150.0	140.0	0.0668	Open
P3676	J36_36	J36_37	150.00	200.0	125.0	0.0134	Open
P3677	J36_36	J37_36	150.00	300.0	130.0	0.1119	Open
P3678	J36_37	J36_38	150.00	200.0	130.0	0.0799	Open
P3679	J36_37	J37_37	150.00	100.0	130.0	0.0231	Open
P3680	J36_38	J36_39	150.00	200.0	140.0	0.0792	Open
P3681	J36_38	J37_38	150.00	300.0	125.0	0.0742	Open
P3682	J36_39	J36_40	150.00	250.0	125.0	0.0852	Open
P3683	J36_39	J37_39	150.00	150.0	130.0	0.0778	Open
P3684	J36_40	J36_41	150.00	150.0	130.0	0.0725	Open
P3685	J36_40	J37_40	150.00	200.0	135.0	0.1120	Open
P3686	J36_41	J36_42	150.00	600.0	120.0	0.0314	Open
P3687	J36_41	J37_41	150.00	350.0	130.0	0.0112	Open
P3688	J36_42	J36_43	150.00	100.0	125.0	0.0343	Open
P3689	J36_42	J37_42	150.00	150.0	125.0	0.0561	Open
P3690	J36_43	J36_44	150.00	250.0	140.0	0.0559	Open
P3691	J36_43	J37_43	150.00	300.0	125.0	0.0381	Open
P3692	J36_44	J36_45	150.00	200.0	135.0	0.0578	Open
P3693	J36_44	J37_44	150.00	200.0	125.0	0.0547	Open
P3694	J36_45	J36_46	150.00	100.0	130.0	0.0957	Open
P3695	J36_45	J37_45	150.00	250.0	140.0	0.1363	Open
P3696	J36_46	J36_47	150.00	150.0	130.0	0.0272	Open
P3697	J36_46	J37_46	150.00	300.0	140.0	0.0009	Open
P3698	J36_47	J36_48	150.00	150.0	130.0	0.1315	Open
P3699	J36_47	J37_47	150.00	200.0	140.0	0.0164	Open
P3700	J36_48	J36_49	150.00	250.0	140.0	0.0729	Open
P3701	J36_48	J37_48	150.00	200.0	135.0	0.1364	Open
P3702	J36_49	J36_50	150.00	300.0	135.0	0.1275	Open
P3703	J36_49	J37_49	150.00	200.0	140.0	0.1317	Open
P3704	J36_50	J36_51	150.00	300.0	125.0	0.1327	Open
P3705	J36_50	J37_50	150.00	250.0	140.0	0.0484	Open
P3706	J36_51	J36_52	150.00	350.0	125.0	0.0411	Open
P3707	J36_51	J37_51	150.00	500.0	120.0	0.0155	Open
P3708	J36_52	J37_52	150.00	200.0	125.0	0.1053	Open
P3709	J37_1	J37_2	150.00	350.0	130.0	0.0039	Open
P3710	J37_1	J38_1	150.00	450.0	120.0	0.0311	Open
P3711	J37_2	J37_3	150.00	200.0	130.0	0.0258	Open
P3712	J37_2	J38_2	150.00	200.0	135.0	0.1447	Open
P3713	J37_3	J37_4	150.00	300.0	135.0	0.0418	Open
P3714	J37_3	J38_3	150.00	200.0	135.0	0.1315	Open
P3715	J37_4	J37_5	150.00	250.0	130.0	0.1376	Open
P3716	J37_4	J38_4	150.00	300.0	125.0	0.1378	Open
P3717	J37_5	J37_6	150.00	200.0	135.0	0.0379	Open
P3718	J37_5	J38_5	150.00	300.0	125.0	0.0011	Open
P3719	J37_6	J37_7	150.00	150.0	140.0	0.0119	Open
P3720	J37_6	J38_6	150.00	250.0	140.0	0.1067	Open
P3721	J37_7	J37_8	150.00	200.0	130.0	0.0095	Open
P3722	J37_7	J38_7	150.00	150.0	135.0	0.0479	Open
P3723	J37_8	J37_9	150.00	200.0	135.0	0.0595	Open
P3724	J37_8	J38_8	150.00	200.0	140.0	0.0438	Open
P3725	J37_9	J37_10	150.00	250.0	135.0	0.1270	Open
P3726	J37_9	J38_9	150.00	200.0	125.0	0.1104	Open
P3727	J37_10	J37_11	150.00	250.0	135.0	0.0168	Open
P3728	J37_10	J38_10	150.00	250.0	125.0	0.0927	Open
P3729	J37_11	J37_12	150.00	400.0	120.0	0.0388	Open
P3730	J37_11	J38_11	150.00	400.0	120.0	0.0264	Open
P3731	J37_12	J37_13	150.00	200.0	135.0	0.1460	Open
P3732	J37_12	J38_12	150.00	150.0	140.0	0.1058	Open
P3733	J37_13	J37_14	150.00	200.0	140.0	0.0364	Open
P3734	J37_13	J38_13	150.00	200.0	130.0	0.1445	Open
P3735	J37_14	J37_15	150.00	150.0	140.0	0.1372	Open
P3736	J37_14	J38_14	150.00	300.0	125.0	0.0740	Open
P3737	J37_15	J37_16	150.00	250.0	125.0	0.0420	Open
P3738	J37_15	J38_15	150.00	250.0	125.0	0.1481	Open
P3739	J37_16	J37_17	150.00	200.0	130.0	0.1340	Open
P3740	J37_16	J38_16	150.00	200.0	135.0	0.1167	Open
P3741	J37_17	J37_18	150.00	100.0	125.0	0.0394	Open
P3742	J37_17	J38_17	150.00	100.0	135.0	0.0538	Open
P3743	J37_18	J37_19	150.00	300.0	130.0	0.1166	Open
P3744	J37_18	J38_18	150.00	300.0	125.0	0.0735	Open
P3745	J37_19	J37_20	150.00	300.0	140.0	0.0965	Open
P3746	J37_19	J38_19	150.00	100.0	130.0	0.0072	Open
P3747	J37_20	J37_21	150.00	100.0	130.0	0.0313	Open
P3748	J37_20	J38_20	150.00	200.0	140.0	0.0576	Open
P3749	J37_21	J37_22	150.00	500.0	130.0	0.0308	Open
P3750	J37_21	J38_21	150.00	600.0	120.0	0.0285	Open
P3751	J37_22	J37_23	150.00	200.0	130.0	0.1090	Open
P3752	J37_22	J38_22	150.00	150.0	140.0	0.0580	Open
P3753	J37_23	J37_24	150.00	150.0	135.0	0.1386	Open
P3754	J37_23	J38_23	150.00	300.0	140.0	0.0026	Open
P3755	J37_24	J37_25	150.00	150.0	125.0	0.0687	Open
P3756	J37_24	J38_24	150.00	250.0	135.0	0.0688	Open
P3757	J37_25	J37_26	150.00	200.0	125.0	0.0771	Open
P3758	J37_25	J38_25	150.00	200.0	130.0	0.0069	Open
P3759	J37_26	J37_27	150.00	150.0	140.0	0.0520	Open
P3760	J37_26	J38_26	150.00	250.0	140.0	0.0161	Open
P3761	J37_27	J37_28	150.00	100.0	130.0	0.0355	Open
P3762	J37_27	J38_27	150.00	250.0	125.0	0.0802	Open
P3763	J37_28	J37_29	150.00	250.0	130.0	0.1033	Open
P3764	J37_28	J38_28	150.00	250.0	130.0	0.0232	Open
P3765	J37_29	J37_30	150.00	150.0	125.0	0.0071	Open
P3766	J37_29	J38_29	150.00	150.0	135.0	0.0743	Open
P3767	J37_30	J37_31	150.00	300.0	125.0	0.0031	Open
P3768	J37_30	J38_30	150.00	250.0	130.0	0.0470	Open
P3769	J37_31	J37_32	150.00	600.0	130.0	0.0114	Open
P3770	J37_31	J38_31	150.00	400.0	125.0	0.0149	Open
P3771	J37_32	J37_33	150.00	100.0	135.0	0.1347	Open
P3772	J37_32	J38_32	150.00	250.0	140.0	0.0007	Open
P3773	J37_33	J37_34	150.00	100.0	140.0	0.1248	Open
P3774	J37_33	J38_33	150.00	300.0	140.0	0.0452	Open
P3775	J37_34	J37_35	150.00	100.0	140.0	0.1450	Open
P3776	J37_34	J38_34	150.00	300.0	130.0	0.0256	Open
P3777	J37_35	J37_36	150.00	100.0	135.0	0.0923	Open
P3778	J37_35	J38_35	150.00	200.0	135.0	0.0058	Open
P3779	J37_36	J37_37	150.00	300.0	130.0	0.1475	Open
P3780	J37_36	J38_36	150.00	250.0	135.0	0.0407	Open
P3781	J37_37	J37_38	150.00	150.0	140.0	0.0086	Open
P3782	J37_37	J38_37	150.00	100.0	130.0	0.0976	Open
P3783	J37_38	J37_39	150.00	300.0	135.0	0.1190	Open
P3784	J37_38	J38_38	150.00	100.0	125.0	0.0380	Open
P3785	J37_39	J37_40	150.00	200.0	130.0	0.1301	Open
P3786	J37_39	J38_39	150.00	200.0	135.0	0.1399	Open
P3787	J37_40	J37_41	150.00	250.0	140.0	0.0968	Open
P3788	J37_40	J38_40	150.00	100.0	130.0	0.0541	Open
P3789	J37_41	J37_42	150.00	450.0	130.0	0.0124	Open
P3790	J37_41	J38_41	150.00	450.0	125.0	0.0378	Open
P3791	J37_42	J37_43	150.00	100.0	140.0	0.1346	Open
P3792	J37_42	J38_42	150.00	100.0	125.0	0.0922	Open
P3793	J37_43	J37_44	150.00	200.0	130.0	0.0175	Open
P3794	J37_43	J38_43	150.00	150.0	140.0	0.0985	Open
P3795	J37_44	J37_45	150.00	100.0	140.0	0.0104	Open
P3796	J37_44	J38_44	150.00	250.0	130.0	0.1447	Open
P3797	J37_45	J37_46	150.00	200.0	135.0	0.1334	Open
P3798	J37_45	J38_45	150.00	300.0	130.0	0.0744	Open
P3799	J37_46	J37_47	150.00	250.0	140.0	0.1312	Open
P3800	J37_46	J38_46	150.00	300.0	130.0	0.0090	Open
P3801	J37_47	J37_48	150.00	300.0	130.0	0.0393	Open
P3802	J37_47	J38_47	150.00	200.0	135.0	0.0291	Open
P3803	J37_48	J37_49	150.00	300.0	135.0	0.0806	Open
P3804	J37_48	J38_48	150.00	100.0	140.0	0.1257	Open
P3805	J37_49	J37_50	150.00	200.0	135.0	0.0247	Open
P3806	J37_49	J38_49	150.00	250.0	140.0	0.0641	Open
P3807	J37_50	J37_51	150.00	200.0	130.0	0.0395	Open
P3808	J37_50	J38_50	150.00	250.0	130.0	0.0887	Open
P3809	J37_51	J37_52	150.00	300.0	130.0	0.0064	Open
P3810	J37_51	J38_51	150.00	500.0	125.0	0.0127	Open
P3811	J37_52	J38_52	150.00	100.0	125.0	0.0895	Open
P3812	J38_1	J38_2	150.00	450.0	120.0	0.0381	Open
P3813	J38_1	J39_1	150.00	300.0	130.0	0.0195	Open
P3814	J38_2	J38_3	150.00	300.0	140.0	0.0138	Open
P3815	J38_2	J39_2	150.00	150.0	130.0	0.0665	Open
P3816	J38_3	J38_4	150.00	200.0	130.0	0.0726	Open
P3817	J38_3	J39_3	150.00	100.0	135.0	0.0561	Open
P3818	J38_4	J38_5	150.00	200.0	130.0	0.0737	Open
P3819	J38_4	J39_4	150.00	200.0	130.0	0.1126	Open
P3820	J38_5	J38_6	150.00	150.0	130.0	0.0973	Open
P3821	J38_5	J39_5	150.00	100.0	125.0	0.1131	Open
P3822	J38_6	J38_7	150.00	200.0	135.0	0.1218	Open
P3823	J38_6	J39_6	150.00	200.0	140.0	0.1200	Open
P3824	J38_7	J38_8	150.00	250.0	135.0	0.1171	Open
P3825	J38_7	J39_7	150.00	100.0	140.0	0.0026	Open
P3826	J38_8	J38_9	150.00	300.0	140.0	0.0390	Open
P3827	J38_8	J39_8	150.00	300.0	130.0	0.0179	Open
P3828	J38_9	J38_10	150.00	250.0	130.0	0.0959	Open
P3829	J38_9	J39_9	150.00	300.0	140.0	0.1095	Open
P3830	J38_10	J38_11	150.00	200.0	140.0	0.1060	Open
P3831	J38_10	J39_10	150.00	150.0	130.0	0.0288	Open
P3832	J38_11	J38_12	150.00	450.0	130.0	0.0310	Open
P3833	J38_11	J39_11	150.00	500.0	125.0	0.0218	Open
P3834	J38_12	J38_13	150.00	100.0	130.0	0.0926	Open
P3835	J38_12	J39_12	150.00	250.0	140.0	0.0397	Open
P3836	J38_13	J38_14	150.00	100.0	130.0	0.0234	Open
P3837	J38_13	J39_13	150.00	250.0	125.0	0.0980	Open
P3838	J38_14	J38_15	150.00	150.0	135.0	0.0716	Open
P3839	J38_14	J39_14	150.00	150.0	125.0	0.0471	Open
P3840	J38_15	J38_16	150.00	250.0	140.0	0.1446	Open
P3841	J38_15	J39_15	150.00	300.0	135.0	0.0700	Open
P3842	J38_16	J38_17	150.00	200.0	135.0	0.0783	Open
P3843	J38_16	J39_16	150.00	300.0	125.0	0.1231	Open
P3844	J38_17	J38_18	150.00	100.0	140.0	0.0366	Open
P3845	J38_17	J39_17	150.00	300.0	135.0	0.0562	Open
P3846	J38_18	J38_19	150.00	200.0	135.0	0.0062	Open
P3847	J38_18	J39_18	150.00	200.0	135.0	0.1188	Open
P3848	J38_19	J38_20	150.00	250.0	140.0	0.0585	Open
P3849	J38_19	J39_19	150.00	150.0	125.0	0.0055	Open
P3850	J38_20	J38_21	150.00	250.0	130.0	0.0660	Open
P3851	J38_20	J39_20	150.00	150.0	135.0	0.0530	Open
P3852	J38_21	J38_22	150.00	350.0	120.0	0.0369	Open
P3853	J38_21	J39_21	150.00	450.0	130.0	0.0127	Open
P3854	J38_22	J38_23	150.00	200.0	130.0	0.0079	Open
P3855	J38_22	J39_22	150.00	200.0	140.0	0.0579	Open
P3856	J38_23	J38_24	150.00	250.0	125.0	0.0986	Open
P3857	J38_23	J39_23	150.00	100.0	135.0	0.0703	Open
P3858	J38_24	J38_25	150.00	200.0	125.0	0.0325	Open
P3859	J38_24	J39_24	150.00	100.0	135.0	0.1340	Open
P3860	J38_25	J38_26	150.00	200.0	135.0	0.1040	Open
P3861	J38_25	J39_25	150.00	150.0	140.0	0.0496	Open
P3862	J38_26	J38_27	150.00	150.0	125.0	0.0158	Open
P3863	J38_26	J39_26	150.00	250.0	140.0	0.1461	Open
P3864	J38_27	J38_28	150.00	200.0	135.0	0.1185	Open
P3865	J38_27	J39_27	150.00	300.0	130.0	0.1256	Open
P3866	J38_28	J38_29	150.00	200.0	130.0	0.0928	Open
P3867	J38_28	J39_28	150.00	100.0	140.0	0.0030	Open
P3868	J38_29	J38_30	150.00	150.0	125.0	0.1163	Open
P3869	J38_29	J39_29	150.00	150.0	140.0	0.0049	Open
P3870	J38_30	J38_31	150.00	200.0	125.0	0.0722	Open
P3871	J38_30	J39_30	150.00	200.0	135.0	0.1255	Open
P3872	J38_31	J38_32	150.00	500.0	120.0	0.0112	Open
P3873	J38_31	J39_31	150.00	450.0	130.0	0.0116	Open
P3874	J38_32	J38_33	150.00	200.0	140.0	0.0686	Open
P3875	J38_32	J39_32	150.00	200.0	140.0	0.1467	Open
P3876	J38_33	J38_34	150.00	250.0	125.0	0.0860	Open
P3877	J38_33	J39_33	150.00	100.0	140.0	0.0369	Open
P3878	J38_34	J38_35	150.00	100.0	135.0	0.0581	Open
P3879	J38_34	J39_34	150.00	100.0	125.0	0.0626	Open
P3880	J38_35	J38_36	150.00	100.0	125.0	0.0292	Open
P3881	J38_35	J39_35	150.00	250.0	130.0	0.0381	Open
P3882	J38_36	J38_37	150.00	250.0	125.0	0.0947	Open
P3883	J38_36	J39_36	150.00	300.0	135.0	0.1228	Open
P3884	J38_37	J38_38	150.00	150.0	140.0	0.0684	Open
P3885	J38_37	J39_37	150.00	250.0	140.0	0.0110	Open
P3886	J38_38	J38_39	150.00	100.0	125.0	0.0182	Open
P3887	J38_38	J39_38	150.00	200.0	125.0	0.0345	Open
P3888	J38_39	J38_40	150.00	150.0	130.0	0.1275	Open
P3889	J38_39	J39_39	150.00	200.0	135.0	0.0883	Open
P3890	J38_40	J38_41	150.00	200.0	125.0	0.0104	Open
P3891	J38_40	J39_40	150.00	150.0	135.0	0.0292	Open
P3892	J38_41	J38_42	150.00	500.0	130.0	0.0144	Open
P3893	J38_41	J39_41	150.00	350.0	125.0	0.0376	Open
P3894	J38_42	J38_43	150.00	100.0	125.0	0.1324	Open
P3895	J38_42	J39_42	150.00	250.0	140.0	0.0516	Open
P3896	J38_43	J38_44	150.00	200.0	130.0	0.0086	Open
P3897	J38_43	J39_43	150.00	200.0	140.0	0.0383	Open
P3898	J38_44	J38_45	150.00	250.0	125.0	0.0611	Open
P3899	J38_44	J39_44	150.00	200.0	125.0	0.0869	Open
P3900	J38_45	J38_46	150.00	250.0	125.0	0.0125	Open
P3901	J38_45	J39_45	150.00	300.0	140.0	0.0182	Open
P3902	J38_46	J38_47	150.00	100.0	135.0	0.0779	Open
P3903	J38_46	J39_46	150.00	100.0	135.0	0.1350	Open
P3904	J38_47	J38_48	150.00	200.0	135.0	0.1117	Open
P3905	J38_47	J39_47	150.00	150.0	135.0	0.0997	Open
P3906	J38_48	J38_49	150.00	150.0	135.0	0.0689	Open
P3907	J38_48	J39_48	150.00	150.0	135.0	0.1066	Open
P3908	J38_49	J38_50	150.00	300.0	125.0	0.0872	Open
P3909	J38_49	J39_49	150.00	250.0	130.0	0.1117	Open
P3910	J38_50	J38_51	150.00	150.0	140.0	0.0739	Open
P3911	J38_50	J39_50	150.00	200.0	140.0	0.0921	Open
P3912	J38_51	J38_52	150.00	400.0	120.0	0.0059	Open
P3913	J38_51	J39_51	150.00	300.0	125.0	0.0037	Open
P3914	J38_52	J39_52	150.00	250.0	125.0	0.1117	Open
P3915	J39_1	J39_2	150.00	500.0	120.0	0.0343	Open
P3916	J39_1	J40_1	150.00	350.0	120.0	0.0424	Open
P3917	J39_2	J39_3	150.00	300.0	135.0	0.1490	Open
P3918	J39_2	J40_2	150.00	300.0	130.0	0.1098	Open
P3919	J39_3	J39_4	150.00	100.0	130.0	0.0524	Open
P3920	J39_3	J40_3	150.00	200.0	125.0	0.1293	Open
P3921	J39_4	J39_5	150.00	150.0	140.0	0.0166	Open
P3922	J39_4	J40_4	150.00	300.0	125.0	0.1260	Open
P3923	J39_5	J39_6	150.00	150.0	125.0	0.0876	Open
P3924	J39_5	J40_5	150.00	250.0	125.0	0.0098	Open
P3925	J39_6	J39_7	150.00	100.0	140.0	0.0834	Open
P3926	J39_6	J40_6	150.00	300.0	135.0	0.0069	Open
P3927	J39_7	J39_8	150.00	300.0	130.0	0.0232	Open
P3928	J39_7	J40_7	150.00	200.0	135.0	0.0415	Open
P3929	J39_8	J39_9	150.00	200.0	125.0	0.1460	Open
P3930	J39_8	J40_8	150.00	250.0	130.0	0.0038	Open
P3931	J39_9	J39_10	150.00	100.0	130.0	0.0161	Open
P3932	J39_9	J40_9	150.00	100.0	125.0	0.1202	Open
P3933	J39_10	J39_11	150.00	250.0	125.0	0.0633	Open
P3934	J39_10	J40_10	150.00	250.0	135.0	0.0283	Open
P3935	J39_11	J39_12	150.00	500.0	130.0	0.0026	Open
P3936	J39_11	J40_11	150.00	300.0	125.0	0.0163	Open
P3937	J39_12	J39_13	150.00	200.0	140.0	0.0181	Open
P3938	J39_12	J40_12	150.00	100.0	135.0	0.0116	Open
P3939	J39_13	J39_14	150.00	250.0	130.0	0.0696	Open
P3940	J39_13	J40_13	150.00	250.0	135.0	0.1262	Open
P3941	J39_14	J39_15	150.00	150.0	135.0	0.1440	Open
P3942	J39_14	J40_14	150.00	300.0	130.0	0.0787	Open
P3943	J39_15	J39_16	150.00	200.0	140.0	0.0985	Open
P3944	J39_15	J40_15	150.00	150.0	125.0	0.0535	Open
P3945	J39_16	J39_17	150.00	250.0	130.0	0.1429	Open
P3946	J39_16	J40_16	150.00	200.0	140.0	0.1438	Open
P3947	J39_17	J39_18	150.00	300.0	130.0	0.1371	Open
P3948	J39_17	J40_17	150.00	200.0	135.0	0.1150	Open
P3949	J39_18	J39_19	150.00	300.0	140.0	0.0537	Open
P3950	J39_18	J40_18	150.00	200.0	135.0	0.0783	Open
P3951	J39_19	J39_20	150.00	100.0	125.0	0.0522	Open
P3952	J39_19	J40_19	150.00	300.0	140.0	0.1309	Open
P3953	J39_20	J39_21	150.00	300.0	125.0	0.0044	Open
P3954	J39_20	J40_20	150.00	300.0	135.0	0.0067	Open
P3955	J39_21	J39_22	150.00	350.0	130.0	0.0475	Open
P3956	J39_21	J40_21	150.00	300.0	125.0	0.0094	Open
P3957	J39_22	J39_23	150.00	100.0	130.0	0.1285	Open
P3958	J39_22	J40_22	150.00	300.0	135.0	0.0321	Open
P3959	J39_23	J39_24	150.00	100.0	140.0	0.0579	Open
P3960	J39_23	J40_23	150.00	100.0	140.0	0.0925	Open
P3961	J39_24	J39_25	150.00	100.0	130.0	0.1357	Open
P3962	J39_24	J40_24	150.00	250.0	125.0	0.1022	Open
P3963	J39_25	J39_26	150.00	300.0	125.0	0.0758	Open
P3964	J39_25	J40_25	150.00	150.0	130.0	0.0795	Open
P3965	J39_26	J39_27	150.00	300.0	135.0	0.0063	Open
P3966	J39_26	J40_26	150.00	200.0	130.0	0.0021	Open
P3967	J39_27	J39_28	150.00	300.0	130.0	0.1204	Open
P3968	J39_27	J40_27	150.00	150.0	130.0	0.1379	Open
P3969	J39_28	J39_29	150.00	200.0	135.0	0.0056	Open
P3970	J39_28	J40_28	150.00	200.0	140.0	0.0408	Open
P3971	J39_29	J39_30	150.00	100.0	140.0	0.0350	Open
P3972	J39_29	J40_29	150.00	200.0	140.0	0.1323	Open
P3973	J39_30	J39_31	150.00	150.0	140.0	0.0348	Open
P3974	J39_30	J40_30	150.00	250.0	135.0	0.1068	Open
P3975	J39_31	J39_32	150.00	600.0	130.0	0.0095	Open
P3976	J39_31	J40_31	150.00	450.0	130.0	0.0327	Open
P3977	J39_32	J39_33	150.00	150.0	125.0	0.0794	Open
P3978	J39_32	J40_32	150.00	150.0	140.0	0.1202	Open
P3979	J39_33	J39_34	150.00	250.0	135.0	0.0192	Open
P3980	J39_33	J40_33	150.00	200.0	140.0	0.1353	Open
P3981	J39_34	J39_35	150.00	300.0	140.0	0.0726	Open
P3982	J39_34	J40_34	150.00	300.0	140.0	0.0815	Open
P3983	J39_35	J39_36	150.00	100.0	140.0	0.0424	Open
P3984	J39_35	J40_35	150.00	100.0	125.0	0.0876	Open
P3985	J39_36	J39_37	150.00	150.0	140.0	0.1049	Open
P3986	J39_36	J40_36	150.00	100.0	125.0	0.0494	Open
P3987	J39_37	J39_38	150.00	250.0	130.0	0.0616	Open
P3988	J39_37	J40_37	150.00	250.0	125.0	0.1402	Open
P3989	J39_38	J39_39	150.00	250.0	135.0	0.0935	Open
P3990	J39_38	J40_38	150.00	200.0	125.0	0.1080	Open
P3991	J39_39	J39_40	150.00	150.0	125.0	0.0486	Open
P3992	J39_39	J40_39	150.00	300.0	130.0	0.0945	Open
P3993	J39_40	J39_41	150.00	150.0	135.0	0.0923	Open
P3994	J39_40	J40_40	150.00	100.0	130.0	0.0186	Open
P3995	J39_41	J39_42	150.00	350.0	120.0	0.0444	Open
P3996	J39_41	J40_41	150.00	500.0	130.0	0.0316	Open
P3997	J39_42	J39_43	150.00	250.0	125.0	0.0572	Open
P3998	J39_42	J40_42	150.00	150.0	130.0	0.0768	Open
P3999	J39_43	J39_44	150.00	200.0	140.0	0.0292	Open
P4000	J39_43	J40_43	150.00	200.0	135.0	0.0916	Open
P4001	J39_44	J39_45	150.00	150.0	125.0	0.0043	Open
P4002	J39_44	J40_44	150.00	300.0	125.0	0.0981	Open
P4003	J39_45	J39_46	150.00	200.0	140.0	0.0365	Open
P4004	J39_45	J40_45	150.00	300.0	130.0	0.0314	Open
P4005	J39_46	J39_47	150.00	250.0	125.0	0.0060	Open
P4006	J39_46	J40_46	150.00	300.0	135.0	0.1096	Open
P4007	J39_47	J39_48	150.00	250.0	140.0	0.0631	Open
P4008	J39_47	J40_47	150.00	100.0	125.0	0.0015	Open
P4009	J39_48	J39_49	150.00	250.0	130.0	0.0927	Open
P4010	J39_48	J40_48	150.00	200.0	135.0	0.0552	Open
P4011	J39_49	J39_50	150.00	100.0	140.0	0.0743	Open
P4012	J39_49	J40_49	150.00	250.0	140.0	0.0366	Open
P4013	J39_50	J39_51	150.00	250.0	140.0	0.0257	Open
P4014	J39_50	J40_50	150.00	300.0	135.0	0.1305	Open
P4015	J39_51	J39_52	150.00	500.0	120.0	0.0419	Open
P4016	J39_51	J40_51	150.00	300.0	130.0	0.0074	Open
P4017	J39_52	J40_52	150.00	250.0	125.0	0.0561	Open
P4018	J40_1	J40_2	150.00	400.0	120.0	0.0380	Open
P4019	J40_1	J41_1	150.00	600.0	125.0	0.0442	Open
P4020	J40_2	J40_3	150.00	200.0	130.0	0.1068	Open
P4021	J40_2	J41_2	150.00	250.0	130.0	0.1297	Open
P4022	J40_3	J40_4	150.00	300.0	130.0	0.1245	Open
P4023	J40_3	J41_3	150.00	150.0	140.0	0.0559	Open
P4024	J40_4	J40_5	150.00	250.0	140.0	0.1470	Open
P4025	J40_4	J41_4	150.00	250.0	125.0	0.1156	Open
P4026	J40_5	J40_6	150.00	100.0	140.0	0.0822	Open
P4027	J40_5	J41_5	150.00	250.0	140.0	0.0982	Open
P4028	J40_6	J40_7	150.00	100.0	135.0	0.1288	Open
P4029	J40_6	J41_6	150.00	300.0	135.0	0.0650	Open
P4030	J40_7	J40_8	150.00	250.0	130.0	0.0380	Open
P4031	J40_7	J41_7	150.00	150.0	125.0	0.0783	Open
P4032	J40_8	J40_9	150.00	150.0	135.0	0.1010	Open
P4033	J40_8	J41_8	150.00	200.0	125.0	0.1387	Open
P4034	J40_9	J40_10	150.00	100.0	130.0	0.0831	Open
P4035	J40_9	J41_9	150.00	150.0	140.0	0.0492	Open
P4036	J40_10	J40_11	150.00	200.0	140.0	0.0448	Open
P4037	J40_10	J41_10	150.00	250.0	130.0	0.1460	Open
P4038	J40_11	J40_12	150.00	300.0	130.0	0.0374	Open
P4039	J40_11	J41_11	150.00	600.0	125.0	0.0253	Open
P4040	J40_12	J40_13	150.00	100.0	140.0	0.0296	Open
P4041	J40_12	J41_12	150.00	300.0	125.0	0.0126	Open
P4042	J40_13	J40_14	150.00	100.0	135.0	0.0502	Open
P4043	J40_13	J41_13	150.00	300.0	140.0	0.0566	Open
P4044	J40_14	J40_15	150.00	300.0	130.0	0.0414	Open
P4045	J40_14	J41_14	150.00	150.0	125.0	0.0857	Open
P4046	J40_15	J40_16	150.00	300.0	130.0	0.0211	Open
P4047	J40_15	J41_15	150.00	150.0	140.0	0.0725	Open
P4048	J40_16	J40_17	150.00	100.0	135.0	0.0803	Open
P4049	J40_16	J41_16	150.00	300.0	135.0	0.0981	Open
P4050	J40_17	J40_18	150.00	300.0	135.0	0.0069	Open
P4051	J40_17	J41_17	150.00	200.0	140.0	0.0286	Open
P4052	J40_18	J40_19	150.00	150.0	135.0	0.0916	Open
P4053	J40_18	J41_18	150.00	250.0	125.0	0.0966	Open
P4054	J40_19	J40_20	150.00	250.0	125.0	0.1116	Open
P4055	J40_19	J41_19	150.00	200.0	125.0	0.1094	Open
P4056	J40_20	J40_21	150.00	100.0	130.0	0.0388	Open
P4057	J40_20	J41_20	150.00	200.0	140.0	0.0077	Open
P4058	J40_21	J40_22	150.00	450.0	125.0	0.0381	Open
P4059	J40_21	J41_21	150.00	600.0	120.0	0.0352	Open
P4060	J40_22	J40_23	150.00	250.0	125.0	0.0370	Open
P4061	J40_22	J41_22	150.00	200.0	130.0	0.1338	Open
P4062	J40_23	J40_24	150.00	300.0	130.0	0.0611	Open
P4063	J40_23	J41_23	150.00	250.0	135.0	0.0878	Open
P4064	J40_24	J40_25	150.00	200.0	140.0	0.1116	Open
P4065	J40_24	J41_24	150.00	250.0	130.0	0.0113	Open
P4066	J40_25	J40_26	150.00	200.0	140.0	0.0266	Open
P4067	J40_25	J41_25	150.00	100.0	135.0	0.0341	Open
P4068	J40_26	J40_27	150.00	300.0	135.0	0.0378	Open
P4069	J40_26	J41_26	150.00	100.0	140.0	0.1129	Open
P4070	J40_27	J40_28	150.00	100.0	130.0	0.1131	Open
P4071	J40_27	J41_27	150.00	300.0	130.0	0.0113	Open
P4072	J40_28	J40_29	150.00	150.0	135.0	0.1122	Open
P4073	J40_28	J41_28	150.00	250.0	130.0	0.0505	Open
P4074	J40_29	J40_30	150.00	300.0	135.0	0.0708	Open
P4075	J40_29	J41_29	150.00	100.0	140.0	0.0856	Open
P4076	J40_30	J40_31	150.00	100.0	130.0	0.0032	Open
P4077	J40_30	J41_30	150.00	250.0	125.0	0.1128	Open
P4078	J40_31	J40_32	150.00	400.0	120.0	0.0232	Open
P4079	J40_31	J41_31	150.00	400.0	130.0	0.0172	Open
P4080	J40_32	J40_33	150.00	300.0	135.0	0.0899	Open
P4081	J40_32	J41_32	150.00	100.0	130.0	0.1179	Open
P4082	J40_33	J40_34	150.00	150.0	140.0	0.1128	Open
P4083	J40_33	J41_33	150.00	250.0	140.0	0.0613	Open
P4084	J40_34	J40_35	150.00	100.0	130.0	0.1430	Open
P4085	J40_34	J41_34	150.00	300.0	125.0	0.0499	Open
P4086	J40_35	J40_36	150.00	200.0	125.0	0.1249	Open
P4087	J40_35	J41_35	150.00	250.0	135.0	0.0478	Open
P4088	J40_36	J40_37	150.00	200.0	130.0	0.0935	Open
P4089	J40_36	J41_36	150.00	150.0	140.0	0.0026	Open
P4090	J40_37	J40_38	150.00	300.0	140.0	0.0011	Open
P4091	J40_37	J41_37	150.00	200.0	140.0	0.0516	Open
P4092	J40_38	J40_39	150.00	150.0	130.0	0.0552	Open
P4093	J40_38	J41_38	150.00	200.0	130.0	0.0944	Open
P4094	J40_39	J40_40	150.00	200.0	140.0	0.1032	Open
P4095	J40_39	J41_39	150.00	100.0	140.0	0.0253	Open
P4096	J40_40	J40_41	150.00	150.0	140.0	0.0705	Open
P4097	J40_40	J41_40	150.00	200.0	140.0	0.0634	Open
P4098	J40_41	J40_42	150.00	300.0	120.0	0.0375	Open
P4099	J40_41	J41_41	150.00	300.0	125.0	0.0061	Open
P4100	J40_42	J40_43	150.00	250.0	125.0	0.0038	Open
P4101	J40_42	J41_42	150.00	150.0	125.0	0.1112	Open
P4102	J40_43	J40_44	150.00	200.0	130.0	0.0812	Open
P4103	J40_43	J41_43	150.00	150.0	135.0	0.1054	Open
P4104	J40_44	J40_45	150.00	150.0	140.0	0.0052	Open
P4105	J40_44	J41_44	150.00	100.0	130.0	0.0516	Open
P4106	J40_45	J40_46	150.00	300.0	135.0	0.0516	Open
P4107	J40_45	J41_45	150.00	200.0	140.0	0.1212	Open
P4108	J40_46	J40_47	150.00	200.0	135.0	0.1188	Open
P4109	J40_46	J41_46	150.00	250.0	140.0	0.0828	Open
P4110	J40_47	J40_48	150.00	200.0	140.0	0.0445	Open
P4111	J40_47	J41_47	150.00	100.0	140.0	0.0194	Open
P4112	J40_48	J40_49	150.00	300.0	125.0	0.1359	Open
P4113	J40_48	J41_48	150.00	100.0	125.0	0.1145	Open
P4114	J40_49	J40_50	150.00	300.0	130.0	0.0133	Open
P4115	J40_49	J41_49	150.00	200.0	125.0	0.1229	Open
P4116	J40_50	J40_51	150.00	300.0	140.0	0.0064	Open
P4117	J40_50	J41_50	150.00	100.0	135.0	0.0542	Open
P4118	J40_51	J40_52	150.00	600.0	130.0	0.0261	Open
P4119	J40_51	J41_51	150.00	300.0	130.0	0.0364	Open
P4120	J40_52	J41_52	150.00	250.0	130.0	0.0133	Open
P4121	J41_1	J41_2	150.00	600.0	130.0	0.0496	Open
P4122	J41_1	J42_1	150.00	450.0	120.0	0.0334	Open
P4123	J41_2	J41_3	150.00	300.0	125.0	0.0078	Open
P4124	J41_2	J42_2	150.00	300.0	130.0	0.0434	Open
P4125	J41_3	J41_4	150.00	450.0	130.0	0.0062	Open
P4126	J41_3	J42_3	150.00	300.0	120.0	0.0233	Open
P4127	J41_4	J41_5	150.00	400.0	125.0	0.0333	Open
P4128	J41_4	J42_4	150.00	350.0	120.0	0.0348	Open
P4129	J41_5	J41_6	150.00	450.0	120.0	0.0387	Open
P4130	J41_5	J42_5	150.00	400.0	120.0	0.0116	Open
P4131	J41_6	J41_7	150.00	500.0	130.0	0.0141	Open
P4132	J41_6	J42_6	150.00	600.0	125.0	0.0089	Open
P4133	J41_7	J41_8	150.00	500.0	125.0	0.0089	Open
P4134	J41_7	J42_7	150.00	600.0	125.0	0.0206	Open
P4135	J41_8	J41_9	150.00	400.0	130.0	0.0357	Open
P4136	J41_8	J42_8	150.00	350.0	130.0	0.0215	Open
P4137	J41_9	J41_10	150.00	600.0	120.0	0.0217	Open
P4138	J41_9	J42_9	150.00	400.0	125.0	0.0347	Open
P4139	J41_10	J41_11	150.00	500.0	130.0	0.0243	Open
P4140	J41_10	J42_10	150.00	300.0	125.0	0.0096	Open
P4141	J41_11	J41_12	150.00	600.0	125.0	0.0472	Open
P4142	J41_11	J42_11	150.00	300.0	125.0	0.0253	Open
P4143	J41_12	J41_13	150.00	300.0	125.0	0.0138	Open
P4144	J41_12	J42_12	150.00	300.0	130.0	0.0231	Open
P4145	J41_13	J41_14	150.00	450.0	125.0	0.0300	Open
P4146	J41_13	J42_13	150.00	350.0	120.0	0.0185	Open
P4147	J41_14	J41_15	150.00	500.0	120.0	0.0364	Open
P4148	J41_14	J42_14	150.00	450.0	125.0	0.0035	Open
P4149	J41_15	J41_16	150.00	300.0	125.0	0.0487	Open
P4150	J41_15	J42_15	150.00	400.0	125.0	0.0463	Open
P4151	J41_16	J41_17	150.00	500.0	120.0	0.0347	Open
P4152	J41_16	J42_16	150.00	600.0	125.0	0.0376	Open
P4153	J41_17	J41_18	150.00	300.0	130.0	0.0163	Open
P4154	J41_17	J42_17	150.00	450.0	130.0	0.0413	Open
P4155	J41_18	J41_19	150.00	300.0	130.0	0.0077	Open
P4156	J41_18	J42_18	150.00	450.0	125.0	0.0495	Open
P4157	J41_19	J41_20	150.00	400.0	125.0	0.0372	Open
P4158	J41_19	J42_19	150.00	300.0	125.0	0.0100	Open
P4159	J41_20	J41_21	150.00	350.0	120.0	0.0056	Open
P4160	J41_20	J42_20	150.00	500.0	120.0	0.0369	Open
P4161	J41_21	J41_22	150.00	500.0	130.0	0.0091	Open
P4162	J41_21	J42_21	150.00	300.0	130.0	0.0427	Open
P4163	J41_22	J41_23	150.00	350.0	130.0	0.0208	Open
P4164	J41_22	J42_22	150.00	350.0	120.0	0.0412	Open
P4165	J41_23	J41_24	150.00	500.0	120.0	0.0126	Open
P4166	J41_23	J42_23	150.00	300.0	125.0	0.0003	Open
P4167	J41_24	J41_25	150.00	300.0	120.0	0.0270	Open
P4168	J41_24	J42_24	150.00	600.0	120.0	0.0421	Open
P4169	J41_25	J41_26	150.00	450.0	130.0	0.0250	Open
P4170	J41_25	J42_25	150.00	350.0	130.0	0.0064	Open
P4171	J41_26	J41_27	150.00	600.0	130.0	0.0308	Open
P4172	J41_26	J42_26	150.00	500.0	130.0	0.0070	Open
P4173	J41_27	J41_28	150.00	600.0	125.0	0.0496	Open
P4174	J41_27	J42_27	150.00	300.0	120.0	0.0145	Open
P4175	J41_28	J41_29	150.00	600.0	125.0	0.0017	Open
P4176	J41_28	J42_28	150.00	400.0	125.0	0.0458	Open
P4177	J41_29	J41_30	150.00	400.0	125.0	0.0430	Open
P4178	J41_29	J42_29	150.00	300.0	120.0	0.0188	Open
P4179	J41_30	J41_31	150.00	350.0	125.0	0.0242	Open
P4180	J41_30	J42_30	150.00	300.0	120.0	0.0413	Open
P4181	J41_31	J41_32	150.00	500.0	130.0	0.0288	Open
P4182	J41_31	J42_31	150.00	500.0	120.0	0.0124	Open
P4183	J41_32	J41_33	150.00	500.0	125.0	0.0178	Open
P4184	J41_32	J42_32	150.00	450.0	120.0	0.0075	Open
P4185	J41_33	J41_34	150.00	300.0	130.0	0.0255	Open
P4186	J41_33	J42_33	150.00	350.0	130.0	0.0406	Open
P4187	J41_34	J41_35	150.00	300.0	125.0	0.0348	Open
P4188	J41_34	J42_34	150.00	450.0	125.0	0.0328	Open
P4189	J41_35	J41_36	150.00	350.0	120.0	0.0133	Open
P4190	J41_35	J42_35	150.00	400.0	125.0	0.0197	Open
P4191	J41_36	J41_37	150.00	350.0	130.0	0.0292	Open
P4192	J41_36	J42_36	150.00	450.0	125.0	0.0017	Open
P4193	J41_37	J41_38	150.00	350.0	120.0	0.0292	Open
P4194	J41_37	J42_37	150.00	600.0	120.0	0.0085	Open
P4195	J41_38	J41_39	150.00	300.0	125.0	0.0393	Open
P4196	J41_38	J42_38	150.00	350.0	120.0	0.0432	Open
P4197	J41_39	J41_40	150.00	450.0	120.0	0.0062	Open
P4198	J41_39	J42_39	150.00	450.0	130.0	0.0235	Open
P4199	J41_40	J41_41	150.00	500.0	125.0	0.0279	Open
P4200	J41_40	J42_40	150.00	350.0	120.0	0.0141	Open
P4201	J41_41	J41_42	150.00	400.0	125.0	0.0348	Open
P4202	J41_41	J42_41	150.00	500.0	120.0	0.0371	Open
P4203	J41_42	J41_43	150.00	500.0	130.0	0.0009	Open
P4204	J41_42	J42_42	150.00	300.0	120.0	0.0293	Open
P4205	J41_43	J41_44	150.00	500.0	120.0	0.0019	Open
P4206	J41_43	J42_43	150.00	300.0	125.0	0.0012	Open
P4207	J41_44	J41_45	150.00	350.0	130.0	0.0223	Open
P4208	J41_44	J42_44	150.00	500.0	130.0	0.0301	Open
P4209	J41_45	J41_46	150.00	450.0	120.0	0.0333	Open
P4210	J41_45	J42_45	150.00	400.0	125.0	0.0076	Open
P4211	J41_46	J41_47	150.00	400.0	130.0	0.0390	Open
P4212	J41_46	J42_46	150.00	350.0	130.0	0.0343	Open
P4213	J41_47	J41_48	150.00	450.0	120.0	0.0435	Open
P4214	J41_47	J42_47	150.00	600.0	125.0	0.0302	Open
P4215	J41_48	J41_49	150.00	300.0	130.0	0.0468	Open
P4216	J41_48	J42_48	150.00	600.0	120.0	0.0110	Open
P4217	J41_49	J41_50	150.00	300.0	120.0	0.0354	Open
P4218	J41_49	J42_49	150.00	350.0	120.0	0.0416	Open
P4219	J41_50	J41_51	150.00	450.0	130.0	0.0414	Open
P4220	J41_50	J42_50	150.00	500.0	125.0	0.0261	Open
P4221	J41_51	J41_52	150.00	500.0	120.0	0.0320	Open
P4222	J41_51	J42_51	150.00	500.0	120.0	0.0356	Open
P4223	J41_52	J42_52	150.00	600.0	120.0	0.0197	Open
P4224	J42_1	J42_2	150.00	450.0	125.0	0.0094	Open
P4225	J42_1	J43_1	150.00	500.0	125.0	0.0116	Open
P4226	J42_2	J42_3	150.00	200.0	140.0	0.0724	Open
P4227	J42_2	J43_2	150.00	300.0	140.0	0.1120	Open
P4228	J42_3	J42_4	150.00	200.0	130.0	0.0481	Open
P4229	J42_3	J43_3	150.00	300.0	130.0	0.0326	Open
P4230	J42_4	J42_5	150.00	100.0	140.0	0.1329	Open
P4231	J42_4	J43_4	150.00	200.0	130.0	0.0652	Open
P4232	J42_5	J42_6	150.00	150.0	140.0	0.0281	Open
P4233	J42_5	J43_5	150.00	150.0	130.0	0.0909	Open
P4234	J42_6	J42_7	150.00	100.0	140.0	0.0343	Open
P4235	J42_6	J43_6	150.00	100.0	140.0	0.1025	Open
P4236	J42_7	J42_8	150.00	150.0	140.0	0.0001	Open
P4237	J42_7	J43_7	150.00	150.0	125.0	0.0499	Open
P4238	J42_8	J42_9	150.00	300.0	130.0	0.1243	Open
P4239	J42_8	J43_8	150.00	300.0	135.0	0.0889	Open
P4240	J42_9	J42_10	150.00	100.0	140.0	0.0444	Open
P4241	J42_9	J43_9	150.00	150.0	125.0	0.0032	Open
P4242	J42_10	J42_11	150.00	150.0	130.0	0.1354	Open
P4243	J42_10	J43_10	150.00	200.0	135.0	0.1087	Open
P4244	J42_11	J42_12	150.00	500.0	120.0	0.0322	Open
P4245	J42_11	J43_11	150.00	350.0	120.0	0.0219	Open
P4246	J42_12	J42_13	150.00	250.0	140.0	0.0936	Open
P4247	J42_12	J43_12	150.00	100.0	125.0	0.0316	Open
P4248	J42_13	J42_14	150.00	200.0	130.0	0.0793	Open
P4249	J42_13	J43_13	150.00	300.0	135.0	0.0853	Open
P4250	J42_14	J42_15	150.00	100.0	135.0	0.0041	Open
P4251	J42_14	J43_14	150.00	150.0	140.0	0.0263	Open
P4252	J42_15	J42_16	150.00	100.0	125.0	0.0510	Open
P4253	J42_15	J43_15	150.00	300.0	140.0	0.0458	Open
P4254	J42_16	J42_17	150.00	100.0	125.0	0.0624	Open
P4255	J42_16	J43_16	150.00	250.0	130.0	0.0282	Open
P4256	J42_17	J42_18	150.00	200.0	125.0	0.0437	Open
P4257	J42_17	J43_17	150.00	300.0	125.0	0.1209	Open
P4258	J42_18	J42_19	150.00	300.0	130.0	0.1257	Open
P4259	J42_18	J43_18	150.00	300.0	130.0	0.0268	Open
P4260	J42_19	J42_20	150.00	200.0	130.0	0.1371	Open
P4261	J42_19	J43_19	150.00	100.0	135.0	0.1293	Open
P4262	J42_20	J42_21	150.00	200.0	130.0	0.0590	Open
P4263	J42_20	J43_20	150.00	300.0	130.0	0.0308	Open
P4264	J42_21	J42_22	150.00	600.0	125.0	0.0351	Open
P4265	J42_21	J43_21	150.00	300.0	125.0	0.0237	Open
P4266	J42_22	J42_23	150.00	200.0	125.0	0.0158	Open
P4267	J42_22	J43_22	150.00	150.0	140.0	0.0487	Open
P4268	J42_23	J42_24	150.00	150.0	140.0	0.1201	Open
P4269	J42_23	J43_23	150.00	200.0	135.0	0.0079	Open
P4270	J42_24	J42_25	150.00	200.0	140.0	0.1310	Open
P4271	J42_24	J43_24	150.00	100.0	130.0	0.0151	Open
P4272	J42_25	J42_26	150.00	300.0	140.0	0.0199	Open
P4273	J42_25	J43_25	150.00	200.0	125.0	0.0762	Open
P4274	J42_26	J42_27	150.00	150.0	125.0	0.1040	Open
P4275	J42_26	J43_26	150.00	200.0	135.0	0.1402	Open
P4276	J42_27	J42_28	150.00	300.0	135.0	0.0947	Open
P4277	J42_27	J43_27	150.00	200.0	140.0	0.1257	Open
P4278	J42_28	J42_29	150.00	200.0	135.0	0.1148	Open
P4279	J42_28	J43_28	150.00	150.0	125.0	0.1261	Open
P4280	J42_29	J42_30	150.00	200.0	130.0	0.0808	Open
P4281	J42_29	J43_29	150.00	150.0	135.0	0.0355	Open
P4282	J42_30	J42_31	150.00	200.0	125.0	0.0465	Open
P4283	J42_30	J43_30	150.00	150.0	125.0	0.0868	Open
P4284	J42_31	J42_32	150.00	300.0	130.0	0.0078	Open
P4285	J42_31	J43_31	150.00	450.0	130.0	0.0465	Open
P4286	J42_32	J42_33	150.00	200.0	140.0	0.0682	Open
P4287	J42_32	J43_32	150.00	250.0	135.0	0.0310	Open
P4288	J42_33	J42_34	150.00	150.0	140.0	0.1118	Open
P4289	J42_33	J43_33	150.00	250.0	140.0	0.0627	Open
P4290	J42_34	J42_35	150.00	250.0	140.0	0.1362	Open
P4291	J42_34	J43_34	150.00	250.0	130.0	0.1012	Open
P4292	J42_35	J42_36	150.00	200.0	140.0	0.0316	Open
P4293	J42_35	J43_35	150.00	150.0	135.0	0.1065	Open
P4294	J42_36	J42_37	150.00	200.0	125.0	0.1415	Open
P4295	J42_36	J43_36	150.00	150.0	135.0	0.1284	Open
P4296	J42_37	J42_38	150.00	250.0	130.0	0.0568	Open
P4297	J42_37	J43_37	150.00	150.0	135.0	0.0099	Open
P4298	J42_38	J42_39	150.00	150.0	140.0	0.0617	Open
P4299	J42_38	J43_38	150.00	100.0	135.0	0.1081	Open
P4300	J42_39	J42_40	150.00	200.0	125.0	0.1214	Open
P4301	J42_39	J43_39	150.00	300.0	130.0	0.0244	Open
P4302	J42_40	J42_41	150.00	200.0	130.0	0.0944	Open
P4303	J42_40	J43_40	150.00	250.0	140.0	0.0078	Open
P4304	J42_41	J42_42	150.00	400.0	130.0	0.0221	Open
P4305	J42_41	J43_41	150.00	500.0	120.0	0.0268	Open
P4306	J42_42	J42_43	150.00	200.0	130.0	0.1175	Open
P4307	J42_42	J43_42	150.00	250.0	135.0	0.1345	Open
P4308	J42_43	J42_44	150.00	250.0	125.0	0.0925	Open
P4309	J42_43	J43_43	150.00	250.0	140.0	0.1218	Open
P4310	J42_44	J42_45	150.00	100.0	140.0	0.0823	Open
P4311	J42_44	J43_44	150.00	200.0	135.0	0.0352	Open
P4312	J42_45	J42_46	150.00	250.0	135.0	0.0270	Open
P4313	J42_45	J43_45	150.00	300.0	140.0	0.0525	Open
P4314	J42_46	J42_47	150.00	300.0	140.0	0.0470	Open
P4315	J42_46	J43_46	150.00	100.0	130.0	0.1463	Open
P4316	J42_47	J42_48	150.00	300.0	135.0	0.1183	Open
P4317	J42_47	J43_47	150.00	150.0	140.0	0.0879	Open
P4318	J42_48	J42_49	150.00	200.0	140.0	0.1240	Open
P4319	J42_48	J43_48	150.00	150.0	130.0	0.1412	Open
P4320	J42_49	J42_50	150.00	150.0	140.0	0.1308	Open
P4321	J42_49	J43_49	150.00	100.0	140.0	0.1026	Open
P4322	J42_50	J42_51	150.00	150.0	130.0	0.0132	Open
P4323	J42_50	J43_50	150.00	200.0	130.0	0.0887	Open
P4324	J42_51	J42_52	150.00	600.0	125.0	0.0377	Open
P4325	J42_51	J43_51	150.00	450.0	120.0	0.0155	Open
P4326	J42_52	J43_52	150.00	200.0	135.0	0.0560	Open
P4327	J43_1	J43_2	150.00	350.0	125.0	0.0212	Open
P4328	J43_1	J44_1	150.00	450.0	130.0	0.0108	Open
P4329	J43_2	J43_3	150.00	250.0	135.0	0.0245	Open
P4330	J43_2	J44_2	150.00	100.0	140.0	0.0645	Open
P4331	J43_3	J43_4	150.00	150.0	135.0	0.1481	Open
P4332	J43_3	J44_3	150.00	100.0	135.0	0.1019	Open
P4333	J43_4	J43_5	150.00	250.0	135.0	0.0628	Open
P4334	J43_4	J44_4	150.00	300.0	130.0	0.0837	Open
P4335	J43_5	J43_6	150.00	300.0	135.0	0.0204	Open
P4336	J43_5	J44_5	150.00	250.0	125.0	0.1194	Open
P4337	J43_6	J43_7	150.00	250.0	140.0	0.1213	Open
P4338	J43_6	J44_6	150.00	250.0	130.0	0.0817	Open
P4339	J43_7	J43_8	150.00	300.0	125.0	0.1255	Open
P4340	J43_7	J44_7	150.00	250.0	140.0	0.1220	Open
P4341	J43_8	J43_9	150.00	100.0	130.0	0.0254	Open
P4342	J43_8	J44_8	150.00	200.0	140.0	0.1111	Open
P4343	J43_9	J43_10	150.00	200.0	135.0	0.1211	Open
P4344	J43_9	J44_9	150.00	200.0	125.0	0.0962	Open
P4345	J43_10	J43_11	150.00	300.0	125.0	0.0676	Open
P4346	J43_10	J44_10	150.00	300.0	140.0	0.0504	Open
P4347	J43_11	J43_12	150.00	600.0	120.0	0.0118	Open
P4348	J43_11	J44_11	150.00	400.0	125.0	0.0133	Open
P4349	J43_12	J43_13	150.00	100.0	130.0	0.0192	Open
P4350	J43_12	J44_12	150.00	250.0	135.0	0.1058	Open
P4351	J43_13	J43_14	150.00	300.0	125.0	0.0112	Open
P4352	J43_13	J44_13	150.00	200.0	140.0	0.0335	Open
P4353	J43_14	J43_15	150.00	200.0	130.0	0.0982	Open
P4354	J43_14	J44_14	150.00	200.0	130.0	0.1042	Open
P4355	J43_15	J43_16	150.00	150.0	130.0	0.0717	Open
P4356	J43_15	J44_15	150.00	300.0	125.0	0.0042	Open
P4357	J43_16	J43_17	150.00	150.0	125.0	0.0009	Open
P4358	J43_16	J44_16	150.00	200.0	125.0	0.1205	Open
P4359	J43_17	J43_18	150.00	200.0	130.0	0.0888	Open
P4360	J43_17	J44_17	150.00	250.0	140.0	0.0258	Open
P4361	J43_18	J43_19	150.00	300.0	130.0	0.0357	Open
P4362	J43_18	J44_18	150.00	200.0	125.0	0.0968	Open
P4363	J43_19	J43_20	150.00	100.0	130.0	0.0582	Open
P4364	J43_19	J44_19	150.00	200.0	125.0	0.1174	Open
P4365	J43_20	J43_21	150.00	100.0	135.0	0.0286	Open
P4366	J43_20	J44_20	150.00	250.0	130.0	0.1151	Open
P4367	J43_21	J43_22	150.00	600.0	130.0	0.0205	Open
P4368	J43_21	J44_21	150.00	300.0	125.0	0.0100	Open
P4369	J43_22	J43_23	150.00	250.0	140.0	0.0967	Open
P4370	J43_22	J44_22	150.00	150.0	140.0	0.0679	Open
P4371	J43_23	J43_24	150.00	200.0	135.0	0.0697	Open
P4372	J43_23	J44_23	150.00	250.0	125.0	0.0459	Open
P4373	J43_24	J43_25	150.00	250.0	135.0	0.0056	Open
P4374	J43_24	J44_24	150.00	150.0	135.0	0.1316	Open
P4375	J43_25	J43_26	150.00	200.0	125.0	0.1265	Open
P4376	J43_25	J44_25	150.00	200.0	135.0	0.1346	Open
P4377	J43_26	J43_27	150.00	100.0	130.0	0.0319	Open
P4378	J43_26	J44_26	150.00	250.0	130.0	0.1440	Open
P4379	J43_27	J43_28	150.00	150.0	125.0	0.0888	Open
P4380	J43_27	J44_27	150.00	200.0	140.0	0.0452	Open
P4381	J43_28	J43_29	150.00	300.0	140.0	0.0869	Open
P4382	J43_28	J44_28	150.00	250.0	135.0	0.0888	Open
P4383	J43_29	J43_30	150.00	250.0	125.0	0.0474	Open
P4384	J43_29	J44_29	150.00	100.0	125.0	0.0356	Open
P4385	J43_30	J43_31	150.00	250.0	125.0	0.0478	Open
P4386	J43_30	J44_30	150.00	150.0	135.0	0.0630	Open
P4387	J43_31	J43_32	150.00	450.0	120.0	0.0435	Open
P4388	J43_31	J44_31	150.00	350.0	120.0	0.0444	Open
P4389	J43_32	J43_33	150.00	250.0	125.0	0.1397	Open
P4390	J43_32	J44_32	150.00	150.0	135.0	0.1367	Open
P4391	J43_33	J43_34	150.00	200.0	140.0	0.0562	Open
P4392	J43_33	J44_33	150.00	200.0	130.0	0.0188	Open
P4393	J43_34	J43_35	150.00	100.0	140.0	0.0081	Open
P4394	J43_34	J44_34	150.00	200.0	135.0	0.1067	Open
P4395	J43_35	J43_36	150.00	200.0	125.0	0.1368	Open
P4396	J43_35	J44_35	150.00	300.0	140.0	0.0193	Open
P4397	J43_36	J43_37	150.00	150.0	140.0	0.0593	Open
P4398	J43_36	J44_36	150.00	250.0	140.0	0.0305	Open
P4399	J43_37	J43_38	150.00	300.0	140.0	0.0696	Open
P4400	J43_37	J44_37	150.00	100.0	140.0	0.0267	Open
P4401	J43_38	J43_39	150.00	100.0	130.0	0.1123	Open
P4402	J43_38	J44_38	150.00	200.0	130.0	0.1420	Open
P4403	J43_39	J43_40	150.00	150.0	130.0	0.0654	Open
P4404	J43_39	J44_39	150.00	150.0	140.0	0.0905	Open
P4405	J43_40	J43_41	150.00	300.0	125.0	0.0868	Open
P4406	J43_40	J44_40	150.00	250.0	135.0	0.0797	Open
P4407	J43_41	J43_42	150.00	400.0	130.0	0.0288	Open
P4408	J43_41	J44_41	150.00	400.0	120.0	0.0153	Open
P4409	J43_42	J43_43	150.00	300.0	130.0	0.1019	Open
P4410	J43_42	J44_42	150.00	250.0	135.0	0.0742	Open
P4411	J43_43	J43_44	150.00	200.0	135.0	0.1148	Open
P4412	J43_43	J44_43	150.00	150.0	125.0	0.0666	Open
P4413	J43_44	J43_45	150.00	300.0	130.0	0.0308	Open
P4414	J43_44	J44_44	150.00	200.0	125.0	0.1375	Open
P4415	J43_45	J43_46	150.00	250.0	135.0	0.1375	Open
P4416	J43_45	J44_45	150.00	100.0	135.0	0.0274	Open
P4417	J43_46	J43_47	150.00	200.0	140.0	0.1167	Open
P4418	J43_46	J44_46	150.00	150.0	135.0	0.0703	Open
P4419	J43_47	J43_48	150.00	200.0	135.0	0.0537	Open
P4420	J43_47	J44_47	150.00	300.0	135.0	0.1389	Open
P4421	J43_48	J43_49	150.00	250.0	130.0	0.1255	Open
P4422	J43_48	J44_48	150.00	200.0	125.0	0.0501	Open
P4423	J43_49	J43_50	150.00	150.0	140.0	0.0574	Open
P4424	J43_49	J44_49	150.00	150.0	140.0	0.1228	Open
P4425	J43_50	J43_51	150.00	100.0	125.0	0.1342	Open
P4426	J43_50	J44_50	150.00	300.0	130.0	0.1384	Open
P4427	J43_51	J43_52	150.00	450.0	120.0	0.0216	Open
P4428	J43_51	J44_51	150.00	400.0	130.0	0.0346	Open
P4429	J43_52	J44_52	150.00	300.0	130.0	0.1164	Open
P4430	J44_1	J44_2	150.00	450.0	125.0	0.0384	Open
P4431	J44_1	J45_1	150.00	400.0	125.0	0.0088	Open
P4432	J44_2	J44_3	150.00	100.0	135.0	0.0777	Open
P4433	J44_2	J45_2	150.00	200.0	130.0	0.0049	Open
P4434	J44_3	J44_4	150.00	200.0	130.0	0.1191	Open
P4435	J44_3	J45_3	150.00	150.0	125.0	0.1071	Open
P4436	J44_4	J44_5	150.00	300.0	140.0	0.0720	Open
P4437	J44_4	J45_4	150.00	100.0	125.0	0.0747	Open
P4438	J44_5	J44_6	150.00	200.0	130.0	0.0194	Open
P4439	J44_5	J45_5	150.00	100.0	125.0	0.0329	Open
P4440	J44_6	J44_7	150.00	300.0	125.0	0.0260	Open
P4441	J44_6	J45_6	150.00	150.0	140.0	0.1063	Open
P4442	J44_7	J44_8	150.00	100.0	125.0	0.1417	Open
P4443	J44_7	J45_7	150.00	300.0	135.0	0.0607	Open
P4444	J44_8	J44_9	150.00	200.0	140.0	0.1189	Open
P4445	J44_8	J45_8	150.00	200.0	125.0	0.1367	Open
P4446	J44_9	J44_10	150.00	150.0	140.0	0.1259	Open
P4447	J44_9	J45_9	150.00	100.0	135.0	0.1427	Open
P4448	J44_10	J44_11	150.00	100.0	125.0	0.1275	Open
P4449	J44_10	J45_10	150.00	200.0	125.0	0.0020	Open
P4450	J44_11	J44_12	150.00	350.0	125.0	0.0152	Open
P4451	J44_11	J45_11	150.00	450.0	125.0	0.0243	Open
P4452	J44_12	J44_13	150.00	150.0	125.0	0.0747	Open
P4453	J44_12	J45_12	150.00	300.0	135.0	0.0666	Open
P4454	J44_13	J44_14	150.00	250.0	125.0	0.1248	Open
P4455	J44_13	J45_13	150.00	200.0	140.0	0.1493	Open
P4456	J44_14	J44_15	150.00	150.0	135.0	0.0511	Open
P4457	J44_14	J45_14	150.00	300.0	125.0	0.0829	Open
P4458	J44_15	J44_16	150.00	150.0	140.0	0.0855	Open
P4459	J44_15	J45_15	150.00	150.0	125.0	0.0646	Open
P4460	J44_16	J44_17	150.00	150.0	125.0	0.0623	Open
P4461	J44_16	J45_16	150.00	200.0	130.0	0.0029	Open
P4462	J44_17	J44_18	150.00	200.0	135.0	0.0235	Open
P4463	J44_17	J45_17	150.00	300.0	130.0	0.1121	Open
P4464	J44_18	J44_19	150.00	250.0	125.0	0.0934	Open
P4465	J44_18	J45_18	150.00	250.0	135.0	0.1226	Open
P4466	J44_19	J44_20	150.00	100.0	125.0	0.0730	Open
P4467	J44_19	J45_19	150.00	100.0	135.0	0.1290	Open
P4468	J44_20	J44_21	150.00	250.0	130.0	0.0694	Open
P4469	J44_20	J45_20	150.00	250.0	130.0	0.1120	Open
P4470	J44_21	J44_22	150.00	350.0	125.0	0.0408	Open
P4471	J44_21	J45_21	150.00	600.0	125.0	0.0022	Open
P4472	J44_22	J44_23	150.00	300.0	125.0	0.0703	Open
P4473	J44_22	J45_22	150.00	200.0	125.0	0.0613	Open
P4474	J44_23	J44_24	150.00	300.0	125.0	0.0665	Open
P4475	J44_23	J45_23	150.00	300.0	125.0	0.0104	Open
P4476	J44_24	J44_25	150.00	100.0	125.0	0.0658	Open
P4477	J44_24	J45_24	150.00	150.0	140.0	0.0248	Open
P4478	J44_25	J44_26	150.00	200.0	130.0	0.1332	Open
P4479	J44_25	J45_25	150.00	300.0	125.0	0.1125	Open
P4480	J44_26	J44_27	150.00	250.0	130.0	0.0031	Open
P4481	J44_26	J45_26	150.00	100.0	135.0	0.1439	Open
P4482	J44_27	J44_28	150.00	150.0	140.0	0.1458	Open
P4483	J44_27	J45_27	150.00	100.0	140.0	0.0110	Open
P4484	J44_28	J44_29	150.00	100.0	130.0	0.1394	Open
P4485	J44_28	J45_28	150.00	250.0	130.0	0.0456	Open
P4486	J44_29	J44_30	150.00	200.0	130.0	0.1210	Open
P4487	J44_29	J45_29	150.00	250.0	135.0	0.1412	Open
P4488	J44_30	J44_31	150.00	150.0	135.0	0.0016	Open
P4489	J44_30	J45_30	150.00	250.0	125.0	0.0637	Open
P4490	J44_31	J44_32	150.00	400.0	130.0	0.0367	Open
P4491	J44_31	J45_31	150.00	500.0	120.0	0.0481	Open
P4492	J44_32	J44_33	150.00	300.0	140.0	0.0069	Open
P4493	J44_32	J45_32	150.00	150.0	140.0	0.0440	Open
P4494	J44_33	J44_34	150.00	100.0	135.0	0.0370	Open
P4495	J44_33	J45_33	150.00	150.0	125.0	0.0058	Open
P4496	J44_34	J44_35	150.00	200.0	125.0	0.0255	Open
P4497	J44_34	J45_34	150.00	300.0	135.0	0.1487	Open
P4498	J44_35	J44_36	150.00	100.0	130.0	0.0634	Open
P4499	J44_35	J45_35	150.00	300.0	140.0	0.0735	Open
P4500	J44_36	J44_37	150.00	250.0	125.0	0.0842	Open
P4501	J44_36	J45_36	150.00	150.0	125.0	0.0042	Open
P4502	J44_37	J44_38	150.00	100.0	135.0	0.0407	Open
P4503	J44_37	J45_37	150.00	250.0	125.0	0.0969	Open
P4504	J44_38	J44_39	150.00	250.0	125.0	0.1396	Open
P4505	J44_38	J45_38	150.00	250.0	135.0	0.1410	Open
P4506	J44_39	J44_40	150.00	300.0	135.0	0.0550	Open
P4507	J44_39	J45_39	150.00	150.0	125.0	0.1021	Open
P4508	J44_40	J44_41	150.00	200.0	135.0	0.0428	Open
P4509	J44_40	J45_40	150.00	200.0	140.0	0.0259	Open
P4510	J44_41	J44_42	150.00	300.0	125.0	0.0495	Open
P4511	J44_41	J45_41	150.00	400.0	125.0	0.0177	Open
P4512	J44_42	J44_43	150.00	100.0	130.0	0.0300	Open
P4513	J44_42	J45_42	150.00	300.0	125.0	0.1204	Open
P4514	J44_43	J44_44	150.00	150.0	135.0	0.0751	Open
P4515	J44_43	J45_43	150.00	100.0	125.0	0.0857	Open
P4516	J44_44	J44_45	150.00	200.0	130.0	0.1467	Open
P4517	J44_44	J45_44	150.00	250.0	125.0	0.0555	Open
P4518	J44_45	J44_46	150.00	150.0	125.0	0.0472	Open
P4519	J44_45	J45_45	150.00	200.0	135.0	0.1317	Open
P4520	J44_46	J44_47	150.00	250.0	135.0	0.1045	Open
P4521	J44_46	J45_46	150.00	100.0	130.0	0.0362	Open
P4522	J44_47	J44_48	150.00	100.0	125.0	0.0125	Open
P4523	J44_47	J45_47	150.00	300.0	140.0	0.0674	Open
P4524	J44_48	J44_49	150.00	250.0	135.0	0.0543	Open
P4525	J44_48	J45_48	150.00	300.0	135.0	0.0945	Open
P4526	J44_49	J44_50	150.00	200.0	130.0	0.1237	Open
P4527	J44_49	J45_49	150.00	200.0	140.0	0.1063	Open
P4528	J44_50	J44_51	150.00	100.0	130.0	0.1146	Open
P4529	J44_50	J45_50	150.00	300.0	140.0	0.1486	Open
P4530	J44_51	J44_52	150.00	350.0	130.0	0.0213	Open
P4531	J44_51	J45_51	150.00	600.0	120.0	0.0213	Open
P4532	J44_52	J45_52	150.00	100.0	130.0	0.1426	Open
P4533	J45_1	J45_2	150.00	500.0	125.0	0.0065	Open
P4534	J45_1	J46_1	150.00	600.0	125.0	0.0143	Open
P4535	J45_2	J45_3	150.00	200.0	135.0	0.1251	Open
P4536	J45_2	J46_2	150.00	250.0	125.0	0.1207	Open
P4537	J45_3	J45_4	150.00	100.0	130.0	0.1121	Open
P4538	J45_3	J46_3	150.00	100.0	130.0	0.0830	Open
P4539	J45_4	J45_5	150.00	200.0	125.0	0.0722	Open
P4540	J45_4	J46_4	150.00	150.0	135.0	0.1414	Open
P4541	J45_5	J45_6	150.00	200.0	135.0	0.0426	Open
P4542	J45_5	J46_5	150.00	200.0	130.0	0.0169	Open
P4543	J45_6	J45_7	150.00	100.0	130.0	0.0400	Open
P4544	J45_6	J46_6	150.00	250.0	130.0	0.0959	Open
P4545	J45_7	J45_8	150.00	300.0	140.0	0.0435	Open
P4546	J45_7	J46_7	150.00	200.0	140.0	0.1191	Open
P4547	J45_8	J45_9	150.00	250.0	125.0	0.1116	Open
P4548	J45_8	J46_8	150.00	100.0	135.0	0.1151	Open
P4549	J45_9	J45_10	150.00	200.0	125.0	0.0525	Open
P4550	J45_9	J46_9	150.00	150.0	140.0	0.1340	Open
P4551	J45_10	J45_11	150.00	200.0	130.0	0.0750	Open
P4552	J45_10	J46_10	150.00	250.0	125.0	0.0507	Open
P4553	J45_11	J45_12	150.00	350.0	120.0	0.0157	Open
P4554	J45_11	J46_11	150.00	600.0	120.0	0.0436	Open
P4555	J45_12	J45_13	150.00	150.0	135.0	0.0220	Open
P4556	J45_12	J46_12	150.00	250.0	125.0	0.0016	Open
P4557	J45_13	J45_14	150.00	200.0	135.0	0.0731	Open
P4558	J45_13	J46_13	150.00	300.0	130.0	0.0308	Open
P4559	J45_14	J45_15	150.00	200.0	140.0	0.0671	Open
P4560	J45_14	J46_14	150.00	250.0	140.0	0.1165	Open
P4561	J45_15	J45_16	150.00	200.0	125.0	0.0550	Open
P4562	J45_15	J46_15	150.00	200.0	135.0	0.0595	Open
P4563	J45_16	J45_17	150.00	150.0	135.0	0.0729	Open
P4564	J45_16	J46_16	150.00	150.0	125.0	0.0674	Open
P4565	J45_17	J45_18	150.00	250.0	125.0	0.0066	Open
P4566	J45_17	J46_17	150.00	100.0	125.0	0.0868	Open
P4567	J45_18	J45_19	150.00	100.0	130.0	0.1097	Open
P4568	J45_18	J46_18	150.00	100.0	125.0	0.0211	Open
P4569	J45_19	J45_20	150.00	200.0	125.0	0.0956	Open
P4570	J45_19	J46_19	150.00	100.0	135.0	0.1080	Open
P4571	J45_20	J45_21	150.00	250.0	125.0	0.0178	Open
P4572	J45_20	J46_20	150.00	200.0	130.0	0.0638	Open
P4573	J45_21	J45_22	150.00	350.0	125.0	0.0006	Open
P4574	J45_21	J46_21	150.00	300.0	130.0	0.0274	Open
P4575	J45_22	J45_23	150.00	250.0	135.0	0.1116	Open
P4576	J45_22	J46_22	150.00	200.0	125.0	0.1240	Open
P4577	J45_23	J45_24	150.00	150.0	135.0	0.0482	Open
P4578	J45_23	J46_23	150.00	100.0	125.0	0.1274	Open
P4579	J45_24	J45_25	150.00	250.0	125.0	0.0308	Open
P4580	J45_24	J46_24	150.00	100.0	130.0	0.0498	Open
P4581	J45_25	J45_26	150.00	200.0	135.0	0.1015	Open
P4582	J45_25	J46_25	150.00	200.0	125.0	0.0392	Open
P4583	J45_26	J45_27	150.00	300.0	135.0	0.0631	Open
P4584	J45_26	J46_26	150.00	300.0	130.0	0.0396	Open
P4585	J45_27	J45_28	150.00	100.0	125.0	0.0403	Open
P4586	J45_27	J46_27	150.00	150.0	130.0	0.1419	Open
P4587	J45_28	J45_29	150.00	100.0	125.0	0.1062	Open
P4588	J45_28	J46_28	150.00	250.0	135.0	0.1336	Open
P4589	J45_29	J45_30	150.00	250.0	135.0	0.0987	Open
P4590	J45_29	J46_29	150.00	100.0	135.0	0.0223	Open
P4591	J45_30	J45_31	150.00	150.0	135.0	0.0768	Open
P4592	J45_30	J46_30	150.00	100.0	130.0	0.0354	Open
P4593	J45_31	J45_32	150.00	300.0	120.0	0.0463	Open
P4594	J45_31	J46_31	150.00	500.0	120.0	0.0261	Open
P4595	J45_32	J45_33	150.00	100.0	125.0	0.1474	Open
P4596	J45_32	J46_32	150.00	150.0	125.0	0.0133	Open
P4597	J45_33	J45_34	150.00	150.0	130.0	0.0346	Open
P4598	J45_33	J46_33	150.00	200.0	130.0	0.1417	Open
P4599	J45_34	J45_35	150.00	200.0	135.0	0.0938	Open
P4600	J45_34	J46_34	150.00	150.0	130.0	0.0085	Open
P4601	J45_35	J45_36	150.00	250.0	135.0	0.0140	Open
P4602	J45_35	J46_35	150.00	250.0	130.0	0.0298	Open
P4603	J45_36	J45_37	150.00	300.0	130.0	0.0429	Open
P4604	J45_36	J46_36	150.00	200.0	125.0	0.0784	Open
P4605	J45_37	J45_38	150.00	100.0	135.0	0.0588	Open
P4606	J45_37	J46_37	150.00	100.0	125.0	0.0528	Open
P4607	J45_38	J45_39	150.00	150.0	140.0	0.0205	Open
P4608	J45_38	J46_38	150.00	250.0	130.0	0.0794	Open
P4609	J45_39	J45_40	150.00	300.0	140.0	0.1447	Open
P4610	J45_39	J46_39	150.00	150.0	140.0	0.0992	Open
P4611	J45_40	J45_41	150.00	200.0	130.0	0.0156	Open
P4612	J45_40	J46_40	150.00	200.0	135.0	0.1431	Open
P4613	J45_41	J45_42	150.00	300.0	130.0	0.0453	Open
P4614	J45_41	J46_41	150.00	350.0	130.0	0.0128	Open
P4615	J45_42	J45_43	150.00	250.0	140.0	0.0151	Open
P4616	J45_42	J46_42	150.00	300.0	130.0	0.0266	Open
P4617	J45_43	J45_44	150.00	150.0	125.0	0.1150	Open
P4618	J45_43	J46_43	150.00	200.0	135.0	0.1113	Open
P4619	J45_44	J45_45	150.00	250.0	125.0	0.1363	Open
P4620	J45_44	J46_44	150.00	300.0	130.0	0.1395	Open
P4621	J45_45	J45_46	150.00	150.0	140.0	0.0500	Open
P4622	J45_45	J46_45	150.00	200.0	130.0	0.0232	Open
P4623	J45_46	J45_47	150.00	100.0	125.0	0.1284	Open
P4624	J45_46	J46_46	150.00	200.0	125.0	0.1284	Open
P4625	J45_47	J45_48	150.00	300.0	140.0	0.0161	Open
P4626	J45_47	J46_47	150.00	300.0	135.0	0.0880	Open
P4627	J45_48	J45_49	150.00	200.0	135.0	0.0799	Open
P4628	J45_48	J46_48	150.00	200.0	130.0	0.0320	Open
P4629	J45_49	J45_50	150.00	300.0	140.0	0.0742	Open
P4630	J45_49	J46_49	150.00	250.0	130.0	0.0201	Open
P4631	J45_50	J45_51	150.00	150.0	140.0	0.0888	Open
P4632	J45_50	J46_50	150.00	100.0	135.0	0.0528	Open
P4633	J45_51	J45_52	150.00	600.0	130.0	0.0239	Open
P4634	J45_51	J46_51	150.00	600.0	130.0	0.0241	Open
P4635	J45_52	J46_52	150.00	150.0	125.0	0.1135	Open
P4636	J46_1	J46_2	150.00	500.0	120.0	0.0207	Open
P4637	J46_1	J47_1	150.00	350.0	120.0	0.0161	Open
P4638	J46_2	J46_3	150.00	300.0	135.0	0.0829	Open
P4639	J46_2	J47_2	150.00	200.0	125.0	0.0908	Open
P4640	J46_3	J46_4	150.00	200.0	140.0	0.0848	Open
P4641	J46_3	J47_3	150.00	100.0	130.0	0.1304	Open
P4642	J46_4	J46_5	150.00	100.0	135.0	0.1433	Open
P4643	J46_4	J47_4	150.00	150.0	125.0	0.0263	Open
P4644	J46_5	J46_6	150.00	250.0	130.0	0.0669	Open
P4645	J46_5	J47_5	150.00	100.0	135.0	0.0870	Open
P4646	J46_6	J46_7	150.00	200.0	140.0	0.0220	Open
P4647	J46_6	J47_6	150.00	300.0	130.0	0.0324	Open
P4648	J46_7	J46_8	150.00	150.0	140.0	0.1275	Open
P4649	J46_7	J47_7	150.00	200.0	140.0	0.1357	Open
P4650	J46_8	J46_9	150.00	150.0	135.0	0.1416	Open
P4651	J46_8	J47_8	150.00	300.0	130.0	0.0594	Open
P4652	J46_9	J46_10	150.00	100.0	140.0	0.0143	Open
P4653	J46_9	J47_9	150.00	150.0	140.0	0.0311	Open
P4654	J46_10	J46_11	150.00	200.0	135.0	0.0841	Open
P4655	J46_10	J47_10	150.00	300.0	125.0	0.1111	Open
P4656	J46_11	J46_12	150.00	600.0	120.0	0.0172	Open
P4657	J46_11	J47_11	150.00	400.0	125.0	0.0098	Open
P4658	J46_12	J46_13	150.00	150.0	135.0	0.0461	Open
P4659	J46_12	J47_12	150.00	200.0	140.0	0.0959	Open
P4660	J46_13	J46_14	150.00	250.0	125.0	0.1119	Open
P4661	J46_13	J47_13	150.00	250.0	125.0	0.1221	Open
P4662	J46_14	J46_15	150.00	150.0	135.0	0.0037	Open
P4663	J46_14	J47_14	150.00	150.0	130.0	0.1350	Open
P4664	J46_15	J46_16	150.00	300.0	135.0	0.0786	Open
P4665	J46_15	J47_15	150.00	200.0	135.0	0.0427	Open
P4666	J46_16	J46_17	150.00	300.0	130.0	0.0409	Open
P4667	J46_16	J47_16	150.00	100.0	135.0	0.0160	Open
P4668	J46_17	J46_18	150.00	250.0	130.0	0.1265	Open
P4669	J46_17	J47_17	150.00	300.0	135.0	0.0164	Open
P4670	J46_18	J46_19	150.00	200.0	140.0	0.0920	Open
P4671	J46_18	J47_18	150.00	300.0	130.0	0.0657	Open
P4672	J46_19	J46_20	150.00	200.0	140.0	0.0072	Open
P4673	J46_19	J47_19	150.00	300.0	125.0	0.1324	Open
P4674	J46_20	J46_21	150.00	150.0	135.0	0.1152	Open
P4675	J46_20	J47_20	150.00	150.0	135.0	0.0142	Open
P4676	J46_21	J46_22	150.00	500.0	130.0	0.0147	Open
P4677	J46_21	J47_21	150.00	300.0	130.0	0.0282	Open
P4678	J46_22	J46_23	150.00	300.0	130.0	0.0956	Open
P4679	J46_22	J47_22	150.00	250.0	135.0	0.0566	Open
P4680	J46_23	J46_24	150.00	200.0	130.0	0.1488	Open
P4681	J46_23	J47_23	150.00	100.0	125.0	0.0492	Open
P4682	J46_24	J46_25	150.00	300.0	130.0	0.1103	Open
P4683	J46_24	J47_24	150.00	100.0	130.0	0.1110	Open
P4684	J46_25	J46_26	150.00	200.0	125.0	0.1357	Open
P4685	J46_25	J47_25	150.00	200.0	135.0	0.0524	Open
P4686	J46_26	J46_27	150.00	100.0	135.0	0.0906	Open
P4687	J46_26	J47_26	150.00	300.0	140.0	0.0732	Open
P4688	J46_27	J46_28	150.00	100.0	130.0	0.0083	Open
P4689	J46_27	J47_27	150.00	250.0	135.0	0.0570	Open
P4690	J46_28	J46_29	150.00	250.0	135.0	0.0009	Open
P4691	J46_28	J47_28	150.00	250.0	140.0	0.1075	Open
P4692	J46_29	J46_30	150.00	100.0	140.0	0.0239	Open
P4693	J46_29	J47_29	150.00	150.0	130.0	0.0795	Open
P4694	J46_30	J46_31	150.00	150.0	140.0	0.1057	Open
P4695	J46_30	J47_30	150.00	150.0	125.0	0.1333	Open
P4696	J46_31	J46_32	150.00	450.0	130.0	0.0201	Open
P4697	J46_31	J47_31	150.00	450.0	125.0	0.0052	Open
P4698	J46_32	J46_33	150.00	200.0	135.0	0.1186	Open
P4699	J46_32	J47_32	150.00	200.0	135.0	0.1187	Open
P4700	J46_33	J46_34	150.00	250.0	135.0	0.0406	Open
P4701	J46_33	J47_33	150.00	300.0	135.0	0.1237	Open
P4702	J46_34	J46_35	150.00	150.0	135.0	0.1388	Open
P4703	J46_34	J47_34	150.00	300.0	135.0	0.0641	Open
P4704	J46_35	J46_36	150.00	300.0	130.0	0.1064	Open
P4705	J46_35	J47_35	150.00	300.0	140.0	0.1155	Open
P4706	J46_36	J46_37	150.00	150.0	140.0	0.0269	Open
P4707	J46_36	J47_36	150.00	300.0	130.0	0.1202	Open
P4708	J46_37	J46_38	150.00	150.0	140.0	0.0200	Open
P4709	J46_37	J47_37	150.00	300.0	140.0	0.0577	Open
P4710	J46_38	J46_39	150.00	150.0	130.0	0.0762	Open
P4711	J46_38	J47_38	150.00	150.0	140.0	0.0805	Open
P4712	J46_39	J46_40	150.00	300.0	135.0	0.1381	Open
P4713	J46_39	J47_39	150.00	250.0	140.0	0.0553	Open
P4714	J46_40	J46_41	150.00	200.0	135.0	0.0079	Open
P4715	J46_40	J47_40	150.00	150.0	140.0	0.0609	Open
P4716	J46_41	J46_42	150.00	600.0	130.0	0.0067	Open
P4717	J46_41	J47_41	150.00	400.0	130.0	0.0361	Open
P4718	J46_42	J46_43	150.00	200.0	135.0	0.1427	Open
P4719	J46_42	J47_42	150.00	250.0	135.0	0.0312	Open
P4720	J46_43	J46_44	150.00	200.0	140.0	0.0327	Open
P4721	J46_43	J47_43	150.00	250.0	130.0	0.1178	Open
P4722	J46_44	J46_45	150.00	300.0	130.0	0.1432	Open
P4723	J46_44	J47_44	150.00	100.0	130.0	0.0279	Open
P4724	J46_45	J46_46	150.00	150.0	135.0	0.0845	Open
P4725	J46_45	J47_45	150.00	100.0	140.0	0.0617	Open
P4726	J46_46	J46_47	150.00	150.0	130.0	0.0527	Open
P4727	J46_46	J47_46	150.00	200.0	140.0	0.1461	Open
P4728	J46_47	J46_48	150.00	150.0	125.0	0.0927	Open
P4729	J46_47	J47_47	150.00	300.0	140.0	0.0507	Open
P4730	J46_48	J46_49	150.00	300.0	130.0	0.0927	Open
P4731	J46_48	J47_48	150.00	100.0	130.0	0.0517	Open
P4732	J46_49	J46_50	150.00	200.0	130.0	0.0997	Open
P4733	J46_49	J47_49	150.00	250.0	125.0	0.0286	Open
P4734	J46_50	J46_51	150.00	300.0	125.0	0.1196	Open
P4735	J46_50	J47_50	150.00	250.0	135.0	0.0276	Open
P4736	J46_51	J46_52	150.00	600.0	130.0	0.0207	Open
P4737	J46_51	J47_51	150.00	600.0	130.0	0.0447	Open
P4738	J46_52	J47_52	150.00	150.0	135.0	0.0551	Open
P4739	J47_1	J47_2	150.00	300.0	125.0	0.0366	Open
P4740	J47_1	J48_1	150.00	350.0	125.0	0.0048	Open
P4741	J47_2	J47_3	150.00	200.0	125.0	0.0553	Open
P4742	J47_2	J48_2	150.00	200.0	130.0	0.0321	Open
P4743	J47_3	J47_4	150.00	250.0	125.0	0.1091	Open
P4744	J47_3	J48_3	150.00	150.0	135.0	0.0899	Open
P4745	J47_4	J47_5	150.00	100.0	125.0	0.0299	Open
P4746	J47_4	J48_4	150.00	200.0	125.0	0.0318	Open
P4747	J47_5	J47_6	150.00	200.0	130.0	0.0588	Open
P4748	J47_5	J48_5	150.00	150.0	125.0	0.0079	Open
P4749	J47_6	J47_7	150.00	200.0	140.0	0.1276	Open
P4750	J47_6	J48_6	150.00	100.0	135.0	0.0661	Open
P4751	J47_7	J47_8	150.00	100.0	135.0	0.0011	Open
P4752	J47_7	J48_7	150.00	200.0	140.0	0.0914	Open
P4753	J47_8	J47_9	150.00	250.0	140.0	0.0316	Open
P4754	J47_8	J48_8	150.00	200.0	130.0	0.0326	Open
P4755	J47_9	J47_10	150.00	100.0	135.0	0.0758	Open
P4756	J47_9	J48_9	150.00	300.0	125.0	0.0483	Open
P4757	J47_10	J47_11	150.00	300.0	130.0	0.0765	Open
P4758	J47_10	J48_10	150.00	250.0	125.0	0.0650	Open
P4759	J47_11	J47_12	150.00	500.0	125.0	0.0054	Open
P4760	J47_11	J48_11	150.00	350.0	130.0	0.0466	Open
P4761	J47_12	J47_13	150.00	300.0	140.0	0.1476	Open
P4762	J47_12	J48_12	150.00	300.0	130.0	0.0626	Open
P4763	J47_13	J47_14	150.00	150.0	125.0	0.0764	Open
P4764	J47_13	J48_13	150.00	200.0	125.0	0.0322	Open
P4765	J47_14	J47_15	150.00	200.0	125.0	0.1366	Open
P4766	J47_14	J48_14	150.00	300.0	140.0	0.1113	Open
P4767	J47_15	J47_16	150.00	150.0	125.0	0.0253	Open
P4768	J47_15	J48_15	150.00	200.0	130.0	0.0211	Open
P4769	J47_16	J47_17	150.00	300.0	125.0	0.0651	Open
P4770	J47_16	J48_16	150.00	150.0	130.0	0.1043	Open
P4771	J47_17	J47_18	150.00	100.0	125.0	0.0839	Open
P4772	J47_17	J48_17	150.00	100.0	135.0	0.0509	Open
P4773	J47_18	J47_19	150.00	250.0	125.0	0.1189	Open
P4774	J47_18	J48_18	150.00	300.0	130.0	0.1250	Open
P4775	J47_19	J47_20	150.00	100.0	140.0	0.1038	Open
P4776	J47_19	J48_19	150.00	250.0	135.0	0.0617	Open
P4777	J47_20	J47_21	150.00	250.0	140.0	0.1150	Open
P4778	J47_20	J48_20	150.00	150.0	140.0	0.0912	Open
P4779	J47_21	J47_22	150.00	400.0	130.0	0.0080	Open
P4780	J47_21	J48_21	150.00	450.0	125.0	0.0390	Open
P4781	J47_22	J47_23	150.00	150.0	140.0	0.0260	Open
P4782	J47_22	J48_22	150.00	200.0	130.0	0.0369	Open
P4783	J47_23	J47_24	150.00	100.0	135.0	0.1393	Open
P4784	J47_23	J48_23	150.00	300.0	135.0	0.1295	Open
P4785	J47_24	J47_25	150.00	250.0	130.0	0.0425	Open
P4786	J47_24	J48_24	150.00	200.0	130.0	0.0565	Open
P4787	J47_25	J47_26	150.00	100.0	140.0	0.1045	Open
P4788	J47_25	J48_25	150.00	100.0	140.0	0.0188	Open
P4789	J47_26	J47_27	150.00	100.0	130.0	0.1396	Open
P4790	J47_26	J48_26	150.00	100.0	125.0	0.1429	Open
P4791	J47_27	J47_28	150.00	200.0	135.0	0.0395	Open
P4792	J47_27	J48_27	150.00	250.0	125.0	0.1385	Open
P4793	J47_28	J47_29	150.00	200.0	130.0	0.1052	Open
P4794	J47_28	J48_28	150.00	300.0	135.0	0.0578	Open
P4795	J47_29	J47_30	150.00	250.0	135.0	0.0994	Open
P4796	J47_29	J48_29	150.00	300.0	140.0	0.0946	Open
P4797	J47_30	J47_31	150.00	250.0	140.0	0.0304	Open
P4798	J47_30	J48_30	150.00	250.0	140.0	0.0879	Open
P4799	J47_31	J47_32	150.00	500.0	125.0	0.0169	Open
P4800	J47_31	J48_31	150.00	300.0	125.0	0.0265	Open
P4801	J47_32	J47_33	150.00	150.0	135.0	0.1398	Open
P4802	J47_32	J48_32	150.00	100.0	135.0	0.1263	Open
P4803	J47_33	J47_34	150.00	100.0	140.0	0.0454	Open
P4804	J47_33	J48_33	150.00	200.0	135.0	0.0415	Open
P4805	J47_34	J47_35	150.00	100.0	130.0	0.1268	Open
P4806	J47_34	J48_34	150.00	100.0	135.0	0.0083	Open
P4807	J47_35	J47_36	150.00	200.0	140.0	0.1499	Open
P4808	J47_35	J48_35	150.00	200.0	135.0	0.0887	Open
P4809	J47_36	J47_37	150.00	300.0	130.0	0.1166	Open
P4810	J47_36	J48_36	150.00	150.0	130.0	0.0780	Open
P4811	J47_37	J47_38	150.00	300.0	140.0	0.0607	Open
P4812	J47_37	J48_37	150.00	200.0	125.0	0.0827	Open
P4813	J47_38	J47_39	150.00	250.0	135.0	0.1405	Open
P4814	J47_38	J48_38	150.00	200.0	135.0	0.1008	Open
P4815	J47_39	J47_40	150.00	200.0	135.0	0.0313	Open
P4816	J47_39	J48_39	150.00	100.0	135.0	0.0886	Open
P4817	J47_40	J47_41	150.00	300.0	130.0	0.0168	Open
P4818	J47_40	J48_40	150.00	150.0	125.0	0.1054	Open
P4819	J47_41	J47_42	150.00	400.0	125.0	0.0028	Open
P4820	J47_41	J48_41	150.00	400.0	130.0	0.0242	Open
P4821	J47_42	J47_43	150.00	250.0	135.0	0.0775	Open
P4822	J47_42	J48_42	150.00	300.0	140.0	0.1163	Open
P4823	J47_43	J47_44	150.00	150.0	140.0	0.1341	Open
P4824	J47_43	J48_43	150.00	200.0	135.0	0.1430	Open
P4825	J47_44	J47_45	150.00	250.0	135.0	0.0238	Open
P4826	J47_44	J48_44	150.00	150.0	140.0	0.0761	Open
P4827	J47_45	J47_46	150.00	300.0	130.0	0.1159	Open
P4828	J47_45	J48_45	150.00	100.0	130.0	0.0034	Open
P4829	J47_46	J47_47	150.00	150.0	135.0	0.0588	Open
P4830	J47_46	J48_46	150.00	300.0	125.0	0.1207	Open
P4831	J47_47	J47_48	150.00	300.0	130.0	0.1355	Open
P4832	J47_47	J48_47	150.00	100.0	130.0	0.1273	Open
P4833	J47_48	J47_49	150.00	100.0	135.0	0.1107	Open
P4834	J47_48	J48_48	150.00	100.0	130.0	0.1248	Open
P4835	J47_49	J47_50	150.00	250.0	135.0	0.0207	Open
P4836	J47_49	J48_49	150.00	300.0	125.0	0.1369	Open
P4837	J47_50	J47_51	150.00	250.0	135.0	0.0125	Open
P4838	J47_50	J48_50	150.00	100.0	135.0	0.1354	Open
P4839	J47_51	J47_52	150.00	450.0	120.0	0.0134	Open
P4840	J47_51	J48_51	150.00	600.0	130.0	0.0214	Open
P4841	J47_52	J48_52	150.00	200.0	125.0	0.0739	Open
P4842	J48_1	J48_2	150.00	400.0	130.0	0.0244	Open
P4843	J48_1	J49_1	150.00	350.0	125.0	0.0078	Open
P4844	J48_2	J48_3	150.00	100.0	130.0	0.0141	Open
P4845	J48_2	J49_2	150.00	100.0	135.0	0.0195	Open
P4846	J48_3	J48_4	150.00	300.0	125.0	0.1160	Open
P4847	J48_3	J49_3	150.00	100.0	125.0	0.1197	Open
P4848	J48_4	J48_5	150.00	200.0	135.0	0.0172	Open
P4849	J48_4	J49_4	150.00	300.0	140.0	0.1269	Open
P4850	J48_5	J48_6	150.00	200.0	125.0	0.0006	Open
P4851	J48_5	J49_5	150.00	100.0	130.0	0.1214	Open
P4852	J48_6	J48_7	150.00	100.0	135.0	0.0748	Open
P4853	J48_6	J49_6	150.00	100.0	125.0	0.1392	Open
P4854	J48_7	J48_8	150.00	200.0	140.0	0.0295	Open
P4855	J48_7	J49_7	150.00	200.0	130.0	0.1203	Open
P4856	J48_8	J48_9	150.00	100.0	135.0	0.0420	Open
P4857	J48_8	J49_8	150.00	300.0	140.0	0.0849	Open
P4858	J48_9	J48_10	150.00	150.0	125.0	0.0948	Open
P4859	J48_9	J49_9	150.00	250.0	130.0	0.0690	Open
P4860	J48_10	J48_11	150.00	250.0	135.0	0.0020	Open
P4861	J48_10	J49_10	150.00	100.0	125.0	0.1424	Open
P4862	J48_11	J48_12	150.00	300.0	125.0	0.0354	Open
P4863	J48_11	J49_11	150.00	500.0	120.0	0.0199	Open
P4864	J48_12	J48_13	150.00	250.0	125.0	0.0314	Open
P4865	J48_12	J49_12	150.00	150.0	130.0	0.0849	Open
P4866	J48_13	J48_14	150.00	150.0	130.0	0.0925	Open
P4867	J48_13	J49_13	150.00	300.0	140.0	0.1135	Open
P4868	J48_14	J48_15	150.00	150.0	130.0	0.0325	Open
P4869	J48_14	J49_14	150.00	250.0	140.0	0.1003	Open
P4870	J48_15	J48_16	150.00	300.0	125.0	0.1007	Open
P4871	J48_15	J49_15	150.00	100.0	135.0	0.0095	Open
P4872	J48_16	J48_17	150.00	100.0	135.0	0.1155	Open
P4873	J48_16	J49_16	150.00	150.0	130.0	0.1216	Open
P4874	J48_17	J48_18	150.00	100.0	135.0	0.0936	Open
P4875	J48_17	J49_17	150.00	150.0	125.0	0.1397	Open
P4876	J48_18	J48_19	150.00	150.0	130.0	0.0476	Open
P4877	J48_18	J49_18	150.00	100.0	125.0	0.1117	Open
P4878	J48_19	J48_20	150.00	100.0	140.0	0.1029	Open
P4879	J48_19	J49_19	150.00	200.0	140.0	0.0420	Open
P4880	J48_20	J48_21	150.00	200.0	140.0	0.1112	Open
P4881	J48_20	J49_20	150.00	200.0	125.0	0.1035	Open
P4882	J48_21	J48_22	150.00	300.0	120.0	0.0343	Open
P4883	J48_21	J49_21	150.00	300.0	130.0	0.0337	Open
P4884	J48_22	J48_23	150.00	300.0	130.0	0.0456	Open
P4885	J48_22	J49_22	150.00	200.0	140.0	0.0943	Open
P4886	J48_23	J48_24	150.00	100.0	135.0	0.1136	Open
P4887	J48_23	J49_23	150.00	300.0	130.0	0.0992	Open
P4888	J48_24	J48_25	150.00	250.0	130.0	0.0077	Open
P4889	J48_24	J49_24	150.00	300.0	125.0	0.0106	Open
P4890	J48_25	J48_26	150.00	150.0	140.0	0.0953	Open
P4891	J48_25	J49_25	150.00	100.0	140.0	0.0004	Open
P4892	J48_26	J48_27	150.00	250.0	135.0	0.1125	Open
P4893	J48_26	J49_26	150.00	250.0	135.0	0.0822	Open
P4894	J48_27	J48_28	150.00	300.0	130.0	0.1096	Open
P4895	J48_27	J49_27	150.00	200.0	140.0	0.0847	Open
P4896	J48_28	J48_29	150.00	200.0	130.0	0.1149	Open
P4897	J48_28	J49_28	150.00	150.0	135.0	0.0026	Open
P4898	J48_29	J48_30	150.00	300.0	135.0	0.1497	Open
P4899	J48_29	J49_29	150.00	100.0	130.0	0.0927	Open
P4900	J48_30	J48_31	150.00	100.0	135.0	0.1181	Open
P4901	J48_30	J49_30	150.00	100.0	140.0	0.0825	Open
P4902	J48_31	J48_32	150.00	300.0	125.0	0.0227	Open
P4903	J48_31	J49_31	150.00	400.0	120.0	0.0174	Open
P4904	J48_32	J48_33	150.00	150.0	130.0	0.0825	Open
P4905	J48_32	J49_32	150.00	250.0	135.0	0.0674	Open
P4906	J48_33	J48_34	150.00	300.0	135.0	0.0408	Open
P4907	J48_33	J49_33	150.00	300.0	135.0	0.1120	Open
P4908	J48_34	J48_35	150.00	300.0	135.0	0.1291	Open
P4909	J48_34	J49_34	150.00	250.0	130.0	0.0858	Open
P4910	J48_35	J48_36	150.00	300.0	125.0	0.0129	Open
P4911	J48_35	J49_35	150.00	250.0	140.0	0.1148	Open
P4912	J48_36	J48_37	150.00	200.0	125.0	0.0975	Open
P4913	J48_36	J49_36	150.00	150.0	130.0	0.1062	Open
P4914	J48_37	J48_38	150.00	100.0	130.0	0.0122	Open
P4915	J48_37	J49_37	150.00	200.0	135.0	0.1231	Open
P4916	J48_38	J48_39	150.00	150.0	140.0	0.0467	Open
P4917	J48_38	J49_38	150.00	200.0	135.0	0.1255	Open
P4918	J48_39	J48_40	150.00	150.0	135.0	0.0108	Open
P4919	J48_39	J49_39	150.00	250.0	125.0	0.0795	Open
P4920	J48_40	J48_41	150.00	300.0	125.0	0.0411	Open
P4921	J48_40	J49_40	150.00	200.0	125.0	0.0380	Open
P4922	J48_41	J48_42	150.00	300.0	125.0	0.0244	Open
P4923	J48_41	J49_41	150.00	300.0	120.0	0.0018	Open
P4924	J48_42	J48_43	150.00	200.0	140.0	0.0746	Open
P4925	J48_42	J49_42	150.00	150.0	140.0	0.1097	Open
P4926	J48_43	J48_44	150.00	150.0	140.0	0.1043	Open
P4927	J48_43	J49_43	150.00	150.0	135.0	0.0937	Open
P4928	J48_44	J48_45	150.00	200.0	125.0	0.0836	Open
P4929	J48_44	J49_44	150.00	100.0	135.0	0.0393	Open
P4930	J48_45	J48_46	150.00	150.0	130.0	0.1381	Open
P4931	J48_45	J49_45	150.00	300.0	140.0	0.0457	Open
P4932	J48_46	J48_47	150.00	250.0	140.0	0.1393	Open
P4933	J48_46	J49_46	150.00	100.0	125.0	0.0126	Open
P4934	J48_47	J48_48	150.00	200.0	135.0	0.0313	Open
P4935	J48_47	J49_47	150.00	150.0	130.0	0.0587	Open
P4936	J48_48	J48_49	150.00	100.0	140.0	0.1432	Open
P4937	J48_48	J49_48	150.00	150.0	130.0	0.0221	Open
P4938	J48_49	J48_50	150.00	300.0	135.0	0.0787	Open
P4939	J48_49	J49_49	150.00	200.0	140.0	0.0968	Open
P4940	J48_50	J48_51	150.00	250.0	130.0	0.1050	Open
P4941	J48_50	J49_50	150.00	100.0	125.0	0.0806	Open
P4942	J48_51	J48_52	150.00	400.0	120.0	0.0041	Open
P4943	J48_51	J49_51	150.00	300.0	120.0	0.0413	Open
P4944	J48_52	J49_52	150.00	250.0	125.0	0.1310	Open
P4945	J49_1	J49_2	150.00	300.0	125.0	0.0411	Open
P4946	J49_1	J50_1	150.00	400.0	125.0	0.0424	Open
P4947	J49_2	J49_3	150.00	250.0	130.0	0.0509	Open
P4948	J49_2	J50_2	150.00	150.0	140.0	0.1265	Open
P4949	J49_3	J49_4	150.00	100.0	125.0	0.1326	Open
P4950	J49_3	J50_3	150.00	100.0	140.0	0.1345	Open
P4951	J49_4	J49_5	150.00	200.0	140.0	0.0773	Open
P4952	J49_4	J50_4	150.00	250.0	140.0	0.0747	Open
P4953	J49_5	J49_6	150.00	150.0	140.0	0.0648	Open
P4954	J49_5	J50_5	150.00	300.0	135.0	0.1361	Open
P4955	J49_6	J49_7	150.00	300.0	135.0	0.1221	Open
P4956	J49_6	J50_6	150.00	200.0	125.0	0.1322	Open
P4957	J49_7	J49_8	150.00	150.0	135.0	0.1011	Open
P4958	J49_7	J50_7	150.00	250.0	130.0	0.0266	Open
P4959	J49_8	J49_9	150.00	300.0	125.0	0.0941	Open
P4960	J49_8	J50_8	150.00	150.0	135.0	0.1412	Open
P4961	J49_9	J49_10	150.00	250.0	135.0	0.0031	Open
P4962	J49_9	J50_9	150.00	300.0	140.0	0.0667	Open
P4963	J49_10	J49_11	150.00	300.0	130.0	0.0424	Open
P4964	J49_10	J50_10	150.00	150.0	135.0	0.0309	Open
P4965	J49_11	J49_12	150.00	350.0	120.0	0.0295	Open
P4966	J49_11	J50_11	150.00	600.0	125.0	0.0389	Open
P4967	J49_12	J49_13	150.00	150.0	130.0	0.0339	Open
P4968	J49_12	J50_12	150.00	150.0	125.0	0.0678	Open
P4969	J49_13	J49_14	150.00	100.0	130.0	0.0727	Open
P4970	J49_13	J50_13	150.00	250.0	125.0	0.0400	Open
P4971	J49_14	J49_15	150.00	150.0	135.0	0.1366	Open
P4972	J49_14	J50_14	150.00	300.0	140.0	0.0564	Open
P4973	J49_15	J49_16	150.00	300.0	140.0	0.0966	Open
P4974	J49_15	J50_15	150.00	150.0	130.0	0.0086	Open
P4975	J49_16	J49_17	150.00	300.0	130.0	0.0105	Open
P4976	J49_16	J50_16	150.00	100.0	125.0	0.1495	Open
P4977	J49_17	J49_18	150.00	150.0	135.0	0.0687	Open
P4978	J49_17	J50_17	150.00	250.0	135.0	0.0825	Open
P4979	J49_18	J49_19	150.00	100.0	135.0	0.0635	Open
P4980	J49_18	J50_18	150.00	300.0	135.0	0.0030	Open
P4981	J49_19	J49_20	150.00	300.0	135.0	0.0053	Open
P4982	J49_19	J50_19	150.00	200.0	130.0	0.0362	Open
P4983	J49_20	J49_21	150.00	250.0	130.0	0.1332	Open
P4984	J49_20	J50_20	150.00	100.0	125.0	0.0960	Open
P4985	J49_21	J49_22	150.00	600.0	125.0	0.0212	Open
P4986	J49_21	J50_21	150.00	500.0	130.0	0.0499	Open
P4987	J49_22	J49_23	150.00	150.0	130.0	0.0465	Open
P4988	J49_22	J50_22	150.00	250.0	140.0	0.0038	Open
P4989	J49_23	J49_24	150.00	100.0	135.0	0.0388	Open
P4990	J49_23	J50_23	150.00	200.0	125.0	0.0854	Open
P4991	J49_24	J49_25	150.00	100.0	135.0	0.0423	Open
P4992	J49_24	J50_24	150.00	250.0	135.0	0.1418	Open
P4993	J49_25	J49_26	150.00	150.0	130.0	0.0315	Open
P4994	J49_25	J50_25	150.00	150.0	140.0	0.0932	Open
P4995	J49_26	J49_27	150.00	100.0	140.0	0.1244	Open
P4996	J49_26	J50_26	150.00	150.0	125.0	0.1223	Open
P4997	J49_27	J49_28	150.00	150.0	140.0	0.1022	Open
P4998	J49_27	J50_27	150.00	100.0	130.0	0.0309	Open
P4999	J49_28	J49_29	150.00	250.0	135.0	0.0274	Open
P5000	J49_28	J50_28	150.00	200.0	125.0	0.1071	Open
P5001	J49_29	J49_30	150.00	100.0	130.0	0.0009	Open
P5002	J49_29	J50_29	150.00	100.0	140.0	0.1222	Open
P5003	J49_30	J49_31	150.00	100.0	140.0	0.1269	Open
P5004	J49_30	J50_30	150.00	200.0	135.0	0.1047	Open
P5005	J49_31	J49_32	150.00	600.0	120.0	0.0150	Open
P5006	J49_31	J50_31	150.00	300.0	130.0	0.0394	Open
P5007	J49_32	J49_33	150.00	100.0	125.0	0.0292	Open
P5008	J49_32	J50_32	150.00	250.0	130.0	0.0098	Open
P5009	J49_33	J49_34	150.00	100.0	130.0	0.1486	Open
P5010	J49_33	J50_33	150.00	300.0	125.0	0.0150	Open
P5011	J49_34	J49_35	150.00	150.0	125.0	0.1434	Open
P5012	J49_34	J50_34	150.00	100.0	135.0	0.0376	Open
P5013	J49_35	J49_36	150.00	200.0	125.0	0.0026	Open
P5014	J49_35	J50_35	150.00	100.0	140.0	0.0121	Open
P5015	J49_36	J49_37	150.00	300.0	125.0	0.1099	Open
P5016	J49_36	J50_36	150.00	200.0	140.0	0.0871	Open
P5017	J49_37	J49_38	150.00	250.0	125.0	0.0155	Open
P5018	J49_37	J50_37	150.00	200.0	125.0	0.0946	Open
P5019	J49_38	J49_39	150.00	250.0	130.0	0.0203	Open
P5020	J49_38	J50_38	150.00	200.0	140.0	0.0959	Open
P5021	J49_39	J49_40	150.00	200.0	140.0	0.0962	Open
P5022	J49_39	J50_39	150.00	250.0	130.0	0.0901	Open
P5023	J49_40	J49_41	150.00	100.0	135.0	0.1471	Open
P5024	J49_40	J50_40	150.00	100.0	135.0	0.0477	Open
P5025	J49_41	J49_42	150.00	600.0	130.0	0.0405	Open
P5026	J49_41	J50_41	150.00	600.0	120.0	0.0162	Open
P5027	J49_42	J49_43	150.00	250.0	130.0	0.0036	Open
P5028	J49_42	J50_42	150.00	100.0	130.0	0.1341	Open
P5029	J49_43	J49_44	150.00	300.0	125.0	0.0493	Open
P5030	J49_43	J50_43	150.00	300.0	125.0	0.0226	Open
P5031	J49_44	J49_45	150.00	300.0	135.0	0.1063	Open
P5032	J49_44	J50_44	150.00	300.0	130.0	0.0863	Open
P5033	J49_45	J49_46	150.00	200.0	125.0	0.0432	Open
P5034	J49_45	J50_45	150.00	200.0	130.0	0.1185	Open
P5035	J49_46	J49_47	150.00	150.0	125.0	0.0502	Open
P5036	J49_46	J50_46	150.00	200.0	125.0	0.1426	Open
P5037	J49_47	J49_48	150.00	300.0	125.0	0.1308	Open
P5038	J49_47	J50_47	150.00	200.0	125.0	0.0854	Open
P5039	J49_48	J49_49	150.00	150.0	140.0	0.1328	Open
P5040	J49_48	J50_48	150.00	250.0	125.0	0.0741	Open
P5041	J49_49	J49_50	150.00	250.0	130.0	0.0188	Open
P5042	J49_49	J50_49	150.00	150.0	125.0	0.0892	Open
P5043	J49_50	J49_51	150.00	250.0	140.0	0.1376	Open
P5044	J49_50	J50_50	150.00	250.0	125.0	0.1451	Open
P5045	J49_51	J49_52	150.00	350.0	125.0	0.0376	Open
P5046	J49_51	J50_51	150.00	500.0	125.0	0.0286	Open
P5047	J49_52	J50_52	150.00	100.0	140.0	0.0542	Open
P5048	J50_1	J50_2	150.00	500.0	125.0	0.0437	Open
P5049	J50_1	J51_1	150.00	300.0	130.0	0.0187	Open
P5050	J50_2	J50_3	150.00	300.0	130.0	0.0552	Open
P5051	J50_2	J51_2	150.00	100.0	130.0	0.0667	Open
P5052	J50_3	J50_4	150.00	100.0	130.0	0.1064	Open
P5053	J50_3	J51_3	150.00	200.0	125.0	0.0739	Open
P5054	J50_4	J50_5	150.00	250.0	125.0	0.0706	Open
P5055	J50_4	J51_4	150.00	150.0	130.0	0.1443	Open
P5056	J50_5	J50_6	150.00	250.0	140.0	0.0442	Open
P5057	J50_5	J51_5	150.00	200.0	135.0	0.1006	Open
P5058	J50_6	J50_7	150.00	300.0	140.0	0.0703	Open
P5059	J50_6	J51_6	150.00	150.0	125.0	0.1373	Open
P5060	J50_7	J50_8	150.00	150.0	125.0	0.1301	Open
P5061	J50_7	J51_7	150.00	150.0	140.0	0.0146	Open
P5062	J50_8	J50_9	150.00	250.0	140.0	0.0905	Open
P5063	J50_8	J51_8	150.00	300.0	135.0	0.0012	Open
P5064	J50_9	J50_10	150.00	300.0	135.0	0.0473	Open
P5065	J50_9	J51_9	150.00	300.0	135.0	0.0630	Open
P5066	J50_10	J50_11	150.00	300.0	125.0	0.0297	Open
P5067	J50_10	J51_10	150.00	250.0	135.0	0.0152	Open
P5068	J50_11	J50_12	150.00	600.0	125.0	0.0454	Open
P5069	J50_11	J51_11	150.00	500.0	130.0	0.0357	Open
P5070	J50_12	J50_13	150.00	150.0	130.0	0.1034	Open
P5071	J50_12	J51_12	150.00	300.0	135.0	0.0728	Open
P5072	J50_13	J50_14	150.00	150.0	135.0	0.0370	Open
P5073	J50_13	J51_13	150.00	100.0	125.0	0.0537	Open
P5074	J50_14	J50_15	150.00	150.0	125.0	0.0234	Open
P5075	J50_14	J51_14	150.00	300.0	135.0	0.0774	Open
P5076	J50_15	J50_16	150.00	300.0	125.0	0.0790	Open
P5077	J50_15	J51_15	150.00	150.0	135.0	0.1471	Open
P5078	J50_16	J50_17	150.00	300.0	135.0	0.1041	Open
P5079	J50_16	J51_16	150.00	250.0	135.0	0.0999	Open
P5080	J50_17	J50_18	150.00	250.0	130.0	0.0756	Open
P5081	J50_17	J51_17	150.00	100.0	125.0	0.0628	Open
P5082	J50_18	J50_19	150.00	300.0	125.0	0.1262	Open
P5083	J50_18	J51_18	150.00	100.0	130.0	0.0906	Open
P5084	J50_19	J50_20	150.00	200.0	125.0	0.1355	Open
P5085	J50_19	J51_19	150.00	150.0	135.0	0.0603	Open
P5086	J50_20	J50_21	150.00	250.0	125.0	0.1283	Open
P5087	J50_20	J51_20	150.00	150.0	135.0	0.1179	Open
P5088	J50_21	J50_22	150.00	400.0	125.0	0.0386	Open
P5089	J50_21	J51_21	150.00	300.0	130.0	0.0375	Open
P5090	J50_22	J50_23	150.00	100.0	125.0	0.0615	Open
P5091	J50_22	J51_22	150.00	100.0	130.0	0.0758	Open
P5092	J50_23	J50_24	150.00	200.0	125.0	0.0149	Open
P5093	J50_23	J51_23	150.00	100.0	130.0	0.0377	Open
P5094	J50_24	J50_25	150.00	250.0	140.0	0.0975	Open
P5095	J50_24	J51_24	150.00	150.0	125.0	0.0625	Open
P5096	J50_25	J50_26	150.00	200.0	125.0	0.0938	Open
P5097	J50_25	J51_25	150.00	100.0	125.0	0.1444	Open
P5098	J50_26	J50_27	150.00	250.0	130.0	0.0789	Open
P5099	J50_26	J51_26	150.00	300.0	135.0	0.1095	Open
P5100	J50_27	J50_28	150.00	300.0	130.0	0.0469	Open
P5101	J50_27	J51_27	150.00	300.0	130.0	0.0709	Open
P5102	J50_28	J50_29	150.00	300.0	130.0	0.0405	Open
P5103	J50_28	J51_28	150.00	300.0	135.0	0.1126	Open
P5104	J50_29	J50_30	150.00	150.0	140.0	0.0606	Open
P5105	J50_29	J51_29	150.00	150.0	125.0	0.0648	Open
P5106	J50_30	J50_31	150.00	200.0	125.0	0.0421	Open
P5107	J50_30	J51_30	150.00	250.0	125.0	0.1144	Open
P5108	J50_31	J50_32	150.00	450.0	130.0	0.0305	Open
P5109	J50_31	J51_31	150.00	300.0	130.0	0.0216	Open
P5110	J50_32	J50_33	150.00	250.0	140.0	0.0324	Open
P5111	J50_32	J51_32	150.00	200.0	125.0	0.0382	Open
P5112	J50_33	J50_34	150.00	300.0	140.0	0.0992	Open
P5113	J50_33	J51_33	150.00	150.0	140.0	0.0100	Open
P5114	J50_34	J50_35	150.00	150.0	140.0	0.1178	Open
P5115	J50_34	J51_34	150.00	100.0	125.0	0.1425	Open
P5116	J50_35	J50_36	150.00	250.0	135.0	0.0626	Open
P5117	J50_35	J51_35	150.00	250.0	140.0	0.1038	Open
P5118	J50_36	J50_37	150.00	100.0	125.0	0.0731	Open
P5119	J50_36	J51_36	150.00	200.0	130.0	0.0756	Open
P5120	J50_37	J50_38	150.00	150.0	130.0	0.0809	Open
P5121	J50_37	J51_37	150.00	150.0	130.0	0.0162	Open
P5122	J50_38	J50_39	150.00	300.0	140.0	0.0222	Open
P5123	J50_38	J51_38	150.00	250.0	130.0	0.0206	Open
P5124	J50_39	J50_40	150.00	200.0	130.0	0.0001	Open
P5125	J50_39	J51_39	150.00	100.0	140.0	0.0789	Open
P5126	J50_40	J50_41	150.00	100.0	125.0	0.0429	Open
P5127	J50_40	J51_40	150.00	200.0	125.0	0.0310	Open
P5128	J50_41	J50_42	150.00	350.0	125.0	0.0401	Open
P5129	J50_41	J51_41	150.00	300.0	130.0	0.0214	Open
P5130	J50_42	J50_43	150.00	100.0	135.0	0.1153	Open
P5131	J50_42	J51_42	150.00	200.0	125.0	0.0869	Open
P5132	J50_43	J50_44	150.00	300.0	140.0	0.0084	Open
P5133	J50_43	J51_43	150.00	150.0	140.0	0.1183	Open
P5134	J50_44	J50_45	150.00	300.0	135.0	0.0457	Open
P5135	J50_44	J51_44	150.00	200.0	130.0	0.0159	Open
P5136	J50_45	J50_46	150.00	250.0	130.0	0.0375	Open
P5137	J50_45	J51_45	150.00	100.0	135.0	0.1337	Open
P5138	J50_46	J50_47	150.00	150.0	130.0	0.0753	Open
P5139	J50_46	J51_46	150.00	300.0	130.0	0.1145	Open
P5140	J50_47	J50_48	150.00	300.0	140.0	0.0326	Open
P5141	J50_47	J51_47	150.00	250.0	130.0	0.1354	Open
P5142	J50_48	J50_49	150.00	300.0	135.0	0.0968	Open
P5143	J50_48	J51_48	150.00	250.0	140.0	0.0283	Open
P5144	J50_49	J50_50	150.00	300.0	130.0	0.0761	Open
P5145	J50_49	J51_49	150.00	250.0	140.0	0.0549	Open
P5146	J50_50	J50_51	150.00	250.0	125.0	0.0075	Open
P5147	J50_50	J51_50	150.00	300.0	135.0	0.0425	Open
P5148	J50_51	J50_52	150.00	400.0	130.0	0.0168	Open
P5149	J50_51	J51_51	150.00	350.0	120.0	0.0053	Open
P5150	J50_52	J51_52	150.00	150.0	140.0	0.0988	Open
P5151	J51_1	J51_2	150.00	350.0	130.0	0.0450	Open
P5152	J51_1	J52_1	150.00	500.0	125.0	0.0142	Open
P5153	J51_2	J51_3	150.00	400.0	120.0	0.0236	Open
P5154	J51_2	J52_2	150.00	400.0	125.0	0.0210	Open
P5155	J51_3	J51_4	150.00	300.0	120.0	0.0310	Open
P5156	J51_3	J52_3	150.00	500.0	130.0	0.0368	Open
P5157	J51_4	J51_5	150.00	300.0	125.0	0.0373	Open
P5158	J51_4	J52_4	150.00	300.0	125.0	0.0026	Open
P5159	J51_5	J51_6	150.00	300.0	130.0	0.0411	Open
P5160	J51_5	J52_5	150.00	600.0	120.0	0.0243	Open
P5161	J51_6	J51_7	150.00	300.0	125.0	0.0061	Open
P5162	J51_6	J52_6	150.00	400.0	130.0	0.0230	Open
P5163	J51_7	J51_8	150.00	500.0	130.0	0.0083	Open
P5164	J51_7	J52_7	150.00	500.0	125.0	0.0239	Open
P5165	J51_8	J51_9	150.00	600.0	120.0	0.0026	Open
P5166	J51_8	J52_8	150.00	300.0	125.0	0.0451	Open
P5167	J51_9	J51_10	150.00	350.0	120.0	0.0140	Open
P5168	J51_9	J52_9	150.00	350.0	120.0	0.0279	Open
P5169	J51_10	J51_11	150.00	300.0	130.0	0.0489	Open
P5170	J51_10	J52_10	150.00	500.0	125.0	0.0261	Open
P5171	J51_11	J51_12	150.00	350.0	130.0	0.0230	Open
P5172	J51_11	J52_11	150.00	500.0	130.0	0.0161	Open
P5173	J51_12	J51_13	150.00	600.0	120.0	0.0076	Open
P5174	J51_12	J52_12	150.00	300.0	130.0	0.0281	Open
P5175	J51_13	J51_14	150.00	600.0	125.0	0.0157	Open
P5176	J51_13	J52_13	150.00	450.0	130.0	0.0144	Open
P5177	J51_14	J51_15	150.00	350.0	120.0	0.0294	Open
P5178	J51_14	J52_14	150.00	450.0	125.0	0.0228	Open
P5179	J51_15	J51_16	150.00	350.0	125.0	0.0417	Open
P5180	J51_15	J52_15	150.00	500.0	125.0	0.0090	Open
P5181	J51_16	J51_17	150.00	500.0	125.0	0.0360	Open
P5182	J51_16	J52_16	150.00	400.0	130.0	0.0438	Open
P5183	J51_17	J51_18	150.00	400.0	120.0	0.0048	Open
P5184	J51_17	J52_17	150.00	400.0	120.0	0.0220	Open
P5185	J51_18	J51_19	150.00	300.0	120.0	0.0227	Open
P5186	J51_18	J52_18	150.00	350.0	120.0	0.0202	Open
P5187	J51_19	J51_20	150.00	350.0	120.0	0.0019	Open
P5188	J51_19	J52_19	150.00	350.0	130.0	0.0025	Open
P5189	J51_20	J51_21	150.00	450.0	130.0	0.0180	Open
P5190	J51_20	J52_20	150.00	600.0	130.0	0.0013	Open
P5191	J51_21	J51_22	150.00	600.0	125.0	0.0025	Open
P5192	J51_21	J52_21	150.00	500.0	130.0	0.0044	Open
P5193	J51_22	J51_23	150.00	300.0	120.0	0.0192	Open
P5194	J51_22	J52_22	150.00	300.0	120.0	0.0030	Open
P5195	J51_23	J51_24	150.00	500.0	125.0	0.0483	Open
P5196	J51_23	J52_23	150.00	500.0	125.0	0.0022	Open
P5197	J51_24	J51_25	150.00	450.0	120.0	0.0488	Open
P5198	J51_24	J52_24	150.00	600.0	130.0	0.0480	Open
P5199	J51_25	J51_26	150.00	450.0	130.0	0.0085	Open
P5200	J51_25	J52_25	150.00	350.0	125.0	0.0005	Open
P5201	J51_26	J51_27	150.00	350.0	120.0	0.0223	Open
P5202	J51_26	J52_26	150.00	500.0	120.0	0.0254	Open
P5203	J51_27	J51_28	150.00	450.0	125.0	0.0117	Open
P5204	J51_27	J52_27	150.00	400.0	120.0	0.0161	Open
P5205	J51_28	J51_29	150.00	600.0	120.0	0.0497	Open
P5206	J51_28	J52_28	150.00	350.0	120.0	0.0217	Open
P5207	J51_29	J51_30	150.00	300.0	125.0	0.0099	Open
P5208	J51_29	J52_29	150.00	350.0	130.0	0.0227	Open
P5209	J51_30	J51_31	150.00	350.0	125.0	0.0339	Open
P5210	J51_30	J52_30	150.00	600.0	125.0	0.0252	Open
P5211	J51_31	J51_32	150.00	300.0	130.0	0.0084	Open
P5212	J51_31	J52_31	150.00	400.0	130.0	0.0380	Open
P5213	J51_32	J51_33	150.00	500.0	125.0	0.0048	Open
P5214	J51_32	J52_32	150.00	600.0	120.0	0.0462	Open
P5215	J51_33	J51_34	150.00	350.0	125.0	0.0366	Open
P5216	J51_33	J52_33	150.00	500.0	120.0	0.0279	Open
P5217	J51_34	J51_35	150.00	450.0	130.0	0.0432	Open
P5218	J51_34	J52_34	150.00	600.0	130.0	0.0198	Open
P5219	J51_35	J51_36	150.00	300.0	130.0	0.0194	Open
P5220	J51_35	J52_35	150.00	500.0	125.0	0.0329	Open
P5221	J51_36	J51_37	150.00	350.0	125.0	0.0300	Open
P5222	J51_36	J52_36	150.00	450.0	120.0	0.0087	Open
P5223	J51_37	J51_38	150.00	350.0	125.0	0.0148	Open
P5224	J51_37	J52_37	150.00	450.0	125.0	0.0102	Open
P5225	J51_38	J51_39	150.00	400.0	120.0	0.0344	Open
P5226	J51_38	J52_38	150.00	600.0	130.0	0.0108	Open
P5227	J51_39	J51_40	150.00	450.0	120.0	0.0153	Open
P5228	J51_39	J52_39	150.00	400.0	125.0	0.0347	Open
P5229	J51_40	J51_41	150.00	350.0	125.0	0.0033	Open
P5230	J51_40	J52_40	150.00	450.0	120.0	0.0306	Open
P5231	J51_41	J51_42	150.00	450.0	125.0	0.0441	Open
P5232	J51_41	J52_41	150.00	450.0	125.0	0.0282	Open
P5233	J51_42	J51_43	150.00	450.0	120.0	0.0367	Open
P5234	J51_42	J52_42	150.00	300.0	130.0	0.0472	Open
P5235	J51_43	J51_44	150.00	300.0	125.0	0.0315	Open
P5236	J51_43	J52_43	150.00	350.0	130.0	0.0444	Open
P5237	J51_44	J51_45	150.00	300.0	125.0	0.0430	Open
P5238	J51_44	J52_44	150.00	300.0	120.0	0.0116	Open
P5239	J51_45	J51_46	150.00	400.0	120.0	0.0130	Open
P5240	J51_45	J52_45	150.00	600.0	130.0	0.0126	Open
P5241	J51_46	J51_47	150.00	400.0	130.0	0.0295	Open
P5242	J51_46	J52_46	150.00	350.0	125.0	0.0484	Open
P5243	J51_47	J51_48	150.00	500.0	125.0	0.0076	Open
P5244	J51_47	J52_47	150.00	400.0	130.0	0.0056	Open
P5245	J51_48	J51_49	150.00	300.0	125.0	0.0190	Open
P5246	J51_48	J52_48	150.00	500.0	125.0	0.0336	Open
P5247	J51_49	J51_50	150.00	400.0	120.0	0.0258	Open
P5248	J51_49	J52_49	150.00	400.0	120.0	0.0358	Open
P5249	J51_50	J51_51	150.00	400.0	130.0	0.0032	Open
P5250	J51_50	J52_50	150.00	350.0	130.0	0.0255	Open
P5251	J51_51	J51_52	150.00	350.0	130.0	0.0211	Open
P5252	J51_51	J52_51	150.00	600.0	125.0	0.0223	Open
P5253	J51_52	J52_52	150.00	300.0	120.0	0.0115	Open
P5254	J52_1	J52_2	150.00	300.0	125.0	0.0193	Open
P5255	J52_1	J53_1	150.00	450.0	120.0	0.0339	Open
P5256	J52_2	J52_3	150.00	150.0	135.0	0.1270	Open
P5257	J52_2	J53_2	150.00	200.0	125.0	0.1023	Open
P5258	J52_3	J52_4	150.00	150.0	125.0	0.1112	Open
P5259	J52_3	J53_3	150.00	250.0	135.0	0.1122	Open
P5260	J52_4	J52_5	150.00	100.0	130.0	0.0764	Open
P5261	J52_4	J53_4	150.00	150.0	135.0	0.0624	Open
P5262	J52_5	J52_6	150.00	150.0	130.0	0.0813	Open
P5263	J52_5	J53_5	150.00	200.0	130.0	0.0346	Open
P5264	J52_6	J52_7	150.00	250.0	135.0	0.0763	Open
P5265	J52_6	J53_6	150.00	150.0	140.0	0.0165	Open
P5266	J52_7	J52_8	150.00	200.0	140.0	0.0500	Open
P5267	J52_7	J53_7	150.00	250.0	135.0	0.0038	Open
P5268	J52_8	J52_9	150.00	100.0	135.0	0.1489	Open
P5269	J52_8	J53_8	150.00	250.0	140.0	0.0439	Open
P5270	J52_9	J52_10	150.00	100.0	125.0	0.0313	Open
P5271	J52_9	J53_9	150.00	200.0	125.0	0.1216	Open
P5272	J52_10	J52_11	150.00	200.0	125.0	0.0411	Open
P5273	J52_10	J53_10	150.00	250.0	130.0	0.0234	Open
P5274	J52_11	J52_12	150.00	500.0	125.0	0.0259	Open
P5275	J52_11	J53_11	150.00	300.0	120.0	0.0299	Open
P5276	J52_12	J52_13	150.00	150.0	135.0	0.1020	Open
P5277	J52_12	J53_12	150.00	300.0	140.0	0.0047	Open
P5278	J52_13	J52_14	150.00	200.0	130.0	0.1042	Open
P5279	J52_13	J53_13	150.00	100.0	135.0	0.1042	Open
P5280	J52_14	J52_15	150.00	200.0	130.0	0.0968	Open
P5281	J52_14	J53_14	150.00	100.0	135.0	0.0635	Open
P5282	J52_15	J52_16	150.00	150.0	130.0	0.1069	Open
P5283	J52_15	J53_15	150.00	200.0	125.0	0.1434	Open
P5284	J52_16	J52_17	150.00	100.0	125.0	0.0877	Open
P5285	J52_16	J53_16	150.00	300.0	135.0	0.0525	Open
P5286	J52_17	J52_18	150.00	200.0	135.0	0.1187	Open
P5287	J52_17	J53_17	150.00	150.0	135.0	0.0728	Open
P5288	J52_18	J52_19	150.00	100.0	140.0	0.0458	Open
P5289	J52_18	J53_18	150.00	200.0	135.0	0.0354	Open
P5290	J52_19	J52_20	150.00	150.0	140.0	0.0961	Open
P5291	J52_19	J53_19	150.00	100.0	130.0	0.0601	Open
P5292	J52_20	J52_21	150.00	100.0	140.0	0.1243	Open
P5293	J52_20	J53_20	150.00	100.0	140.0	0.0010	Open
P5294	J52_21	J52_22	150.00	500.0	130.0	0.0180	Open
P5295	J52_21	J53_21	150.00	400.0	125.0	0.0220	Open
P5296	J52_22	J52_23	150.00	200.0	125.0	0.0054	Open
P5297	J52_22	J53_22	150.00	150.0	130.0	0.1469	Open
P5298	J52_23	J52_24	150.00	150.0	140.0	0.0126	Open
P5299	J52_23	J53_23	150.00	150.0	140.0	0.1296	Open
P5300	J52_24	J52_25	150.00	150.0	135.0	0.1344	Open
P5301	J52_24	J53_24	150.00	300.0	130.0	0.0204	Open
P5302	J52_25	J52_26	150.00	300.0	135.0	0.1396	Open
P5303	J52_25	J53_25	150.00	150.0	130.0	0.0971	Open
P5304	J52_26	J52_27	150.00	300.0	130.0	0.1394	Open
P5305	J52_26	J53_26	150.00	250.0	130.0	0.0415	Open
P5306	J52_27	J52_28	150.00	200.0	125.0	0.0063	Open
P5307	J52_27	J53_27	150.00	150.0	125.0	0.1443	Open
P5308	J52_28	J52_29	150.00	300.0	135.0	0.0800	Open
P5309	J52_28	J53_28	150.00	100.0	130.0	0.0712	Open
P5310	J52_29	J52_30	150.00	300.0	135.0	0.1441	Open
P5311	J52_29	J53_29	150.00	200.0	135.0	0.0792	Open
P5312	J52_30	J52_31	150.00	200.0	135.0	0.1250	Open
P5313	J52_30	J53_30	150.00	100.0	135.0	0.0991	Open
P5314	J52_31	J52_32	150.00	500.0	130.0	0.0174	Open
P5315	J52_31	J53_31	150.00	400.0	120.0	0.0081	Open
P5316	J52_32	J52_33	150.00	200.0	125.0	0.0260	Open
P5317	J52_32	J53_32	150.00	300.0	140.0	0.1075	Open
P5318	J52_33	J52_34	150.00	200.0	125.0	0.0968	Open
P5319	J52_33	J53_33	150.00	300.0	125.0	0.0355	Open
P5320	J52_34	J52_35	150.00	300.0	135.0	0.1262	Open
P5321	J52_34	J53_34	150.00	100.0	135.0	0.0132	Open
P5322	J52_35	J52_36	150.00	300.0	135.0	0.1476	Open
P5323	J52_35	J53_35	150.00	200.0	135.0	0.0929	Open
P5324	J52_36	J52_37	150.00	150.0	140.0	0.0870	Open
P5325	J52_36	J53_36	150.00	100.0	140.0	0.0082	Open
P5326	J52_37	J52_38	150.00	250.0	140.0	0.1078	Open
P5327	J52_37	J53_37	150.00	250.0	140.0	0.1483	Open
P5328	J52_38	J52_39	150.00	150.0	140.0	0.0617	Open
P5329	J52_38	J53_38	150.00	100.0	140.0	0.0691	Open
P5330	J52_39	J52_40	150.00	100.0	140.0	0.1204	Open
P5331	J52_39	J53_39	150.00	100.0	130.0	0.0416	Open
P5332	J52_40	J52_41	150.00	200.0	135.0	0.0357	Open
P5333	J52_40	J53_40	150.00	300.0	125.0	0.0801	Open
P5334	J52_41	J52_42	150.00	300.0	130.0	0.0373	Open
P5335	J52_41	J53_41	150.00	450.0	130.0	0.0459	Open
P5336	J52_42	J52_43	150.00	100.0	125.0	0.0975	Open
P5337	J52_42	J53_42	150.00	300.0	140.0	0.0800	Open
P5338	J52_43	J52_44	150.00	250.0	140.0	0.1233	Open
P5339	J52_43	J53_43	150.00	250.0	130.0	0.1114	Open
P5340	J52_44	J52_45	150.00	100.0	135.0	0.0814	Open
P5341	J52_44	J53_44	150.00	100.0	125.0	0.1219	Open
P5342	J52_45	J52_46	150.00	200.0	135.0	0.0315	Open
P5343	J52_45	J53_45	150.00	250.0	140.0	0.1450	Open
P5344	J52_46	J52_47	150.00	250.0	125.0	0.0226	Open
P5345	J52_46	J53_46	150.00	250.0	140.0	0.1274	Open
P5346	J52_47	J52_48	150.00	100.0	140.0	0.1259	Open
P5347	J52_47	J53_47	150.00	200.0	125.0	0.0023	Open
P5348	J52_48	J52_49	150.00	300.0	125.0	0.1158	Open
P5349	J52_48	J53_48	150.00	300.0	140.0	0.0358	Open
P5350	J52_49	J52_50	150.00	300.0	125.0	0.1092	Open
P5351	J52_49	J53_49	150.00	250.0	130.0	0.0083	Open
P5352	J52_50	J52_51	150.00	150.0	135.0	0.0836	Open
P5353	J52_50	J53_50	150.00	150.0	135.0	0.0043	Open
P5354	J52_51	J52_52	150.00	500.0	120.0	0.0309	Open
P5355	J52_51	J53_51	150.00	400.0	130.0	0.0046	Open
P5356	J52_52	J53_52	150.00	250.0	135.0	0.1299	Open
P5357	J53_1	J53_2	150.00	350.0	130.0	0.0296	Open
P5358	J53_1	J54_1	150.00	350.0	125.0	0.0157	Open
P5359	J53_2	J53_3	150.00	300.0	140.0	0.0135	Open
P5360	J53_2	J54_2	150.00	300.0	130.0	0.0868	Open
P5361	J53_3	J53_4	150.00	200.0	135.0	0.0532	Open
P5362	J53_3	J54_3	150.00	300.0	130.0	0.1285	Open
P5363	J53_4	J53_5	150.00	300.0	140.0	0.1123	Open
P5364	J53_4	J54_4	150.00	100.0	135.0	0.0069	Open
P5365	J53_5	J53_6	150.00	150.0	125.0	0.1004	Open
P5366	J53_5	J54_5	150.00	200.0	130.0	0.0311	Open
P5367	J53_6	J53_7	150.00	250.0	125.0	0.1078	Open
P5368	J53_6	J54_6	150.00	250.0	135.0	0.0081	Open
P5369	J53_7	J53_8	150.00	200.0	135.0	0.1153	Open
P5370	J53_7	J54_7	150.00	300.0	140.0	0.0534	Open
P5371	J53_8	J53_9	150.00	200.0	130.0	0.0442	Open
P5372	J53_8	J54_8	150.00	150.0	125.0	0.0976	Open
P5373	J53_9	J53_10	150.00	150.0	135.0	0.0484	Open
P5374	J53_9	J54_9	150.00	200.0	125.0	0.1019	Open
P5375	J53_10	J53_11	150.00	200.0	130.0	0.1437	Open
P5376	J53_10	J54_10	150.00	250.0	135.0	0.0332	Open
P5377	J53_11	J53_12	150.00	350.0	130.0	0.0349	Open
P5378	J53_11	J54_11	150.00	400.0	130.0	0.0149	Open
P5379	J53_12	J53_13	150.00	200.0	135.0	0.1038	Open
P5380	J53_12	J54_12	150.00	150.0	140.0	0.0834	Open
P5381	J53_13	J53_14	150.00	300.0	130.0	0.1060	Open
P5382	J53_13	J54_13	150.00	150.0	140.0	0.1180	Open
P5383	J53_14	J53_15	150.00	200.0	140.0	0.0330	Open
P5384	J53_14	J54_14	150.00	300.0	135.0	0.1169	Open
P5385	J53_15	J53_16	150.00	250.0	140.0	0.1276	Open
P5386	J53_15	J54_15	150.00	300.0	125.0	0.1437	Open
P5387	J53_16	J53_17	150.00	300.0	140.0	0.1386	Open
P5388	J53_16	J54_16	150.00	250.0	130.0	0.1290	Open
P5389	J53_17	J53_18	150.00	100.0	135.0	0.0971	Open
P5390	J53_17	J54_17	150.00	250.0	130.0	0.1224	Open
P5391	J53_18	J53_19	150.00	150.0	125.0	0.0674	Open
P5392	J53_18	J54_18	150.00	150.0	135.0	0.0323	Open
P5393	J53_19	J53_20	150.00	250.0	125.0	0.0912	Open
P5394	J53_19	J54_19	150.00	250.0	140.0	0.0927	Open
P5395	J53_20	J53_21	150.00	250.0	130.0	0.1289	Open
P5396	J53_20	J54_20	150.00	100.0	125.0	0.1383	Open
P5397	J53_21	J53_22	150.00	400.0	125.0	0.0413	Open
P5398	J53_21	J54_21	150.00	400.0	120.0	0.0463	Open
P5399	J53_22	J53_23	150.00	100.0	135.0	0.1024	Open
P5400	J53_22	J54_22	150.00	150.0	140.0	0.0143	Open
P5401	J53_23	J53_24	150.00	300.0	140.0	0.0413	Open
P5402	J53_23	J54_23	150.00	100.0	130.0	0.0686	Open
P5403	J53_24	J53_25	150.00	300.0	125.0	0.0423	Open
P5404	J53_24	J54_24	150.00	300.0	135.0	0.0643	Open
P5405	J53_25	J53_26	150.00	200.0	125.0	0.0077	Open
P5406	J53_25	J54_25	150.00	300.0	125.0	0.0414	Open
P5407	J53_26	J53_27	150.00	250.0	135.0	0.0198	Open
P5408	J53_26	J54_26	150.00	250.0	135.0	0.0296	Open
P5409	J53_27	J53_28	150.00	200.0	125.0	0.1156	Open
P5410	J53_27	J54_27	150.00	250.0	135.0	0.0662	Open
P5411	J53_28	J53_29	150.00	300.0	130.0	0.1114	Open
P5412	J53_28	J54_28	150.00	100.0	125.0	0.0499	Open
P5413	J53_29	J53_30	150.00	250.0	140.0	0.1482	Open
P5414	J53_29	J54_29	150.00	150.0	130.0	0.1186	Open
P5415	J53_30	J53_31	150.00	100.0	125.0	0.0421	Open
P5416	J53_30	J54_30	150.00	150.0	125.0	0.1315	Open
P5417	J53_31	J53_32	150.00	400.0	125.0	0.0398	Open
P5418	J53_31	J54_31	150.00	450.0	130.0	0.0292	Open
P5419	J53_32	J53_33	150.00	150.0	125.0	0.0557	Open
P5420	J53_32	J54_32	150.00	150.0	140.0	0.0126	Open
P5421	J53_33	J53_34	150.00	250.0	130.0	0.0247	Open
P5422	J53_33	J54_33	150.00	150.0	125.0	0.1105	Open
P5423	J53_34	J53_35	150.00	200.0	125.0	0.0960	Open
P5424	J53_34	J54_34	150.00	300.0	140.0	0.0454	Open
P5425	J53_35	J53_36	150.00	250.0	140.0	0.0730	Open
P5426	J53_35	J54_35	150.00	100.0	130.0	0.0577	Open
P5427	J53_36	J53_37	150.00	300.0	140.0	0.0838	Open
P5428	J53_36	J54_36	150.00	150.0	130.0	0.0049	Open
P5429	J53_37	J53_38	150.00	250.0	125.0	0.0530	Open
P5430	J53_37	J54_37	150.00	200.0	135.0	0.1159	Open
P5431	J53_38	J53_39	150.00	200.0	125.0	0.1327	Open
P5432	J53_38	J54_38	150.00	250.0	125.0	0.0168	Open
P5433	J53_39	J53_40	150.00	300.0	135.0	0.0248	Open
P5434	J53_39	J54_39	150.00	200.0	130.0	0.1415	Open
P5435	J53_40	J53_41	150.00	300.0	140.0	0.1047	Open
P5436	J53_40	J54_40	150.00	150.0	135.0	0.0215	Open
P5437	J53_41	J53_42	150.00	400.0	130.0	0.0372	Open
P5438	J53_41	J54_41	150.00	350.0	125.0	0.0495	Open
P5439	J53_42	J53_43	150.00	150.0	140.0	0.1294	Open
P5440	J53_42	J54_42	150.00	300.0	130.0	0.1057	Open
P5441	J53_43	J53_44	150.00	300.0	125.0	0.0716	Open
P5442	J53_43	J54_43	150.00	100.0	135.0	0.0821	Open
P5443	J53_44	J53_45	150.00	300.0	135.0	0.1244	Open
P5444	J53_44	J54_44	150.00	300.0	140.0	0.1146	Open
P5445	J53_45	J53_46	150.00	150.0	140.0	0.0720	Open
P5446	J53_45	J54_45	150.00	100.0	125.0	0.1184	Open
P5447	J53_46	J53_47	150.00	150.0	130.0	0.1210	Open
P5448	J53_46	J54_46	150.00	100.0	125.0	0.0988	Open
P5449	J53_47	J53_48	150.00	100.0	125.0	0.0808	Open
P5450	J53_47	J54_47	150.00	250.0	135.0	0.0247	Open
P5451	J53_48	J53_49	150.00	100.0	130.0	0.0498	Open
P5452	J53_48	J54_48	150.00	100.0	135.0	0.0243	Open
P5453	J53_49	J53_50	150.00	200.0	130.0	0.0602	Open
P5454	J53_49	J54_49	150.00	150.0	140.0	0.1497	Open
P5455	J53_50	J53_51	150.00	250.0	135.0	0.0354	Open
P5456	J53_50	J54_50	150.00	300.0	130.0	0.0995	Open
P5457	J53_51	J53_52	150.00	300.0	120.0	0.0253	Open
P5458	J53_51	J54_51	150.00	350.0	125.0	0.0161	Open
P5459	J53_52	J54_52	150.00	300.0	135.0	0.0824	Open
P5460	J54_1	J54_2	150.00	400.0	130.0	0.0387	Open
P5461	J54_1	J55_1	150.00	600.0	125.0	0.0150	Open
P5462	J54_2	J54_3	150.00	200.0	130.0	0.0804	Open
P5463	J54_2	J55_2	150.00	250.0	130.0	0.0780	Open
P5464	J54_3	J54_4	150.00	200.0	135.0	0.0083	Open
P5465	J54_3	J55_3	150.00	200.0	140.0	0.1145	Open
P5466	J54_4	J54_5	150.00	300.0	140.0	0.0905	Open
P5467	J54_4	J55_4	150.00	300.0	140.0	0.0680	Open
P5468	J54_5	J54_6	150.00	100.0	130.0	0.1447	Open
P5469	J54_5	J55_5	150.00	300.0	135.0	0.0170	Open
P5470	J54_6	J54_7	150.00	250.0	130.0	0.0859	Open
P5471	J54_6	J55_6	150.00	150.0	130.0	0.0670	Open
P5472	J54_7	J54_8	150.00	200.0	125.0	0.0201	Open
P5473	J54_7	J55_7	150.00	150.0	130.0	0.0915	Open
P5474	J54_8	J54_9	150.00	150.0	130.0	0.0253	Open
P5475	J54_8	J55_8	150.00	300.0	130.0	0.1264	Open
P5476	J54_9	J54_10	150.00	250.0	135.0	0.0052	Open
P5477	J54_9	J55_9	150.00	100.0	135.0	0.1408	Open
P5478	J54_10	J54_11	150.00	150.0	135.0	0.0668	Open
P5479	J54_10	J55_10	150.00	300.0	140.0	0.1477	Open
P5480	J54_11	J54_12	150.00	450.0	120.0	0.0058	Open
P5481	J54_11	J55_11	150.00	600.0	120.0	0.0117	Open
P5482	J54_12	J54_13	150.00	200.0	130.0	0.0171	Open
P5483	J54_12	J55_12	150.00	200.0	135.0	0.1278	Open
P5484	J54_13	J54_14	150.00	250.0	130.0	0.0734	Open
P5485	J54_13	J55_13	150.00	250.0	125.0	0.0056	Open
P5486	J54_14	J54_15	150.00	250.0	140.0	0.1113	Open
P5487	J54_14	J55_14	150.00	300.0	140.0	0.0601	Open
P5488	J54_15	J54_16	150.00	100.0	125.0	0.0533	Open
P5489	J54_15	J55_15	150.00	150.0	125.0	0.1109	Open
P5490	J54_16	J54_17	150.00	200.0	135.0	0.0603	Open
P5491	J54_16	J55_16	150.00	200.0	135.0	0.0624	Open
P5492	J54_17	J54_18	150.00	150.0	140.0	0.1490	Open
P5493	J54_17	J55_17	150.00	250.0	130.0	0.1322	Open
P5494	J54_18	J54_19	150.00	250.0	140.0	0.0570	Open
P5495	J54_18	J55_18	150.00	150.0	130.0	0.0820	Open
P5496	J54_19	J54_20	150.00	150.0	125.0	0.1044	Open
P5497	J54_19	J55_19	150.00	200.0	135.0	0.0510	Open
P5498	J54_20	J54_21	150.00	300.0	140.0	0.1223	Open
P5499	J54_20	J55_20	150.00	150.0	130.0	0.0308	Open
P5500	J54_21	J54_22	150.00	400.0	125.0	0.0497	Open
P5501	J54_21	J55_21	150.00	600.0	125.0	0.0091	Open
P5502	J54_22	J54_23	150.00	200.0	140.0	0.1463	Open
P5503	J54_22	J55_22	150.00	150.0	125.0	0.1285	Open
P5504	J54_23	J54_24	150.00	150.0	135.0	0.0790	Open
P5505	J54_23	J55_23	150.00	100.0	125.0	0.0828	Open
P5506	J54_24	J54_25	150.00	150.0	135.0	0.1413	Open
P5507	J54_24	J55_24	150.00	150.0	125.0	0.0165	Open
P5508	J54_25	J54_26	150.00	250.0	140.0	0.0883	Open
P5509	J54_25	J55_25	150.00	200.0	140.0	0.1429	Open
P5510	J54_26	J54_27	150.00	200.0	125.0	0.0777	Open
P5511	J54_26	J55_26	150.00	100.0	125.0	0.0551	Open
P5512	J54_27	J54_28	150.00	150.0	125.0	0.0347	Open
P5513	J54_27	J55_27	150.00	150.0	140.0	0.1030	Open
P5514	J54_28	J54_29	150.00	150.0	130.0	0.1187	Open
P5515	J54_28	J55_28	150.00	100.0	130.0	0.1218	Open
P5516	J54_29	J54_30	150.00	150.0	125.0	0.0688	Open
P5517	J54_29	J55_29	150.00	250.0	140.0	0.0634	Open
P5518	J54_30	J54_31	150.00	100.0	140.0	0.0267	Open
P5519	J54_30	J55_30	150.00	150.0	125.0	0.0415	Open
P5520	J54_31	J54_32	150.00	300.0	130.0	0.0292	Open
P5521	J54_31	J55_31	150.00	600.0	120.0	0.0391	Open
P5522	J54_32	J54_33	150.00	150.0	130.0	0.0997	Open
P5523	J54_32	J55_32	150.00	250.0	125.0	0.0809	Open
P5524	J54_33	J54_34	150.00	150.0	130.0	0.0019	Open
P5525	J54_33	J55_33	150.00	250.0	140.0	0.0745	Open
P5526	J54_34	J54_35	150.00	200.0	130.0	0.0709	Open
P5527	J54_34	J55_34	150.00	150.0	125.0	0.1267	Open
P5528	J54_35	J54_36	150.00	150.0	140.0	0.0510	Open
P5529	J54_35	J55_35	150.00	150.0	140.0	0.0524	Open
P5530	J54_36	J54_37	150.00	300.0	125.0	0.0638	Open
P5531	J54_36	J55_36	150.00	200.0	125.0	0.0826	Open
P5532	J54_37	J54_38	150.00	150.0	125.0	0.1347	Open
P5533	J54_37	J55_37	150.00	250.0	130.0	0.0440	Open
P5534	J54_38	J54_39	150.00	150.0	125.0	0.1330	Open
P5535	J54_38	J55_38	150.00	300.0	125.0	0.0254	Open
P5536	J54_39	J54_40	150.00	150.0	135.0	0.0296	Open
P5537	J54_39	J55_39	150.00	100.0	130.0	0.1451	Open
P5538	J54_40	J54_41	150.00	250.0	140.0	0.0903	Open
P5539	J54_40	J55_40	150.00	200.0	125.0	0.1053	Open
P5540	J54_41	J54_42	150.00	300.0	125.0	0.0322	Open
P5541	J54_41	J55_41	150.00	450.0	130.0	0.0417	Open
P5542	J54_42	J54_43	150.00	300.0	140.0	0.0147	Open
P5543	J54_42	J55_42	150.00	150.0	125.0	0.0957	Open
P5544	J54_43	J54_44	150.00	300.0	140.0	0.0326	Open
P5545	J54_43	J55_43	150.00	300.0	135.0	0.1038	Open
P5546	J54_44	J54_45	150.00	250.0	140.0	0.0808	Open
P5547	J54_44	J55_44	150.00	300.0	125.0	0.0547	Open
P5548	J54_45	J54_46	150.00	150.0	125.0	0.0032	Open
P5549	J54_45	J55_45	150.00	300.0	135.0	0.0206	Open
P5550	J54_46	J54_47	150.00	250.0	140.0	0.0774	Open
P5551	J54_46	J55_46	150.00	250.0	135.0	0.0018	Open
P5552	J54_47	J54_48	150.00	250.0	140.0	0.0249	Open
P5553	J54_47	J55_47	150.00	100.0	125.0	0.1054	Open
P5554	J54_48	J54_49	150.00	150.0	135.0	0.0377	Open
P5555	J54_48	J55_48	150.00	100.0	140.0	0.0673	Open
P5556	J54_49	J54_50	150.00	250.0	135.0	0.1035	Open
P5557	J54_49	J55_49	150.00	150.0	140.0	0.0036	Open
P5558	J54_50	J54_51	150.00	300.0	125.0	0.0807	Open
P5559	J54_50	J55_50	150.00	300.0	140.0	0.1285	Open
P5560	J54_51	J54_52	150.00	450.0	125.0	0.0402	Open
P5561	J54_51	J55_51	150.00	350.0	130.0	0.0270	Open
P5562	J54_52	J55_52	150.00	100.0	125.0	0.0278	Open
P5563	J55_1	J55_2	150.00	300.0	130.0	0.0443	Open
P5564	J55_1	J56_1	150.00	400.0	120.0	0.0196	Open
P5565	J55_2	J55_3	150.00	100.0	130.0	0.1184	Open
P5566	J55_2	J56_2	150.00	300.0	140.0	0.1223	Open
P5567	J55_3	J55_4	150.00	250.0	140.0	0.0778	Open
P5568	J55_3	J56_3	150.00	150.0	130.0	0.0787	Open
P5569	J55_4	J55_5	150.00	300.0	125.0	0.1083	Open
P5570	J55_4	J56_4	150.00	150.0	130.0	0.0700	Open
P5571	J55_5	J55_6	150.00	250.0	140.0	0.1274	Open
P5572	J55_5	J56_5	150.00	200.0	135.0	0.1022	Open
P5573	J55_6	J55_7	150.00	250.0	125.0	0.0208	Open
P5574	J55_6	J56_6	150.00	300.0	135.0	0.0825	Open
P5575	J55_7	J55_8	150.00	300.0	130.0	0.0024	Open
P5576	J55_7	J56_7	150.00	100.0	135.0	0.1452	Open
P5577	J55_8	J55_9	150.00	100.0	135.0	0.0045	Open
P5578	J55_8	J56_8	150.00	250.0	140.0	0.0521	Open
P5579	J55_9	J55_10	150.00	250.0	135.0	0.0563	Open
P5580	J55_9	J56_9	150.00	300.0	135.0	0.0032	Open
P5581	J55_10	J55_11	150.00	200.0	140.0	0.0342	Open
P5582	J55_10	J56_10	150.00	250.0	140.0	0.0805	Open
P5583	J55_11	J55_12	150.00	500.0	120.0	0.0281	Open
P5584	J55_11	J56_11	150.00	600.0	130.0	0.0162	Open
P5585	J55_12	J55_13	150.00	300.0	130.0	0.1327	Open
P5586	J55_12	J56_12	150.00	250.0	140.0	0.0144	Open
P5587	J55_13	J55_14	150.00	150.0	125.0	0.0270	Open
P5588	J55_13	J56_13	150.00	150.0	130.0	0.0539	Open
P5589	J55_14	J55_15	150.00	300.0	140.0	0.1392	Open
P5590	J55_14	J56_14	150.00	150.0	130.0	0.0898	Open
P5591	J55_15	J55_16	150.00	300.0	135.0	0.0876	Open
P5592	J55_15	J56_15	150.00	200.0	130.0	0.0544	Open
P5593	J55_16	J55_17	150.00	200.0	125.0	0.0300	Open
P5594	J55_16	J56_16	150.00	300.0	135.0	0.0413	Open
P5595	J55_17	J55_18	150.00	300.0	135.0	0.1345	Open
P5596	J55_17	J56_17	150.00	250.0	140.0	0.0058	Open
P5597	J55_18	J55_19	150.00	300.0	135.0	0.0132	Open
P5598	J55_18	J56_18	150.00	200.0	125.0	0.0679	Open
P5599	J55_19	J55_20	150.00	250.0	140.0	0.0594	Open
P5600	J55_19	J56_19	150.00	150.0	135.0	0.0443	Open
P5601	J55_20	J55_21	150.00	300.0	135.0	0.0558	Open
P5602	J55_20	J56_20	150.00	200.0	125.0	0.0006	Open
P5603	J55_21	J55_22	150.00	500.0	125.0	0.0351	Open
P5604	J55_21	J56_21	150.00	500.0	125.0	0.0421	Open
P5605	J55_22	J55_23	150.00	300.0	125.0	0.1003	Open
P5606	J55_22	J56_22	150.00	300.0	125.0	0.1030	Open
P5607	J55_23	J55_24	150.00	300.0	140.0	0.0883	Open
P5608	J55_23	J56_23	150.00	300.0	130.0	0.0862	Open
P5609	J55_24	J55_25	150.00	300.0	125.0	0.0806	Open
P5610	J55_24	J56_24	150.00	200.0	135.0	0.0578	Open
P5611	J55_25	J55_26	150.00	150.0	140.0	0.1384	Open
P5612	J55_25	J56_25	150.00	250.0	125.0	0.1205	Open
P5613	J55_26	J55_27	150.00	300.0	135.0	0.0360	Open
P5614	J55_26	J56_26	150.00	100.0	130.0	0.1456	Open
P5615	J55_27	J55_28	150.00	200.0	130.0	0.0247	Open
P5616	J55_27	J56_27	150.00	100.0	135.0	0.0174	Open
P5617	J55_28	J55_29	150.00	250.0	140.0	0.0591	Open
P5618	J55_28	J56_28	150.00	100.0	130.0	0.1492	Open
P5619	J55_29	J55_30	150.00	300.0	140.0	0.0419	Open
P5620	J55_29	J56_29	150.00	150.0	125.0	0.0587	Open
P5621	J55_30	J55_31	150.00	250.0	125.0	0.1116	Open
P5622	J55_30	J56_30	150.00	100.0	135.0	0.1354	Open
P5623	J55_31	J55_32	150.00	400.0	125.0	0.0304	Open
P5624	J55_31	J56_31	150.00	450.0	125.0	0.0177	Open
P5625	J55_32	J55_33	150.00	250.0	140.0	0.0835	Open
P5626	J55_32	J56_32	150.00	300.0	135.0	0.0290	Open
P5627	J55_33	J55_34	150.00	250.0	130.0	0.0065	Open
P5628	J55_33	J56_33	150.00	250.0	130.0	0.1029	Open
P5629	J55_34	J55_35	150.00	100.0	135.0	0.0643	Open
P5630	J55_34	J56_34	150.00	200.0	135.0	0.1421	Open
P5631	J55_35	J55_36	150.00	300.0	135.0	0.1384	Open
P5632	J55_35	J56_35	150.00	200.0	140.0	0.1231	Open
P5633	J55_36	J55_37	150.00	250.0	140.0	0.1237	Open
P5634	J55_36	J56_36	150.00	300.0	125.0	0.0124	Open
P5635	J55_37	J55_38	150.00	300.0	140.0	0.1120	Open
P5636	J55_37	J56_37	150.00	300.0	135.0	0.0854	Open
P5637	J55_38	J55_39	150.00	100.0	125.0	0.0502	Open
P5638	J55_38	J56_38	150.00	250.0	130.0	0.0314	Open
P5639	J55_39	J55_40	150.00	150.0	125.0	0.0020	Open
P5640	J55_39	J56_39	150.00	150.0	135.0	0.0355	Open
P5641	J55_40	J55_41	150.00	200.0	140.0	0.0667	Open
P5642	J55_40	J56_40	150.00	300.0	125.0	0.0048	Open
P5643	J55_41	J55_42	150.00	350.0	125.0	0.0409	Open
P5644	J55_41	J56_41	150.00	500.0	120.0	0.0119	Open
P5645	J55_42	J55_43	150.00	250.0	135.0	0.0751	Open
P5646	J55_42	J56_42	150.00	100.0	130.0	0.1255	Open
P5647	J55_43	J55_44	150.00	200.0	140.0	0.0107	Open
P5648	J55_43	J56_43	150.00	100.0	125.0	0.0345	Open
P5649	J55_44	J55_45	150.00	300.0	135.0	0.1027	Open
P5650	J55_44	J56_44	150.00	150.0	125.0	0.0019	Open
P5651	J55_45	J55_46	150.00	200.0	130.0	0.1233	Open
P5652	J55_45	J56_45	150.00	300.0	140.0	0.0346	Open
P5653	J55_46	J55_47	150.00	250.0	140.0	0.0776	Open
P5654	J55_46	J56_46	150.00	100.0	135.0	0.0167	Open
P5655	J55_47	J55_48	150.00	100.0	125.0	0.1357	Open
P5656	J55_47	J56_47	150.00	200.0	135.0	0.1378	Open
P5657	J55_48	J55_49	150.00	150.0	125.0	0.0225	Open
P5658	J55_48	J56_48	150.00	300.0	140.0	0.0685	Open
P5659	J55_49	J55_50	150.00	250.0	140.0	0.0712	Open
P5660	J55_49	J56_49	150.00	250.0	130.0	0.0948	Open
P5661	J55_50	J55_51	150.00	300.0	140.0	0.0879	Open
P5662	J55_50	J56_50	150.00	100.0	140.0	0.0391	Open
P5663	J55_51	J55_52	150.00	450.0	130.0	0.0207	Open
P5664	J55_51	J56_51	150.00	300.0	130.0	0.0170	Open
P5665	J55_52	J56_52	150.00	150.0	125.0	0.0508	Open
P5666	J56_1	J56_2	150.00	500.0	120.0	0.0237	Open
P5667	J56_1	J57_1	150.00	400.0	120.0	0.0189	Open
P5668	J56_2	J56_3	150.00	300.0	140.0	0.1183	Open
P5669	J56_2	J57_2	150.00	150.0	130.0	0.0710	Open
P5670	J56_3	J56_4	150.00	150.0	140.0	0.0151	Open
P5671	J56_3	J57_3	150.00	300.0	135.0	0.0116	Open
P5672	J56_4	J56_5	150.00	100.0	135.0	0.0896	Open
P5673	J56_4	J57_4	150.00	300.0	140.0	0.0348	Open
P5674	J56_5	J56_6	150.00	200.0	135.0	0.0455	Open
P5675	J56_5	J57_5	150.00	100.0	130.0	0.0500	Open
P5676	J56_6	J56_7	150.00	150.0	130.0	0.0688	Open
P5677	J56_6	J57_6	150.00	100.0	130.0	0.0018	Open
P5678	J56_7	J56_8	150.00	100.0	135.0	0.0397	Open
P5679	J56_7	J57_7	150.00	300.0	140.0	0.0294	Open
P5680	J56_8	J56_9	150.00	100.0	125.0	0.1493	Open
P5681	J56_8	J57_8	150.00	300.0	125.0	0.0975	Open
P5682	J56_9	J56_10	150.00	250.0	125.0	0.0040	Open
P5683	J56_9	J57_9	150.00	200.0	125.0	0.1415	Open
P5684	J56_10	J56_11	150.00	100.0	140.0	0.0587	Open
P5685	J56_10	J57_10	150.00	100.0	135.0	0.1153	Open
P5686	J56_11	J56_12	150.00	450.0	130.0	0.0362	Open
P5687	J56_11	J57_11	150.00	600.0	125.0	0.0215	Open
P5688	J56_12	J56_13	150.00	150.0	140.0	0.0815	Open
P5689	J56_12	J57_12	150.00	200.0	125.0	0.0406	Open
P5690	J56_13	J56_14	150.00	250.0	125.0	0.0934	Open
P5691	J56_13	J57_13	150.00	250.0	130.0	0.0829	Open
P5692	J56_14	J56_15	150.00	100.0	130.0	0.0995	Open
P5693	J56_14	J57_14	150.00	200.0	125.0	0.0056	Open
P5694	J56_15	J56_16	150.00	100.0	140.0	0.0450	Open
P5695	J56_15	J57_15	150.00	200.0	140.0	0.1270	Open
P5696	J56_16	J56_17	150.00	300.0	135.0	0.0929	Open
P5697	J56_16	J57_16	150.00	200.0	140.0	0.0815	Open
P5698	J56_17	J56_18	150.00	300.0	140.0	0.1456	Open
P5699	J56_17	J57_17	150.00	100.0	140.0	0.0193	Open
P5700	J56_18	J56_19	150.00	150.0	140.0	0.1121	Open
P5701	J56_18	J57_18	150.00	100.0	130.0	0.0297	Open
P5702	J56_19	J56_20	150.00	300.0	130.0	0.1441	Open
P5703	J56_19	J57_19	150.00	250.0	135.0	0.0158	Open
P5704	J56_20	J56_21	150.00	200.0	135.0	0.0375	Open
P5705	J56_20	J57_20	150.00	100.0	125.0	0.0443	Open
P5706	J56_21	J56_22	150.00	350.0	125.0	0.0391	Open
P5707	J56_21	J57_21	150.00	450.0	130.0	0.0257	Open
P5708	J56_22	J56_23	150.00	300.0	125.0	0.0107	Open
P5709	J56_22	J57_22	150.00	200.0	125.0	0.1178	Open
P5710	J56_23	J56_24	150.00	150.0	125.0	0.1340	Open
P5711	J56_23	J57_23	150.00	200.0	140.0	0.0636	Open
P5712	J56_24	J56_25	150.00	200.0	140.0	0.1418	Open
P5713	J56_24	J57_24	150.00	250.0	125.0	0.0387	Open
P5714	J56_25	J56_26	150.00	250.0	135.0	0.0017	Open
P5715	J56_25	J57_25	150.00	200.0	130.0	0.0215	Open
P5716	J56_26	J56_27	150.00	100.0	140.0	0.1400	Open
P5717	J56_26	J57_26	150.00	150.0	125.0	0.0730	Open
P5718	J56_27	J56_28	150.00	250.0	125.0	0.1072	Open
P5719	J56_27	J57_27	150.00	150.0	140.0	0.0482	Open
P5720	J56_28	J56_29	150.00	300.0	135.0	0.0185	Open
P5721	J56_28	J57_28	150.00	300.0	140.0	0.0926	Open
P5722	J56_29	J56_30	150.00	250.0	140.0	0.1318	Open
P5723	J56_29	J57_29	150.00	300.0	135.0	0.1327	Open
P5724	J56_30	J56_31	150.00	100.0	125.0	0.1318	Open
P5725	J56_30	J57_30	150.00	200.0	135.0	0.0271	Open
P5726	J56_31	J56_32	150.00	300.0	125.0	0.0236	Open
P5727	J56_31	J57_31	150.00	600.0	125.0	0.0175	Open
P5728	J56_32	J56_33	150.00	200.0	135.0	0.0334	Open
P5729	J56_32	J57_32	150.00	150.0	130.0	0.1331	Open
P5730	J56_33	J56_34	150.00	250.0	130.0	0.1025	Open
P5731	J56_33	J57_33	150.00	250.0	140.0	0.0650	Open
P5732	J56_34	J56_35	150.00	250.0	125.0	0.0925	Open
P5733	J56_34	J57_34	150.00	200.0	125.0	0.1361	Open
P5734	J56_35	J56_36	150.00	200.0	135.0	0.0060	Open
P5735	J56_35	J57_35	150.00	300.0	135.0	0.0420	Open
P5736	J56_36	J56_37	150.00	250.0	140.0	0.1092	Open
P5737	J56_36	J57_36	150.00	200.0	140.0	0.0979	Open
P5738	J56_37	J56_38	150.00	100.0	135.0	0.0622	Open
P5739	J56_37	J57_37	150.00	300.0	130.0	0.0342	Open
P5740	J56_38	J56_39	150.00	250.0	140.0	0.0342	Open
P5741	J56_38	J57_38	150.00	200.0	135.0	0.0614	Open
P5742	J56_39	J56_40	150.00	300.0	130.0	0.1354	Open
P5743	J56_39	J57_39	150.00	200.0	125.0	0.0638	Open
P5744	J56_40	J56_41	150.00	200.0	140.0	0.0031	Open
P5745	J56_40	J57_40	150.00	200.0	125.0	0.0700	Open
P5746	J56_41	J56_42	150.00	350.0	125.0	0.0463	Open
P5747	J56_41	J57_41	150.00	400.0	130.0	0.0279	Open
P5748	J56_42	J56_43	150.00	200.0	125.0	0.1281	Open
P5749	J56_42	J57_42	150.00	300.0	140.0	0.1358	Open
P5750	J56_43	J56_44	150.00	150.0	130.0	0.0163	Open
P5751	J56_43	J57_43	150.00	300.0	125.0	0.0449	Open
P5752	J56_44	J56_45	150.00	100.0	140.0	0.1470	Open
P5753	J56_44	J57_44	150.00	250.0	135.0	0.0988	Open
P5754	J56_45	J56_46	150.00	200.0	135.0	0.1255	Open
P5755	J56_45	J57_45	150.00	200.0	130.0	0.1173	Open
P5756	J56_46	J56_47	150.00	300.0	140.0	0.0098	Open
P5757	J56_46	J57_46	150.00	300.0	140.0	0.0001	Open
P5758	J56_47	J56_48	150.00	250.0	135.0	0.1095	Open
P5759	J56_47	J57_47	150.00	100.0	125.0	0.0677	Open
P5760	J56_48	J56_49	150.00	200.0	125.0	0.1235	Open
P5761	J56_48	J57_48	150.00	200.0	125.0	0.0362	Open
P5762	J56_49	J56_50	150.00	100.0	135.0	0.1492	Open
P5763	J56_49	J57_49	150.00	250.0	135.0	0.0314	Open
P5764	J56_50	J56_51	150.00	100.0	130.0	0.0516	Open
P5765	J56_50	J57_50	150.00	250.0	125.0	0.0984	Open
P5766	J56_51	J56_52	150.00	600.0	125.0	0.0036	Open
P5767	J56_51	J57_51	150.00	600.0	130.0	0.0398	Open
P5768	J56_52	J57_52	150.00	150.0	140.0	0.0640	Open
P5769	J57_1	J57_2	150.00	400.0	125.0	0.0484	Open
P5770	J57_1	J58_1	150.00	600.0	125.0	0.0289	Open
P5771	J57_2	J57_3	150.00	150.0	125.0	0.1326	Open
P5772	J57_2	J58_2	150.00	200.0	125.0	0.1376	Open
P5773	J57_3	J57_4	150.00	300.0	130.0	0.0459	Open
P5774	J57_3	J58_3	150.00	200.0	140.0	0.0061	Open
P5775	J57_4	J57_5	150.00	200.0	140.0	0.0568	Open
P5776	J57_4	J58_4	150.00	100.0	130.0	0.1059	Open
P5777	J57_5	J57_6	150.00	100.0	135.0	0.1357	Open
P5778	J57_5	J58_5	150.00	100.0	130.0	0.1210	Open
P5779	J57_6	J57_7	150.00	150.0	125.0	0.1153	Open
P5780	J57_6	J58_6	150.00	300.0	135.0	0.0216	Open
P5781	J57_7	J57_8	150.00	300.0	140.0	0.0814	Open
P5782	J57_7	J58_7	150.00	200.0	130.0	0.0735	Open
P5783	J57_8	J57_9	150.00	250.0	130.0	0.0571	Open
P5784	J57_8	J58_8	150.00	100.0	140.0	0.0045	Open
P5785	J57_9	J57_10	150.00	150.0	140.0	0.0396	Open
P5786	J57_9	J58_9	150.00	300.0	135.0	0.1444	Open
P5787	J57_10	J57_11	150.00	250.0	140.0	0.1076	Open
P5788	J57_10	J58_10	150.00	100.0	140.0	0.0984	Open
P5789	J57_11	J57_12	150.00	400.0	130.0	0.0070	Open
P5790	J57_11	J58_11	150.00	500.0	130.0	0.0015	Open
P5791	J57_12	J57_13	150.00	100.0	140.0	0.0904	Open
P5792	J57_12	J58_12	150.00	200.0	135.0	0.0768	Open
P5793	J57_13	J57_14	150.00	200.0	135.0	0.0178	Open
P5794	J57_13	J58_13	150.00	200.0	135.0	0.0022	Open
P5795	J57_14	J57_15	150.00	100.0	140.0	0.1257	Open
P5796	J57_14	J58_14	150.00	100.0	135.0	0.0192	Open
P5797	J57_15	J57_16	150.00	250.0	130.0	0.1193	Open
P5798	J57_15	J58_15	150.00	100.0	135.0	0.0374	Open
P5799	J57_16	J57_17	150.00	100.0	130.0	0.0979	Open
P5800	J57_16	J58_16	150.00	250.0	140.0	0.0580	Open
P5801	J57_17	J57_18	150.00	200.0	130.0	0.0712	Open
P5802	J57_17	J58_17	150.00	300.0	125.0	0.0320	Open
P5803	J57_18	J57_19	150.00	100.0	140.0	0.0045	Open
P5804	J57_18	J58_18	150.00	300.0	135.0	0.1419	Open
P5805	J57_19	J57_20	150.00	250.0	130.0	0.0810	Open
P5806	J57_19	J58_19	150.00	200.0	125.0	0.1425	Open
P5807	J57_20	J57_21	150.00	250.0	140.0	0.1443	Open
P5808	J57_20	J58_20	150.00	200.0	130.0	0.0184	Open
P5809	J57_21	J57_22	150.00	600.0	130.0	0.0146	Open
P5810	J57_21	J58_21	150.00	350.0	130.0	0.0202	Open
P5811	J57_22	J57_23	150.00	200.0	140.0	0.1029	Open
P5812	J57_22	J58_22	150.00	250.0	140.0	0.0992	Open
P5813	J57_23	J57_24	150.00	300.0	130.0	0.0907	Open
P5814	J57_23	J58_23	150.00	100.0	140.0	0.0294	Open
P5815	J57_24	J57_25	150.00	300.0	130.0	0.1284	Open
P5816	J57_24	J58_24	150.00	250.0	135.0	0.1385	Open
P5817	J57_25	J57_26	150.00	250.0	130.0	0.1424	Open
P5818	J57_25	J58_25	150.00	250.0	140.0	0.0431	Open
P5819	J57_26	J57_27	150.00	250.0	130.0	0.0269	Open
P5820	J57_26	J58_26	150.00	200.0	135.0	0.1267	Open
P5821	J57_27	J57_28	150.00	300.0	140.0	0.0801	Open
P5822	J57_27	J58_27	150.00	100.0	140.0	0.0199	Open
P5823	J57_28	J57_29	150.00	100.0	140.0	0.0185	Open
P5824	J57_28	J58_28	150.00	150.0	125.0	0.1216	Open
P5825	J57_29	J57_30	150.00	300.0	135.0	0.0693	Open
P5826	J57_29	J58_29	150.00	150.0	125.0	0.0519	Open
P5827	J57_30	J57_31	150.00	200.0	130.0	0.0701	Open
P5828	J57_30	J58_30	150.00	100.0	125.0	0.1087	Open
P5829	J57_31	J57_32	150.00	350.0	130.0	0.0293	Open
P5830	J57_31	J58_31	150.00	300.0	130.0	0.0104	Open
P5831	J57_32	J57_33	150.00	150.0	130.0	0.0879	Open
P5832	J57_32	J58_32	150.00	200.0	130.0	0.0532	Open
P5833	J57_33	J57_34	150.00	200.0	130.0	0.0036	Open
P5834	J57_33	J58_33	150.00	150.0	130.0	0.1420	Open
P5835	J57_34	J57_35	150.00	150.0	140.0	0.1070	Open
P5836	J57_34	J58_34	150.00	150.0	130.0	0.1044	Open
P5837	J57_35	J57_36	150.00	100.0	130.0	0.1406	Open
P5838	J57_35	J58_35	150.00	200.0	130.0	0.1252	Open
P5839	J57_36	J57_37	150.00	300.0	140.0	0.1266	Open
P5840	J57_36	J58_36	150.00	300.0	125.0	0.1201	Open
P5841	J57_37	J57_38	150.00	150.0	130.0	0.1386	Open
P5842	J57_37	J58_37	150.00	300.0	125.0	0.1164	Open
P5843	J57_38	J57_39	150.00	100.0	130.0	0.0190	Open
P5844	J57_38	J58_38	150.00	200.0	135.0	0.1206	Open
P5845	J57_39	J57_40	150.00	200.0	140.0	0.0289	Open
P5846	J57_39	J58_39	150.00	150.0	140.0	0.1229	Open
P5847	J57_40	J57_41	150.00	200.0	125.0	0.0578	Open
P5848	J57_40	J58_40	150.00	150.0	125.0	0.0922	Open
P5849	J57_41	J57_42	150.00	400.0	125.0	0.0011	Open
P5850	J57_41	J58_41	150.00	450.0	120.0	0.0042	Open
P5851	J57_42	J57_43	150.00	300.0	125.0	0.0186	Open
P5852	J57_42	J58_42	150.00	300.0	130.0	0.1007	Open
P5853	J57_43	J57_44	150.00	200.0	140.0	0.0621	Open
P5854	J57_43	J58_43	150.00	300.0	135.0	0.1017	Open
P5855	J57_44	J57_45	150.00	100.0	140.0	0.0722	Open
P5856	J57_44	J58_44	150.00	200.0	130.0	0.0265	Open
P5857	J57_45	J57_46	150.00	150.0	140.0	0.0006	Open
P5858	J57_45	J58_45	150.00	250.0	140.0	0.0712	Open
P5859	J57_46	J57_47	150.00	100.0	130.0	0.0516	Open
P5860	J57_46	J58_46	150.00	100.0	140.0	0.1012	Open
P5861	J57_47	J57_48	150.00	200.0	135.0	0.1013	Open
P5862	J57_47	J58_47	150.00	150.0	135.0	0.1486	Open
P5863	J57_48	J57_49	150.00	300.0	130.0	0.0014	Open
P5864	J57_48	J58_48	150.00	200.0	140.0	0.0292	Open
P5865	J57_49	J57_50	150.00	200.0	135.0	0.0761	Open
P5866	J57_49	J58_49	150.00	100.0	135.0	0.0643	Open
P5867	J57_50	J57_51	150.00	200.0	140.0	0.0592	Open
P5868	J57_50	J58_50	150.00	100.0	125.0	0.0368	Open
P5869	J57_51	J57_52	150.00	500.0	130.0	0.0128	Open
P5870	J57_51	J58_51	150.00	350.0	125.0	0.0241	Open
P5871	J57_52	J58_52	150.00	250.0	135.0	0.0082	Open
P5872	J58_1	J58_2	150.00	400.0	125.0	0.0251	Open
P5873	J58_1	J59_1	150.00	600.0	120.0	0.0197	Open
P5874	J58_2	J58_3	150.00	100.0	140.0	0.0123	Open
P5875	J58_2	J59_2	150.00	100.0	135.0	0.1205	Open
P5876	J58_3	J58_4	150.00	250.0	130.0	0.0554	Open
P5877	J58_3	J59_3	150.00	100.0	140.0	0.0675	Open
P5878	J58_4	J58_5	150.00	250.0	140.0	0.0172	Open
P5879	J58_4	J59_4	150.00	150.0	135.0	0.0251	Open
P5880	J58_5	J58_6	150.00	200.0	140.0	0.0653	Open
P5881	J58_5	J59_5	150.00	300.0	135.0	0.0514	Open
P5882	J58_6	J58_7	150.00	100.0	135.0	0.1110	Open
P5883	J58_6	J59_6	150.00	100.0	125.0	0.1233	Open
P5884	J58_7	J58_8	150.00	200.0	135.0	0.0354	Open
P5885	J58_7	J59_7	150.00	250.0	125.0	0.0375	Open
P5886	J58_8	J58_9	150.00	150.0	135.0	0.1471	Open
P5887	J58_8	J59_8	150.00	200.0	130.0	0.0358	Open
P5888	J58_9	J58_10	150.00	150.0	140.0	0.0056	Open
P5889	J58_9	J59_9	150.00	250.0	135.0	0.0541	Open
P5890	J58_10	J58_11	150.00	250.0	140.0	0.1004	Open
P5891	J58_10	J59_10	150.00	100.0	125.0	0.1195	Open
P5892	J58_11	J58_12	150.00	600.0	130.0	0.0328	Open
P5893	J58_11	J59_11	150.00	300.0	130.0	0.0150	Open
P5894	J58_12	J58_13	150.00	200.0	135.0	0.0661	Open
P5895	J58_12	J59_12	150.00	150.0	130.0	0.1416	Open
P5896	J58_13	J58_14	150.00	300.0	140.0	0.0072	Open
P5897	J58_13	J59_13	150.00	100.0	130.0	0.0114	Open
P5898	J58_14	J58_15	150.00	100.0	135.0	0.0453	Open
P5899	J58_14	J59_14	150.00	150.0	130.0	0.0180	Open
P5900	J58_15	J58_16	150.00	150.0	130.0	0.1132	Open
P5901	J58_15	J59_15	150.00	100.0	130.0	0.0530	Open
P5902	J58_16	J58_17	150.00	100.0	135.0	0.0607	Open
P5903	J58_16	J59_16	150.00	100.0	130.0	0.1201	Open
P5904	J58_17	J58_18	150.00	150.0	140.0	0.1487	Open
P5905	J58_17	J59_17	150.00	150.0	135.0	0.1173	Open
P5906	J58_18	J58_19	150.00	250.0	130.0	0.1128	Open
P5907	J58_18	J59_18	150.00	100.0	130.0	0.0766	Open
P5908	J58_19	J58_20	150.00	250.0	125.0	0.0156	Open
P5909	J58_19	J59_19	150.00	150.0	140.0	0.0097	Open
P5910	J58_20	J58_21	150.00	200.0	125.0	0.0755	Open
P5911	J58_20	J59_20	150.00	300.0	130.0	0.1435	Open
P5912	J58_21	J58_22	150.00	500.0	120.0	0.0164	Open
P5913	J58_21	J59_21	150.00	350.0	120.0	0.0179	Open
P5914	J58_22	J58_23	150.00	100.0	125.0	0.0244	Open
P5915	J58_22	J59_22	150.00	150.0	130.0	0.0589	Open
P5916	J58_23	J58_24	150.00	150.0	140.0	0.0254	Open
P5917	J58_23	J59_23	150.00	100.0	130.0	0.1393	Open
P5918	J58_24	J58_25	150.00	100.0	130.0	0.0692	Open
P5919	J58_24	J59_24	150.00	100.0	130.0	0.1153	Open
P5920	J58_25	J58_26	150.00	250.0	130.0	0.0242	Open
P5921	J58_25	J59_25	150.00	250.0	140.0	0.0124	Open
P5922	J58_26	J58_27	150.00	200.0	125.0	0.0482	Open
P5923	J58_26	J59_26	150.00	100.0	125.0	0.1397	Open
P5924	J58_27	J58_28	150.00	300.0	125.0	0.1410	Open
P5925	J58_27	J59_27	150.00	300.0	140.0	0.1235	Open
P5926	J58_28	J58_29	150.00	300.0	135.0	0.1446	Open
P5927	J58_28	J59_28	150.00	100.0	130.0	0.0118	Open
P5928	J58_29	J58_30	150.00	100.0	135.0	0.0901	Open
P5929	J58_29	J59_29	150.00	100.0	125.0	0.0025	Open
P5930	J58_30	J58_31	150.00	200.0	140.0	0.0089	Open
P5931	J58_30	J59_30	150.00	100.0	130.0	0.1343	Open
P5932	J58_31	J58_32	150.00	300.0	120.0	0.0367	Open
P5933	J58_31	J59_31	150.00	600.0	125.0	0.0464	Open
P5934	J58_32	J58_33	150.00	300.0	125.0	0.1120	Open
P5935	J58_32	J59_32	150.00	250.0	125.0	0.1098	Open
P5936	J58_33	J58_34	150.00	200.0	135.0	0.0050	Open
P5937	J58_33	J59_33	150.00	200.0	140.0	0.0592	Open
P5938	J58_34	J58_35	150.00	250.0	125.0	0.0781	Open
P5939	J58_34	J59_34	150.00	150.0	125.0	0.0056	Open
P5940	J58_35	J58_36	150.00	150.0	130.0	0.1178	Open
P5941	J58_35	J59_35	150.00	200.0	130.0	0.0768	Open
P5942	J58_36	J58_37	150.00	300.0	135.0	0.0443	Open
P5943	J58_36	J59_36	150.00	150.0	140.0	0.0124	Open
P5944	J58_37	J58_38	150.00	150.0	135.0	0.1085	Open
P5945	J58_37	J59_37	150.00	300.0	130.0	0.0771	Open
P5946	J58_38	J58_39	150.00	200.0	140.0	0.0352	Open
P5947	J58_38	J59_38	150.00	250.0	135.0	0.0988	Open
P5948	J58_39	J58_40	150.00	250.0	130.0	0.0169	Open
P5949	J58_39	J59_39	150.00	200.0	135.0	0.0455	Open
P5950	J58_40	J58_41	150.00	200.0	130.0	0.1219	Open
P5951	J58_40	J59_40	150.00	200.0	135.0	0.0375	Open
P5952	J58_41	J58_42	150.00	600.0	120.0	0.0498	Open
P5953	J58_41	J59_41	150.00	350.0	125.0	0.0465	Open
P5954	J58_42	J58_43	150.00	100.0	130.0	0.0363	Open
P5955	J58_42	J59_42	150.00	200.0	135.0	0.0467	Open
P5956	J58_43	J58_44	150.00	150.0	130.0	0.1134	Open
P5957	J58_43	J59_43	150.00	250.0	140.0	0.0180	Open
P5958	J58_44	J58_45	150.00	100.0	125.0	0.0385	Open
P5959	J58_44	J59_44	150.00	250.0	125.0	0.0985	Open
P5960	J58_45	J58_46	150.00	100.0	130.0	0.0130	Open
P5961	J58_45	J59_45	150.00	200.0	130.0	0.0952	Open
P5962	J58_46	J58_47	150.00	250.0	140.0	0.1461	Open
P5963	J58_46	J59_46	150.00	150.0	125.0	0.1292	Open
P5964	J58_47	J58_48	150.00	250.0	140.0	0.1054	Open
P5965	J58_47	J59_47	150.00	250.0	140.0	0.0868	Open
P5966	J58_48	J58_49	150.00	150.0	140.0	0.0777	Open
P5967	J58_48	J59_48	150.00	200.0	140.0	0.0683	Open
P5968	J58_49	J58_50	150.00	100.0	140.0	0.0685	Open
P5969	J58_49	J59_49	150.00	250.0	135.0	0.1001	Open
P5970	J58_50	J58_51	150.00	150.0	135.0	0.0925	Open
P5971	J58_50	J59_50	150.00	250.0	135.0	0.0782	Open
P5972	J58_51	J58_52	150.00	350.0	120.0	0.0234	Open
P5973	J58_51	J59_51	150.00	300.0	125.0	0.0328	Open
P5974	J58_52	J59_52	150.00	200.0	125.0	0.1073	Open
P5975	J59_1	J59_2	150.00	500.0	120.0	0.0334	Open
P5976	J59_1	J60_1	150.00	300.0	120.0	0.0222	Open
P5977	J59_2	J59_3	150.00	100.0	140.0	0.0545	Open
P5978	J59_2	J60_2	150.00	100.0	125.0	0.1114	Open
P5979	J59_3	J59_4	150.00	250.0	135.0	0.0482	Open
P5980	J59_3	J60_3	150.00	250.0	130.0	0.1029	Open
P5981	J59_4	J59_5	150.00	200.0	125.0	0.1421	Open
P5982	J59_4	J60_4	150.00	250.0	140.0	0.1277	Open
P5983	J59_5	J59_6	150.00	100.0	125.0	0.1326	Open
P5984	J59_5	J60_5	150.00	200.0	130.0	0.0759	Open
P5985	J59_6	J59_7	150.00	300.0	125.0	0.0180	Open
P5986	J59_6	J60_6	150.00	250.0	130.0	0.0178	Open
P5987	J59_7	J59_8	150.00	250.0	130.0	0.0528	Open
P5988	J59_7	J60_7	150.00	100.0	140.0	0.1464	Open
P5989	J59_8	J59_9	150.00	150.0	135.0	0.1119	Open
P5990	J59_8	J60_8	150.00	250.0	140.0	0.0701	Open
P5991	J59_9	J59_10	150.00	150.0	135.0	0.0209	Open
P5992	J59_9	J60_9	150.00	200.0	130.0	0.0947	Open
P5993	J59_10	J59_11	150.00	300.0	130.0	0.0306	Open
P5994	J59_10	J60_10	150.00	200.0	140.0	0.0660	Open
P5995	J59_11	J59_12	150.00	450.0	125.0	0.0282	Open
P5996	J59_11	J60_11	150.00	350.0	120.0	0.0422	Open
P5997	J59_12	J59_13	150.00	150.0	140.0	0.0667	Open
P5998	J59_12	J60_12	150.00	250.0	125.0	0.1489	Open
P5999	J59_13	J59_14	150.00	200.0	135.0	0.0361	Open
P6000	J59_13	J60_13	150.00	250.0	135.0	0.0741	Open
P6001	J59_14	J59_15	150.00	250.0	140.0	0.1154	Open
P6002	J59_14	J60_14	150.00	100.0	130.0	0.1211	Open
P6003	J59_15	J59_16	150.00	200.0	140.0	0.0146	Open
P6004	J59_15	J60_15	150.00	250.0	140.0	0.1014	Open
P6005	J59_16	J59_17	150.00	250.0	135.0	0.0310	Open
P6006	J59_16	J60_16	150.00	200.0	130.0	0.0208	Open
P6007	J59_17	J59_18	150.00	250.0	125.0	0.0287	Open
P6008	J59_17	J60_17	150.00	250.0	140.0	0.1094	Open
P6009	J59_18	J59_19	150.00	250.0	135.0	0.1134	Open
P6010	J59_18	J60_18	150.00	300.0	130.0	0.0347	Open
P6011	J59_19	J59_20	150.00	100.0	130.0	0.0716	Open
P6012	J59_19	J60_19	150.00	300.0	135.0	0.0543	Open
P6013	J59_20	J59_21	150.00	150.0	135.0	0.0979	Open
P6014	J59_20	J60_20	150.00	150.0	140.0	0.1282	Open
P6015	J59_21	J59_22	150.00	450.0	130.0	0.0025	Open
P6016	J59_21	J60_21	150.00	600.0	120.0	0.0188	Open
P6017	J59_22	J59_23	150.00	200.0	130.0	0.0644	Open
P6018	J59_22	J60_22	150.00	150.0	140.0	0.0125	Open
P6019	J59_23	J59_24	150.00	250.0	135.0	0.0614	Open
P6020	J59_23	J60_23	150.00	100.0	135.0	0.1194	Open
P6021	J59_24	J59_25	150.00	100.0	135.0	0.0442	Open
P6022	J59_24	J60_24	150.00	200.0	130.0	0.1150	Open
P6023	J59_25	J59_26	150.00	300.0	140.0	0.1197	Open
P6024	J59_25	J60_25	150.00	150.0	135.0	0.1216	Open
P6025	J59_26	J59_27	150.00	200.0	130.0	0.0439	Open
P6026	J59_26	J60_26	150.00	300.0	125.0	0.0082	Open
P6027	J59_27	J59_28	150.00	300.0	130.0	0.0932	Open
P6028	J59_27	J60_27	150.00	250.0	125.0	0.0017	Open
P6029	J59_28	J59_29	150.00	100.0	140.0	0.0572	Open
P6030	J59_28	J60_28	150.00	100.0	135.0	0.0716	Open
P6031	J59_29	J59_30	150.00	250.0	135.0	0.0951	Open
P6032	J59_29	J60_29	150.00	300.0	130.0	0.0247	Open
P6033	J59_30	J59_31	150.00	250.0	130.0	0.0222	Open
P6034	J59_30	J60_30	150.00	250.0	135.0	0.0085	Open
P6035	J59_31	J59_32	150.00	450.0	130.0	0.0155	Open
P6036	J59_31	J60_31	150.00	450.0	120.0	0.0056	Open
P6037	J59_32	J59_33	150.00	100.0	130.0	0.1297	Open
P6038	J59_32	J60_32	150.00	300.0	140.0	0.0769	Open
P6039	J59_33	J59_34	150.00	250.0	135.0	0.1324	Open
P6040	J59_33	J60_33	150.00	250.0	130.0	0.1044	Open
P6041	J59_34	J59_35	150.00	300.0	135.0	0.0190	Open
P6042	J59_34	J60_34	150.00	150.0	135.0	0.0488	Open
P6043	J59_35	J59_36	150.00	100.0	135.0	0.0378	Open
P6044	J59_35	J60_35	150.00	300.0	135.0	0.0915	Open
P6045	J59_36	J59_37	150.00	150.0	130.0	0.0181	Open
P6046	J59_36	J60_36	150.00	250.0	130.0	0.1271	Open
P6047	J59_37	J59_38	150.00	300.0	130.0	0.1202	Open
P6048	J59_37	J60_37	150.00	300.0	135.0	0.0626	Open
P6049	J59_38	J59_39	150.00	100.0	125.0	0.0364	Open
P6050	J59_38	J60_38	150.00	100.0	135.0	0.0683	Open
P6051	J59_39	J59_40	150.00	200.0	140.0	0.0819	Open
P6052	J59_39	J60_39	150.00	150.0	125.0	0.0877	Open
P6053	J59_40	J59_41	150.00	150.0	125.0	0.1359	Open
P6054	J59_40	J60_40	150.00	250.0	125.0	0.0550	Open
P6055	J59_41	J59_42	150.00	350.0	130.0	0.0164	Open
P6056	J59_41	J60_41	150.00	500.0	125.0	0.0146	Open
P6057	J59_42	J59_43	150.00	200.0	140.0	0.0886	Open
P6058	J59_42	J60_42	150.00	200.0	130.0	0.1307	Open
P6059	J59_43	J59_44	150.00	250.0	125.0	0.1236	Open
P6060	J59_43	J60_43	150.00	300.0	125.0	0.0439	Open
P6061	J59_44	J59_45	150.00	250.0	140.0	0.1385	Open
P6062	J59_44	J60_44	150.00	300.0	135.0	0.0691	Open
P6063	J59_45	J59_46	150.00	150.0	125.0	0.1419	Open
P6064	J59_45	J60_45	150.00	100.0	135.0	0.1405	Open
P6065	J59_46	J59_47	150.00	200.0	130.0	0.0322	Open
P6066	J59_46	J60_46	150.00	150.0	130.0	0.0523	Open
P6067	J59_47	J59_48	150.00	200.0	125.0	0.0809	Open
P6068	J59_47	J60_47	150.00	250.0	125.0	0.0461	Open
P6069	J59_48	J59_49	150.00	300.0	140.0	0.1052	Open
P6070	J59_48	J60_48	150.00	150.0	140.0	0.1279	Open
P6071	J59_49	J59_50	150.00	150.0	135.0	0.0705	Open
P6072	J59_49	J60_49	150.00	150.0	125.0	0.1091	Open
P6073	J59_50	J59_51	150.00	200.0	140.0	0.0079	Open
P6074	J59_50	J60_50	150.00	100.0	130.0	0.0945	Open
P6075	J59_51	J59_52	150.00	450.0	125.0	0.0103	Open
P6076	J59_51	J60_51	150.00	600.0	120.0	0.0211	Open
P6077	J59_52	J60_52	150.00	150.0	130.0	0.0491	Open
P6078	J60_1	J60_2	150.00	450.0	120.0	0.0188	Open
P6079	J60_1	J61_1	150.00	400.0	120.0	0.0150	Open
P6080	J60_2	J60_3	150.00	100.0	135.0	0.1089	Open
P6081	J60_2	J61_2	150.00	300.0	125.0	0.1194	Open
P6082	J60_3	J60_4	150.00	100.0	125.0	0.0030	Open
P6083	J60_3	J61_3	150.00	200.0	130.0	0.0735	Open
P6084	J60_4	J60_5	150.00	250.0	140.0	0.0319	Open
P6085	J60_4	J61_4	150.00	200.0	135.0	0.0833	Open
P6086	J60_5	J60_6	150.00	200.0	125.0	0.0247	Open
P6087	J60_5	J61_5	150.00	250.0	125.0	0.0374	Open
P6088	J60_6	J60_7	150.00	200.0	130.0	0.0091	Open
P6089	J60_6	J61_6	150.00	150.0	130.0	0.0021	Open
P6090	J60_7	J60_8	150.00	100.0	125.0	0.1403	Open
P6091	J60_7	J61_7	150.00	300.0	135.0	0.0975	Open
P6092	J60_8	J60_9	150.00	250.0	130.0	0.0321	Open
P6093	J60_8	J61_8	150.00	150.0	125.0	0.1467	Open
P6094	J60_9	J60_10	150.00	200.0	135.0	0.0450	Open
P6095	J60_9	J61_9	150.00	300.0	135.0	0.0876	Open
P6096	J60_10	J60_11	150.00	100.0	140.0	0.0304	Open
P6097	J60_10	J61_10	150.00	100.0	130.0	0.1388	Open
P6098	J60_11	J60_12	150.00	450.0	130.0	0.0364	Open
P6099	J60_11	J61_11	150.00	400.0	125.0	0.0308	Open
P6100	J60_12	J60_13	150.00	100.0	125.0	0.0420	Open
P6101	J60_12	J61_12	150.00	300.0	125.0	0.0721	Open
P6102	J60_13	J60_14	150.00	150.0	135.0	0.0229	Open
P6103	J60_13	J61_13	150.00	100.0	125.0	0.1339	Open
P6104	J60_14	J60_15	150.00	300.0	125.0	0.1477	Open
P6105	J60_14	J61_14	150.00	100.0	135.0	0.1088	Open
P6106	J60_15	J60_16	150.00	200.0	135.0	0.0311	Open
P6107	J60_15	J61_15	150.00	200.0	135.0	0.0863	Open
P6108	J60_16	J60_17	150.00	250.0	140.0	0.1104	Open
P6109	J60_16	J61_16	150.00	150.0	130.0	0.0708	Open
P6110	J60_17	J60_18	150.00	300.0	130.0	0.1243	Open
P6111	J60_17	J61_17	150.00	250.0	140.0	0.1062	Open
P6112	J60_18	J60_19	150.00	300.0	130.0	0.0126	Open
P6113	J60_18	J61_18	150.00	250.0	140.0	0.0724	Open
P6114	J60_19	J60_20	150.00	250.0	125.0	0.1156	Open
P6115	J60_19	J61_19	150.00	150.0	130.0	0.1339	Open
P6116	J60_20	J60_21	150.00	150.0	135.0	0.0425	Open
P6117	J60_20	J61_20	150.00	250.0	140.0	0.0387	Open
P6118	J60_21	J60_22	150.00	400.0	130.0	0.0123	Open
P6119	J60_21	J61_21	150.00	500.0	120.0	0.0183	Open
P6120	J60_22	J60_23	150.00	100.0	130.0	0.0807	Open
P6121	J60_22	J61_22	150.00	100.0	135.0	0.0495	Open
P6122	J60_23	J60_24	150.00	250.0	140.0	0.1441	Open
P6123	J60_23	J61_23	150.00	200.0	130.0	0.0110	Open
P6124	J60_24	J60_25	150.00	100.0	135.0	0.0465	Open
P6125	J60_24	J61_24	150.00	200.0	125.0	0.1024	Open
P6126	J60_25	J60_26	150.00	100.0	130.0	0.1173	Open
P6127	J60_25	J61_25	150.00	100.0	130.0	0.0549	Open
P6128	J60_26	J60_27	150.00	200.0	135.0	0.0734	Open
P6129	J60_26	J61_26	150.00	100.0	135.0	0.0883	Open
P6130	J60_27	J60_28	150.00	150.0	130.0	0.1021	Open
P6131	J60_27	J61_27	150.00	150.0	130.0	0.0321	Open
P6132	J60_28	J60_29	150.00	200.0	140.0	0.0686	Open
P6133	J60_28	J61_28	150.00	100.0	140.0	0.1188	Open
P6134	J60_29	J60_30	150.00	300.0	135.0	0.1315	Open
P6135	J60_29	J61_29	150.00	200.0	135.0	0.1490	Open
P6136	J60_30	J60_31	150.00	100.0	140.0	0.0952	Open
P6137	J60_30	J61_30	150.00	200.0	125.0	0.0447	Open
P6138	J60_31	J60_32	150.00	400.0	130.0	0.0106	Open
P6139	J60_31	J61_31	150.00	300.0	125.0	0.0041	Open
P6140	J60_32	J60_33	150.00	150.0	125.0	0.0176	Open
P6141	J60_32	J61_32	150.00	200.0	140.0	0.0610	Open
P6142	J60_33	J60_34	150.00	250.0	135.0	0.0852	Open
P6143	J60_33	J61_33	150.00	200.0	130.0	0.1030	Open
P6144	J60_34	J60_35	150.00	300.0	135.0	0.1230	Open
P6145	J60_34	J61_34	150.00	100.0	140.0	0.0261	Open
P6146	J60_35	J60_36	150.00	100.0	130.0	0.0153	Open
P6147	J60_35	J61_35	150.00	200.0	140.0	0.0828	Open
P6148	J60_36	J60_37	150.00	200.0	140.0	0.1430	Open
P6149	J60_36	J61_36	150.00	300.0	130.0	0.0341	Open
P6150	J60_37	J60_38	150.00	150.0	125.0	0.1277	Open
P6151	J60_37	J61_37	150.00	200.0	135.0	0.0994	Open
P6152	J60_38	J60_39	150.00	100.0	125.0	0.0906	Open
P6153	J60_38	J61_38	150.00	250.0	125.0	0.1376	Open
P6154	J60_39	J60_40	150.00	200.0	135.0	0.1377	Open
P6155	J60_39	J61_39	150.00	200.0	130.0	0.1315	Open
P6156	J60_40	J60_41	150.00	250.0	125.0	0.1334	Open
P6157	J60_40	J61_40	150.00	200.0	140.0	0.1064	Open
P6158	J60_41	J60_42	150.00	600.0	130.0	0.0314	Open
P6159	J60_41	J61_41	150.00	400.0	120.0	0.0331	Open
P6160	J60_42	J60_43	150.00	200.0	135.0	0.1500	Open
P6161	J60_42	J61_42	150.00	200.0	125.0	0.0799	Open
P6162	J60_43	J60_44	150.00	250.0	140.0	0.0130	Open
P6163	J60_43	J61_43	150.00	300.0	135.0	0.0721	Open
P6164	J60_44	J60_45	150.00	300.0	140.0	0.0891	Open
P6165	J60_44	J61_44	150.00	150.0	125.0	0.0055	Open
P6166	J60_45	J60_46	150.00	250.0	130.0	0.0284	Open
P6167	J60_45	J61_45	150.00	100.0	135.0	0.0714	Open
P6168	J60_46	J60_47	150.00	300.0	130.0	0.0716	Open
P6169	J60_46	J61_46	150.00	100.0	135.0	0.0689	Open
P6170	J60_47	J60_48	150.00	200.0	125.0	0.1233	Open
P6171	J60_47	J61_47	150.00	200.0	130.0	0.0560	Open
P6172	J60_48	J60_49	150.00	150.0	140.0	0.0923	Open
P6173	J60_48	J61_48	150.00	150.0	135.0	0.1242	Open
P6174	J60_49	J60_50	150.00	250.0	135.0	0.1071	Open
P6175	J60_49	J61_49	150.00	300.0	140.0	0.0596	Open
P6176	J60_50	J60_51	150.00	100.0	130.0	0.1200	Open
P6177	J60_50	J61_50	150.00	100.0	140.0	0.0707	Open
P6178	J60_51	J60_52	150.00	350.0	120.0	0.0270	Open
P6179	J60_51	J61_51	150.00	450.0	125.0	0.0142	Open
P6180	J60_52	J61_52	150.00	250.0	125.0	0.0840	Open
P6181	J61_1	J61_2	150.00	350.0	125.0	0.0108	Open
P6182	J61_1	J62_1	150.00	500.0	125.0	0.0283	Open
P6183	J61_2	J61_3	150.00	350.0	125.0	0.0044	Open
P6184	J61_2	J62_2	150.00	350.0	125.0	0.0235	Open
P6185	J61_3	J61_4	150.00	600.0	130.0	0.0488	Open
P6186	J61_3	J62_3	150.00	500.0	125.0	0.0429	Open
P6187	J61_4	J61_5	150.00	600.0	130.0	0.0333	Open
P6188	J61_4	J62_4	150.00	400.0	130.0	0.0382	Open
P6189	J61_5	J61_6	150.00	300.0	120.0	0.0259	Open
P6190	J61_5	J62_5	150.00	500.0	125.0	0.0008	Open
P6191	J61_6	J61_7	150.00	600.0	130.0	0.0255	Open
P6192	J61_6	J62_6	150.00	400.0	120.0	0.0338	Open
P6193	J61_7	J61_8	150.00	600.0	120.0	0.0273	Open
P6194	J61_7	J62_7	150.00	400.0	130.0	0.0208	Open
P6195	J61_8	J61_9	150.00	500.0	125.0	0.0071	Open
P6196	J61_8	J62_8	150.00	300.0	130.0	0.0290	Open
P6197	J61_9	J61_10	150.00	500.0	130.0	0.0181	Open
P6198	J61_9	J62_9	150.00	600.0	130.0	0.0340	Open
P6199	J61_10	J61_11	150.00	400.0	130.0	0.0004	Open
P6200	J61_10	J62_10	150.00	350.0	120.0	0.0450	Open
P6201	J61_11	J61_12	150.00	300.0	120.0	0.0125	Open
P6202	J61_11	J62_11	150.00	450.0	130.0	0.0099	Open
P6203	J61_12	J61_13	150.00	450.0	130.0	0.0419	Open
P6204	J61_12	J62_12	150.00	300.0	130.0	0.0181	Open
P6205	J61_13	J61_14	150.00	350.0	130.0	0.0388	Open
P6206	J61_13	J62_13	150.00	500.0	130.0	0.0380	Open
P6207	J61_14	J61_15	150.00	600.0	120.0	0.0388	Open
P6208	J61_14	J62_14	150.00	400.0	120.0	0.0430	Open
P6209	J61_15	J61_16	150.00	300.0	130.0	0.0068	Open
P6210	J61_15	J62_15	150.00	450.0	125.0	0.0177	Open
P6211	J61_16	J61_17	150.00	400.0	125.0	0.0057	Open
P6212	J61_16	J62_16	150.00	450.0	125.0	0.0226	Open
P6213	J61_17	J61_18	150.00	400.0	120.0	0.0100	Open
P6214	J61_17	J62_17	150.00	300.0	120.0	0.0271	Open
P6215	J61_18	J61_19	150.00	300.0	125.0	0.0122	Open
P6216	J61_18	J62_18	150.00	300.0	125.0	0.0185	Open
P6217	J61_19	J61_20	150.00	600.0	125.0	0.0443	Open
P6218	J61_19	J62_19	150.00	400.0	130.0	0.0240	Open
P6219	J61_20	J61_21	150.00	400.0	130.0	0.0058	Open
P6220	J61_20	J62_20	150.00	300.0	130.0	0.0281	Open
P6221	J61_21	J61_22	150.00	450.0	125.0	0.0437	Open
P6222	J61_21	J62_21	150.00	600.0	120.0	0.0259	Open
P6223	J61_22	J61_23	150.00	400.0	125.0	0.0318	Open
P6224	J61_22	J62_22	150.00	400.0	125.0	0.0019	Open
P6225	J61_23	J61_24	150.00	450.0	130.0	0.0244	Open
P6226	J61_23	J62_23	150.00	400.0	125.0	0.0321	Open
P6227	J61_24	J61_25	150.00	350.0	130.0	0.0492	Open
P6228	J61_24	J62_24	150.00	300.0	130.0	0.0176	Open
P6229	J61_25	J61_26	150.00	300.0	130.0	0.0457	Open
P6230	J61_25	J62_25	150.00	300.0	130.0	0.0242	Open
P6231	J61_26	J61_27	150.00	400.0	125.0	0.0154	Open
P6232	J61_26	J62_26	150.00	450.0	130.0	0.0446	Open
P6233	J61_27	J61_28	150.00	350.0	130.0	0.0061	Open
P6234	J61_27	J62_27	150.00	600.0	125.0	0.0114	Open
P6235	J61_28	J61_29	150.00	600.0	130.0	0.0351	Open
P6236	J61_28	J62_28	150.00	400.0	130.0	0.0299	Open
P6237	J61_29	J61_30	150.00	500.0	125.0	0.0171	Open
P6238	J61_29	J62_29	150.00	450.0	125.0	0.0421	Open
P6239	J61_30	J61_31	150.00	450.0	125.0	0.0235	Open
P6240	J61_30	J62_30	150.00	600.0	125.0	0.0361	Open
P6241	J61_31	J61_32	150.00	450.0	130.0	0.0333	Open
P6242	J61_31	J62_31	150.00	500.0	130.0	0.0327	Open
P6243	J61_32	J61_33	150.00	300.0	120.0	0.0222	Open
P6244	J61_32	J62_32	150.00	450.0	120.0	0.0029	Open
P6245	J61_33	J61_34	150.00	350.0	120.0	0.0480	Open
P6246	J61_33	J62_33	150.00	350.0	125.0	0.0472	Open
P6247	J61_34	J61_35	150.00	450.0	120.0	0.0046	Open
P6248	J61_34	J62_34	150.00	500.0	125.0	0.0369	Open
P6249	J61_35	J61_36	150.00	350.0	120.0	0.0317	Open
P6250	J61_35	J62_35	150.00	500.0	120.0	0.0500	Open
P6251	J61_36	J61_37	150.00	500.0	125.0	0.0459	Open
P6252	J61_36	J62_36	150.00	500.0	120.0	0.0068	Open
P6253	J61_37	J61_38	150.00	600.0	130.0	0.0104	Open
P6254	J61_37	J62_37	150.00	500.0	125.0	0.0120	Open
P6255	J61_38	J61_39	150.00	500.0	125.0	0.0237	Open
P6256	J61_38	J62_38	150.00	350.0	130.0	0.0340	Open
P6257	J61_39	J61_40	150.00	300.0	125.0	0.0141	Open
P6258	J61_39	J62_39	150.00	400.0	120.0	0.0185	Open
P6259	J61_40	J61_41	150.00	600.0	120.0	0.0268	Open
P6260	J61_40	J62_40	150.00	450.0	120.0	0.0481	Open
P6261	J61_41	J61_42	150.00	450.0	120.0	0.0240	Open
P6262	J61_41	J62_41	150.00	400.0	120.0	0.0352	Open
P6263	J61_42	J61_43	150.00	450.0	125.0	0.0268	Open
P6264	J61_42	J62_42	150.00	300.0	130.0	0.0041	Open
P6265	J61_43	J61_44	150.00	600.0	125.0	0.0261	Open
P6266	J61_43	J62_43	150.00	600.0	120.0	0.0173	Open
P6267	J61_44	J61_45	150.00	600.0	120.0	0.0062	Open
P6268	J61_44	J62_44	150.00	350.0	120.0	0.0108	Open
P6269	J61_45	J61_46	150.00	350.0	130.0	0.0479	Open
P6270	J61_45	J62_45	150.00	400.0	130.0	0.0156	Open
P6271	J61_46	J61_47	150.00	400.0	130.0	0.0086	Open
P6272	J61_46	J62_46	150.00	450.0	130.0	0.0470	Open
P6273	J61_47	J61_48	150.00	600.0	125.0	0.0106	Open
P6274	J61_47	J62_47	150.00	500.0	125.0	0.0198	Open
P6275	J61_48	J61_49	150.00	600.0	130.0	0.0231	Open
P6276	J61_48	J62_48	150.00	400.0	125.0	0.0156	Open
P6277	J61_49	J61_50	150.00	600.0	125.0	0.0237	Open
P6278	J61_49	J62_49	150.00	350.0	125.0	0.0493	Open
P6279	J61_50	J61_51	150.00	500.0	120.0	0.0338	Open
P6280	J61_50	J62_50	150.00	350.0	120.0	0.0431	Open
P6281	J61_51	J61_52	150.00	400.0	120.0	0.0077	Open
P6282	J61_51	J62_51	150.00	500.0	125.0	0.0006	Open
P6283	J61_52	J62_52	150.00	450.0	125.0	0.0136	Open
P6284	J62_1	J62_2	150.00	400.0	125.0	0.0056	Open
P6285	J62_1	J63_1	150.00	400.0	120.0	0.0325	Open
P6286	J62_2	J62_3	150.00	100.0	135.0	0.0244	Open
P6287	J62_2	J63_2	150.00	150.0	140.0	0.0900	Open
P6288	J62_3	J62_4	150.00	200.0	130.0	0.1260	Open
P6289	J62_3	J63_3	150.00	200.0	130.0	0.0240	Open
P6290	J62_4	J62_5	150.00	200.0	130.0	0.0989	Open
P6291	J62_4	J63_4	150.00	100.0	130.0	0.1416	Open
P6292	J62_5	J62_6	150.00	150.0	125.0	0.0401	Open
P6293	J62_5	J63_5	150.00	150.0	140.0	0.0265	Open
P6294	J62_6	J62_7	150.00	150.0	130.0	0.0765	Open
P6295	J62_6	J63_6	150.00	300.0	130.0	0.0633	Open
P6296	J62_7	J62_8	150.00	300.0	135.0	0.0872	Open
P6297	J62_7	J63_7	150.00	250.0	125.0	0.0370	Open
P6298	J62_8	J62_9	150.00	300.0	130.0	0.0711	Open
P6299	J62_8	J63_8	150.00	150.0	130.0	0.0593	Open
P6300	J62_9	J62_10	150.00	150.0	125.0	0.0696	Open
P6301	J62_9	J63_9	150.00	150.0	130.0	0.1310	Open
P6302	J62_10	J62_11	150.00	300.0	125.0	0.1138	Open
P6303	J62_10	J63_10	150.00	200.0	130.0	0.0888	Open
P6304	J62_11	J62_12	150.00	350.0	130.0	0.0149	Open
P6305	J62_11	J63_11	150.00	300.0	130.0	0.0411	Open
P6306	J62_12	J62_13	150.00	300.0	125.0	0.1169	Open
P6307	J62_12	J63_12	150.00	100.0	125.0	0.0047	Open
P6308	J62_13	J62_14	150.00	150.0	130.0	0.0930	Open
P6309	J62_13	J63_13	150.00	150.0	135.0	0.1137	Open
P6310	J62_14	J62_15	150.00	200.0	140.0	0.1118	Open
P6311	J62_14	J63_14	150.00	250.0	125.0	0.1074	Open
P6312	J62_15	J62_16	150.00	100.0	130.0	0.1325	Open
P6313	J62_15	J63_15	150.00	250.0	130.0	0.0624	Open
P6314	J62_16	J62_17	150.00	250.0	130.0	0.1440	Open
P6315	J62_16	J63_16	150.00	300.0	140.0	0.0936	Open
P6316	J62_17	J62_18	150.00	100.0	140.0	0.1246	Open
P6317	J62_17	J63_17	150.00	300.0	125.0	0.0187	Open
P6318	J62_18	J62_19	150.00	300.0	125.0	0.0370	Open
P6319	J62_18	J63_18	150.00	250.0	140.0	0.0896	Open
P6320	J62_19	J62_20	150.00	200.0	125.0	0.0721	Open
P6321	J62_19	J63_19	150.00	100.0	130.0	0.0935	Open
P6322	J62_20	J62_21	150.00	300.0	130.0	0.0138	Open
P6323	J62_20	J63_20	150.00	200.0	140.0	0.0346	Open
P6324	J62_21	J62_22	150.00	500.0	130.0	0.0259	Open
P6325	J62_21	J63_21	150.00	400.0	130.0	0.0225	Open
P6326	J62_22	J62_23	150.00	250.0	140.0	0.1143	Open
P6327	J62_22	J63_22	150.00	300.0	135.0	0.0573	Open
P6328	J62_23	J62_24	150.00	100.0	140.0	0.0505	Open
P6329	J62_23	J63_23	150.00	200.0	135.0	0.0414	Open
P6330	J62_24	J62_25	150.00	300.0	135.0	0.1057	Open
P6331	J62_24	J63_24	150.00	200.0	135.0	0.1461	Open
P6332	J62_25	J62_26	150.00	300.0	125.0	0.0984	Open
P6333	J62_25	J63_25	150.00	250.0	140.0	0.0141	Open
P6334	J62_26	J62_27	150.00	200.0	130.0	0.0309	Open
P6335	J62_26	J63_26	150.00	200.0	135.0	0.0120	Open
P6336	J62_27	J62_28	150.00	250.0	135.0	0.1068	Open
P6337	J62_27	J63_27	150.00	100.0	135.0	0.1005	Open
P6338	J62_28	J62_29	150.00	250.0	135.0	0.0726	Open
P6339	J62_28	J63_28	150.00	150.0	125.0	0.0517	Open
P6340	J62_29	J62_30	150.00	100.0	130.0	0.0750	Open
P6341	J62_29	J63_29	150.00	100.0	135.0	0.1268	Open
P6342	J62_30	J62_31	150.00	100.0	125.0	0.0689	Open
P6343	J62_30	J63_30	150.00	250.0	130.0	0.0817	Open
P6344	J62_31	J62_32	150.00	300.0	130.0	0.0396	Open
P6345	J62_31	J63_31	150.00	350.0	130.0	0.0269	Open
P6346	J62_32	J62_33	150.00	300.0	130.0	0.0548	Open
P6347	J62_32	J63_32	150.00	250.0	125.0	0.1333	Open
P6348	J62_33	J62_34	150.00	300.0	125.0	0.0618	Open
P6349	J62_33	J63_33	150.00	200.0	125.0	0.0406	Open
P6350	J62_34	J62_35	150.00	150.0	130.0	0.0444	Open
P6351	J62_34	J63_34	150.00	150.0	130.0	0.0759	Open
P6352	J62_35	J62_36	150.00	200.0	125.0	0.1099	Open
P6353	J62_35	J63_35	150.00	100.0	140.0	0.0644	Open
P6354	J62_36	J62_37	150.00	150.0	125.0	0.0856	Open
P6355	J62_36	J63_36	150.00	100.0	140.0	0.1092	Open
P6356	J62_37	J62_38	150.00	100.0	125.0	0.0351	Open
P6357	J62_37	J63_37	150.00	200.0	130.0	0.0041	Open
P6358	J62_38	J62_39	150.00	100.0	125.0	0.0999	Open
P6359	J62_38	J63_38	150.00	150.0	130.0	0.1278	Open
P6360	J62_39	J62_40	150.00	250.0	140.0	0.0331	Open
P6361	J62_39	J63_39	150.00	300.0	125.0	0.1461	Open
P6362	J62_40	J62_41	150.00	300.0	135.0	0.1491	Open
P6363	J62_40	J63_40	150.00	300.0	130.0	0.0818	Open
P6364	J62_41	J62_42	150.00	350.0	130.0	0.0160	Open
P6365	J62_41	J63_41	150.00	350.0	130.0	0.0185	Open
P6366	J62_42	J62_43	150.00	150.0	140.0	0.0816	Open
P6367	J62_42	J63_42	150.00	250.0	135.0	0.0609	Open
P6368	J62_43	J62_44	150.00	100.0	140.0	0.0138	Open
P6369	J62_43	J63_43	150.00	100.0	140.0	0.1282	Open
P6370	J62_44	J62_45	150.00	100.0	130.0	0.1462	Open
P6371	J62_44	J63_44	150.00	100.0	125.0	0.1178	Open
P6372	J62_45	J62_46	150.00	200.0	130.0	0.1317	Open
P6373	J62_45	J63_45	150.00	250.0	140.0	0.0225	Open
P6374	J62_46	J62_47	150.00	250.0	140.0	0.0630	Open
P6375	J62_46	J63_46	150.00	200.0	125.0	0.1493	Open
P6376	J62_47	J62_48	150.00	300.0	125.0	0.0371	Open
P6377	J62_47	J63_47	150.00	250.0	140.0	0.0871	Open
P6378	J62_48	J62_49	150.00	300.0	140.0	0.0724	Open
P6379	J62_48	J63_48	150.00	100.0	135.0	0.1102	Open
P6380	J62_49	J62_50	150.00	100.0	140.0	0.0711	Open
P6381	J62_49	J63_49	150.00	250.0	130.0	0.1019	Open
P6382	J62_50	J62_51	150.00	150.0	140.0	0.0571	Open
P6383	J62_50	J63_50	150.00	200.0	135.0	0.0430	Open
P6384	J62_51	J62_52	150.00	450.0	130.0	0.0071	Open
P6385	J62_51	J63_51	150.00	500.0	125.0	0.0369	Open
P6386	J62_52	J63_52	150.00	250.0	135.0	0.0815	Open
P6387	J63_1	J63_2	150.00	300.0	130.0	0.0358	Open
P6388	J63_1	J64_1	150.00	450.0	120.0	0.0312	Open
P6389	J63_2	J63_3	150.00	200.0	125.0	0.0009	Open
P6390	J63_2	J64_2	150.00	100.0	125.0	0.1366	Open
P6391	J63_3	J63_4	150.00	100.0	140.0	0.0057	Open
P6392	J63_3	J64_3	150.00	300.0	135.0	0.0814	Open
P6393	J63_4	J63_5	150.00	200.0	125.0	0.0400	Open
P6394	J63_4	J64_4	150.00	200.0	135.0	0.0417	Open
P6395	J63_5	J63_6	150.00	300.0	125.0	0.1261	Open
P6396	J63_5	J64_5	150.00	300.0	130.0	0.0599	Open
P6397	J63_6	J63_7	150.00	100.0	135.0	0.0885	Open
P6398	J63_6	J64_6	150.00	250.0	130.0	0.1371	Open
P6399	J63_7	J63_8	150.00	200.0	130.0	0.0175	Open
P6400	J63_7	J64_7	150.00	300.0	125.0	0.1190	Open
P6401	J63_8	J63_9	150.00	100.0	135.0	0.0691	Open
P6402	J63_8	J64_8	150.00	150.0	135.0	0.0830	Open
P6403	J63_9	J63_10	150.00	100.0	135.0	0.0242	Open
P6404	J63_9	J64_9	150.00	150.0	135.0	0.1434	Open
P6405	J63_10	J63_11	150.00	200.0	130.0	0.1447	Open
P6406	J63_10	J64_10	150.00	200.0	130.0	0.0678	Open
P6407	J63_11	J63_12	150.00	600.0	120.0	0.0016	Open
P6408	J63_11	J64_11	150.00	350.0	120.0	0.0394	Open
P6409	J63_12	J63_13	150.00	250.0	125.0	0.1172	Open
P6410	J63_12	J64_12	150.00	250.0	130.0	0.0475	Open
P6411	J63_13	J63_14	150.00	150.0	140.0	0.1391	Open
P6412	J63_13	J64_13	150.00	100.0	140.0	0.1423	Open
P6413	J63_14	J63_15	150.00	250.0	135.0	0.1440	Open
P6414	J63_14	J64_14	150.00	100.0	130.0	0.1435	Open
P6415	J63_15	J63_16	150.00	100.0	140.0	0.1070	Open
P6416	J63_15	J64_15	150.00	200.0	125.0	0.0302	Open
P6417	J63_16	J63_17	150.00	200.0	135.0	0.0130	Open
P6418	J63_16	J64_16	150.00	150.0	130.0	0.0057	Open
P6419	J63_17	J63_18	150.00	250.0	125.0	0.0212	Open
P6420	J63_17	J64_17	150.00	200.0	135.0	0.0095	Open
P6421	J63_18	J63_19	150.00	200.0	140.0	0.0570	Open
P6422	J63_18	J64_18	150.00	250.0	135.0	0.0363	Open
P6423	J63_19	J63_20	150.00	200.0	135.0	0.1326	Open
P6424	J63_19	J64_19	150.00	150.0	140.0	0.1477	Open
P6425	J63_20	J63_21	150.00	250.0	135.0	0.0290	Open
P6426	J63_20	J64_20	150.00	250.0	135.0	0.0784	Open
P6427	J63_21	J63_22	150.00	400.0	120.0	0.0053	Open
P6428	J63_21	J64_21	150.00	500.0	120.0	0.0442	Open
P6429	J63_22	J63_23	150.00	250.0	140.0	0.0269	Open
P6430	J63_22	J64_22	150.00	250.0	135.0	0.1451	Open
P6431	J63_23	J63_24	150.00	150.0	130.0	0.0049	Open
P6432	J63_23	J64_23	150.00	250.0	135.0	0.0012	Open
P6433	J63_24	J63_25	150.00	150.0	140.0	0.0642	Open
P6434	J63_24	J64_24	150.00	150.0	135.0	0.1194	Open
P6435	J63_25	J63_26	150.00	250.0	130.0	0.0200	Open
P6436	J63_25	J64_25	150.00	200.0	130.0	0.0828	Open
P6437	J63_26	J63_27	150.00	200.0	130.0	0.0936	Open
P6438	J63_26	J64_26	150.00	150.0	125.0	0.0793	Open
P6439	J63_27	J63_28	150.00	200.0	125.0	0.0575	Open
P6440	J63_27	J64_27	150.00	200.0	125.0	0.0545	Open
P6441	J63_28	J63_29	150.00	300.0	130.0	0.1430	Open
P6442	J63_28	J64_28	150.00	150.0	130.0	0.0875	Open
P6443	J63_29	J63_30	150.00	250.0	130.0	0.0685	Open
P6444	J63_29	J64_29	150.00	200.0	135.0	0.0553	Open
P6445	J63_30	J63_31	150.00	250.0	135.0	0.1424	Open
P6446	J63_30	J64_30	150.00	200.0	125.0	0.0900	Open
P6447	J63_31	J63_32	150.00	450.0	125.0	0.0212	Open
P6448	J63_31	J64_31	150.00	600.0	125.0	0.0371	Open
P6449	J63_32	J63_33	150.00	300.0	135.0	0.1428	Open
P6450	J63_32	J64_32	150.00	250.0	135.0	0.0962	Open
P6451	J63_33	J63_34	150.00	150.0	125.0	0.0025	Open
P6452	J63_33	J64_33	150.00	100.0	125.0	0.0336	Open
P6453	J63_34	J63_35	150.00	150.0	135.0	0.1066	Open
P6454	J63_34	J64_34	150.00	200.0	140.0	0.0317	Open
P6455	J63_35	J63_36	150.00	150.0	130.0	0.1494	Open
P6456	J63_35	J64_35	150.00	100.0	130.0	0.0782	Open
P6457	J63_36	J63_37	150.00	300.0	125.0	0.1125	Open
P6458	J63_36	J64_36	150.00	150.0	135.0	0.1143	Open
P6459	J63_37	J63_38	150.00	300.0	125.0	0.0368	Open
P6460	J63_37	J64_37	150.00	200.0	125.0	0.0286	Open
P6461	J63_38	J63_39	150.00	200.0	125.0	0.1154	Open
P6462	J63_38	J64_38	150.00	100.0	135.0	0.1420	Open
P6463	J63_39	J63_40	150.00	200.0	130.0	0.1153	Open
P6464	J63_39	J64_39	150.00	100.0	140.0	0.1185	Open
P6465	J63_40	J63_41	150.00	200.0	130.0	0.0903	Open
P6466	J63_40	J64_40	150.00	150.0	125.0	0.1092	Open
P6467	J63_41	J63_42	150.00	500.0	125.0	0.0438	Open
P6468	J63_41	J64_41	150.00	600.0	130.0	0.0195	Open
P6469	J63_42	J63_43	150.00	200.0	125.0	0.1396	Open
P6470	J63_42	J64_42	150.00	300.0	140.0	0.0720	Open
P6471	J63_43	J63_44	150.00	300.0	135.0	0.0539	Open
P6472	J63_43	J64_43	150.00	150.0	125.0	0.0113	Open
P6473	J63_44	J63_45	150.00	100.0	130.0	0.0356	Open
P6474	J63_44	J64_44	150.00	150.0	140.0	0.0984	Open
P6475	J63_45	J63_46	150.00	300.0	135.0	0.0950	Open
P6476	J63_45	J64_45	150.00	300.0	130.0	0.1000	Open
P6477	J63_46	J63_47	150.00	150.0	125.0	0.0251	Open
P6478	J63_46	J64_46	150.00	150.0	140.0	0.0075	Open
P6479	J63_47	J63_48	150.00	100.0	125.0	0.0465	Open
P6480	J63_47	J64_47	150.00	250.0	135.0	0.0832	Open
P6481	J63_48	J63_49	150.00	100.0	130.0	0.1162	Open
P6482	J63_48	J64_48	150.00	100.0	130.0	0.0942	Open
P6483	J63_49	J63_50	150.00	200.0	130.0	0.0793	Open
P6484	J63_49	J64_49	150.00	150.0	130.0	0.1317	Open
P6485	J63_50	J63_51	150.00	200.0	135.0	0.0580	Open
P6486	J63_50	J64_50	150.00	150.0	125.0	0.1219	Open
P6487	J63_51	J63_52	150.00	400.0	120.0	0.0238	Open
P6488	J63_51	J64_51	150.00	350.0	120.0	0.0103	Open
P6489	J63_52	J64_52	150.00	300.0	130.0	0.0028	Open
P6490	J64_1	J64_2	150.00	450.0	120.0	0.0376	Open
P6491	J64_1	J65_1	150.00	400.0	130.0	0.0302	Open
P6492	J64_2	J64_3	150.00	250.0	125.0	0.1027	Open
P6493	J64_2	J65_2	150.00	300.0	130.0	0.0751	Open
P6494	J64_3	J64_4	150.00	200.0	135.0	0.1229	Open
P6495	J64_3	J65_3	150.00	150.0	135.0	0.0793	Open
P6496	J64_4	J64_5	150.00	300.0	130.0	0.0589	Open
P6497	J64_4	J65_4	150.00	300.0	140.0	0.1116	Open
P6498	J64_5	J64_6	150.00	250.0	125.0	0.1031	Open
P6499	J64_5	J65_5	150.00	250.0	125.0	0.0448	Open
P6500	J64_6	J64_7	150.00	250.0	130.0	0.0564	Open
P6501	J64_6	J65_6	150.00	150.0	140.0	0.1440	Open
P6502	J64_7	J64_8	150.00	150.0	130.0	0.1032	Open
P6503	J64_7	J65_7	150.00	200.0	140.0	0.1296	Open
P6504	J64_8	J64_9	150.00	200.0	140.0	0.0242	Open
P6505	J64_8	J65_8	150.00	250.0	135.0	0.0362	Open
P6506	J64_9	J64_10	150.00	200.0	125.0	0.0445	Open
P6507	J64_9	J65_9	150.00	300.0	140.0	0.0152	Open
P6508	J64_10	J64_11	150.00	300.0	125.0	0.1206	Open
P6509	J64_10	J65_10	150.00	200.0	125.0	0.0049	Open
P6510	J64_11	J64_12	150.00	500.0	120.0	0.0114	Open
P6511	J64_11	J65_11	150.00	500.0	120.0	0.0074	Open
P6512	J64_12	J64_13	150.00	300.0	125.0	0.0824	Open
P6513	J64_12	J65_12	150.00	300.0	140.0	0.0116	Open
P6514	J64_13	J64_14	150.00	200.0	130.0	0.1470	Open
P6515	J64_13	J65_13	150.00	200.0	135.0	0.0151	Open
P6516	J64_14	J64_15	150.00	100.0	135.0	0.0890	Open
P6517	J64_14	J65_14	150.00	100.0	140.0	0.0967	Open
P6518	J64_15	J64_16	150.00	100.0	130.0	0.1063	Open
P6519	J64_15	J65_15	150.00	250.0	130.0	0.0911	Open
P6520	J64_16	J64_17	150.00	200.0	130.0	0.0777	Open
P6521	J64_16	J65_16	150.00	200.0	125.0	0.1249	Open
P6522	J64_17	J64_18	150.00	100.0	130.0	0.0245	Open
P6523	J64_17	J65_17	150.00	300.0	130.0	0.0586	Open
P6524	J64_18	J64_19	150.00	100.0	135.0	0.1051	Open
P6525	J64_18	J65_18	150.00	250.0	130.0	0.1497	Open
P6526	J64_19	J64_20	150.00	300.0	125.0	0.0363	Open
P6527	J64_19	J65_19	150.00	200.0	135.0	0.0717	Open
P6528	J64_20	J64_21	150.00	200.0	140.0	0.0508	Open
P6529	J64_20	J65_20	150.00	100.0	125.0	0.0682	Open
P6530	J64_21	J64_22	150.00	350.0	125.0	0.0057	Open
P6531	J64_21	J65_21	150.00	450.0	130.0	0.0444	Open
P6532	J64_22	J64_23	150.00	250.0	140.0	0.0851	Open
P6533	J64_22	J65_22	150.00	100.0	135.0	0.1360	Open
P6534	J64_23	J64_24	150.00	100.0	130.0	0.0223	Open
P6535	J64_23	J65_23	150.00	300.0	125.0	0.0869	Open
P6536	J64_24	J64_25	150.00	300.0	130.0	0.0530	Open
P6537	J64_24	J65_24	150.00	200.0	130.0	0.0924	Open
P6538	J64_25	J64_26	150.00	300.0	140.0	0.0307	Open
P6539	J64_25	J65_25	150.00	300.0	135.0	0.0264	Open
P6540	J64_26	J64_27	150.00	200.0	130.0	0.0654	Open
P6541	J64_26	J65_26	150.00	300.0	140.0	0.0709	Open
P6542	J64_27	J64_28	150.00	150.0	130.0	0.0443	Open
P6543	J64_27	J65_27	150.00	100.0	130.0	0.0619	Open
P6544	J64_28	J64_29	150.00	250.0	130.0	0.0773	Open
P6545	J64_28	J65_28	150.00	150.0	125.0	0.0477	Open
P6546	J64_29	J64_30	150.00	200.0	130.0	0.1134	Open
P6547	J64_29	J65_29	150.00	300.0	130.0	0.1339	Open
P6548	J64_30	J64_31	150.00	100.0	135.0	0.0172	Open
P6549	J64_30	J65_30	150.00	100.0	140.0	0.0438	Open
P6550	J64_31	J64_32	150.00	350.0	125.0	0.0009	Open
P6551	J64_31	J65_31	150.00	500.0	130.0	0.0042	Open
P6552	J64_32	J64_33	150.00	250.0	130.0	0.0424	Open
P6553	J64_32	J65_32	150.00	150.0	130.0	0.0240	Open
P6554	J64_33	J64_34	150.00	200.0	130.0	0.1266	Open
P6555	J64_33	J65_33	150.00	250.0	140.0	0.1281	Open
P6556	J64_34	J64_35	150.00	300.0	125.0	0.0838	Open
P6557	J64_34	J65_34	150.00	100.0	140.0	0.0048	Open
P6558	J64_35	J64_36	150.00	100.0	140.0	0.0063	Open
P6559	J64_35	J65_35	150.00	100.0	125.0	0.1225	Open
P6560	J64_36	J64_37	150.00	300.0	135.0	0.1174	Open
P6561	J64_36	J65_36	150.00	150.0	140.0	0.0054	Open
P6562	J64_37	J64_38	150.00	250.0	135.0	0.1108	Open
P6563	J64_37	J65_37	150.00	100.0	125.0	0.0076	Open
P6564	J64_38	J64_39	150.00	250.0	140.0	0.0532	Open
P6565	J64_38	J65_38	150.00	100.0	135.0	0.0347	Open
P6566	J64_39	J64_40	150.00	200.0	125.0	0.0931	Open
P6567	J64_39	J65_39	150.00	250.0	125.0	0.0334	Open
P6568	J64_40	J64_41	150.00	200.0	130.0	0.0887	Open
P6569	J64_40	J65_40	150.00	200.0	140.0	0.0373	Open
P6570	J64_41	J64_42	150.00	600.0	130.0	0.0262	Open
P6571	J64_41	J65_41	150.00	300.0	120.0	0.0001	Open
P6572	J64_42	J64_43	150.00	250.0	125.0	0.0041	Open
P6573	J64_42	J65_42	150.00	150.0	130.0	0.0462	Open
P6574	J64_43	J64_44	150.00	250.0	135.0	0.0289	Open
P6575	J64_43	J65_43	150.00	200.0	140.0	0.0171	Open
P6576	J64_44	J64_45	150.00	300.0	130.0	0.1279	Open
P6577	J64_44	J65_44	150.00	150.0	140.0	0.1173	Open
P6578	J64_45	J64_46	150.00	200.0	140.0	0.0474	Open
P6579	J64_45	J65_45	150.00	100.0	135.0	0.0939	Open
P6580	J64_46	J64_47	150.00	250.0	130.0	0.0744	Open
P6581	J64_46	J65_46	150.00	200.0	140.0	0.0557	Open
P6582	J64_47	J64_48	150.00	150.0	135.0	0.0338	Open
P6583	J64_47	J65_47	150.00	100.0	135.0	0.0451	Open
P6584	J64_48	J64_49	150.00	300.0	140.0	0.0720	Open
P6585	J64_48	J65_48	150.00	150.0	130.0	0.1320	Open
P6586	J64_49	J64_50	150.00	100.0	135.0	0.0400	Open
P6587	J64_49	J65_49	150.00	300.0	130.0	0.1021	Open
P6588	J64_50	J64_51	150.00	100.0	135.0	0.0600	Open
P6589	J64_50	J65_50	150.00	250.0	140.0	0.1283	Open
P6590	J64_51	J64_52	150.00	500.0	125.0	0.0245	Open
P6591	J64_51	J65_51	150.00	500.0	120.0	0.0374	Open
P6592	J64_52	J65_52	150.00	100.0	125.0	0.0521	Open
P6593	J65_1	J65_2	150.00	500.0	120.0	0.0043	Open
P6594	J65_1	J66_1	150.00	450.0	120.0	0.0381	Open
P6595	J65_2	J65_3	150.00	100.0	140.0	0.1204	Open
P6596	J65_2	J66_2	150.00	250.0	130.0	0.0338	Open
P6597	J65_3	J65_4	150.00	250.0	140.0	0.0039	Open
P6598	J65_3	J66_3	150.00	150.0	140.0	0.0427	Open
P6599	J65_4	J65_5	150.00	150.0	125.0	0.0843	Open
P6600	J65_4	J66_4	150.00	150.0	140.0	0.0537	Open
P6601	J65_5	J65_6	150.00	100.0	140.0	0.1237	Open
P6602	J65_5	J66_5	150.00	150.0	125.0	0.1037	Open
P6603	J65_6	J65_7	150.00	150.0	135.0	0.0079	Open
P6604	J65_6	J66_6	150.00	250.0	130.0	0.0678	Open
P6605	J65_7	J65_8	150.00	100.0	130.0	0.0830	Open
P6606	J65_7	J66_7	150.00	200.0	135.0	0.0068	Open
P6607	J65_8	J65_9	150.00	300.0	135.0	0.0859	Open
P6608	J65_8	J66_8	150.00	150.0	125.0	0.1169	Open
P6609	J65_9	J65_10	150.00	250.0	135.0	0.0465	Open
P6610	J65_9	J66_9	150.00	250.0	125.0	0.0169	Open
P6611	J65_10	J65_11	150.00	300.0	125.0	0.0962	Open
P6612	J65_10	J66_10	150.00	150.0	140.0	0.0853	Open
P6613	J65_11	J65_12	150.00	350.0	120.0	0.0041	Open
P6614	J65_11	J66_11	150.00	350.0	125.0	0.0340	Open
P6615	J65_12	J65_13	150.00	200.0	130.0	0.0876	Open
P6616	J65_12	J66_12	150.00	100.0	140.0	0.1084	Open
P6617	J65_13	J65_14	150.00	300.0	140.0	0.1451	Open
P6618	J65_13	J66_13	150.00	150.0	135.0	0.0281	Open
P6619	J65_14	J65_15	150.00	300.0	140.0	0.0463	Open
P6620	J65_14	J66_14	150.00	250.0	125.0	0.0961	Open
P6621	J65_15	J65_16	150.00	200.0	130.0	0.0140	Open
P6622	J65_15	J66_15	150.00	200.0	125.0	0.0295	Open
P6623	J65_16	J65_17	150.00	100.0	140.0	0.0456	Open
P6624	J65_16	J66_16	150.00	100.0	135.0	0.1173	Open
P6625	J65_17	J65_18	150.00	100.0	135.0	0.0871	Open
P6626	J65_17	J66_17	150.00	250.0	135.0	0.1041	Open
P6627	J65_18	J65_19	150.00	150.0	140.0	0.1396	Open
P6628	J65_18	J66_18	150.00	200.0	125.0	0.1411	Open
P6629	J65_19	J65_20	150.00	300.0	125.0	0.0536	Open
P6630	J65_19	J66_19	150.00	100.0	130.0	0.1278	Open
P6631	J65_20	J65_21	150.00	250.0	140.0	0.1123	Open
P6632	J65_20	J66_20	150.00	200.0	140.0	0.0608	Open
P6633	J65_21	J65_22	150.00	300.0	120.0	0.0093	Open
P6634	J65_21	J66_21	150.00	350.0	125.0	0.0171	Open
P6635	J65_22	J65_23	150.00	250.0	135.0	0.0628	Open
P6636	J65_22	J66_22	150.00	150.0	140.0	0.1142	Open
P6637	J65_23	J65_24	150.00	150.0	130.0	0.0566	Open
P6638	J65_23	J66_23	150.00	150.0	135.0	0.1347	Open
P6639	J65_24	J65_25	150.00	100.0	135.0	0.1144	Open
P6640	J65_24	J66_24	150.00	200.0	125.0	0.1119	Open
P6641	J65_25	J65_26	150.00	300.0	135.0	0.1118	Open
P6642	J65_25	J66_25	150.00	300.0	125.0	0.0267	Open
P6643	J65_26	J65_27	150.00	100.0	140.0	0.1079	Open
P6644	J65_26	J66_26	150.00	100.0	125.0	0.1209	Open
P6645	J65_27	J65_28	150.00	300.0	140.0	0.1489	Open
P6646	J65_27	J66_27	150.00	100.0	130.0	0.1003	Open
P6647	J65_28	J65_29	150.00	250.0	125.0	0.1135	Open
P6648	J65_28	J66_28	150.00	300.0	130.0	0.1271	Open
P6649	J65_29	J65_30	150.00	200.0	135.0	0.0131	Open
P6650	J65_29	J66_29	150.00	300.0	135.0	0.0830	Open
P6651	J65_30	J65_31	150.00	300.0	140.0	0.0962	Open
P6652	J65_30	J66_30	150.00	150.0	135.0	0.1238	Open
P6653	J65_31	J65_32	150.00	450.0	130.0	0.0106	Open
P6654	J65_31	J66_31	150.00	450.0	120.0	0.0186	Open
P6655	J65_32	J65_33	150.00	300.0	140.0	0.1079	Open
P6656	J65_32	J66_32	150.00	100.0	125.0	0.0209	Open
P6657	J65_33	J65_34	150.00	300.0	135.0	0.1134	Open
P6658	J65_33	J66_33	150.00	200.0	140.0	0.1356	Open
P6659	J65_34	J65_35	150.00	150.0	140.0	0.0452	Open
P6660	J65_34	J66_34	150.00	250.0	130.0	0.1319	Open
P6661	J65_35	J65_36	150.00	300.0	125.0	0.0783	Open
P6662	J65_35	J66_35	150.00	300.0	135.0	0.0958	Open
P6663	J65_36	J65_37	150.00	300.0	125.0	0.1014	Open
P6664	J65_36	J66_36	150.00	150.0	140.0	0.0578	Open
P6665	J65_37	J65_38	150.00	200.0	140.0	0.0218	Open
P6666	J65_37	J66_37	150.00	300.0	140.0	0.1330	Open
P6667	J65_38	J65_39	150.00	250.0	130.0	0.0552	Open
P6668	J65_38	J66_38	150.00	100.0	130.0	0.1136	Open
P6669	J65_39	J65_40	150.00	300.0	125.0	0.1216	Open
P6670	J65_39	J66_39	150.00	100.0	135.0	0.0843	Open
P6671	J65_40	J65_41	150.00	100.0	135.0	0.0860	Open
P6672	J65_40	J66_40	150.00	250.0	125.0	0.0760	Open
P6673	J65_41	J65_42	150.00	350.0	125.0	0.0482	Open
P6674	J65_41	J66_41	150.00	500.0	120.0	0.0470	Open
P6675	J65_42	J65_43	150.00	150.0	135.0	0.0457	Open
P6676	J65_42	J66_42	150.00	100.0	140.0	0.0302	Open
P6677	J65_43	J65_44	150.00	150.0	140.0	0.0183	Open
P6678	J65_43	J66_43	150.00	250.0	130.0	0.0505	Open
P6679	J65_44	J65_45	150.00	250.0	135.0	0.0353	Open
P6680	J65_44	J66_44	150.00	150.0	130.0	0.0409	Open
P6681	J65_45	J65_46	150.00	100.0	130.0	0.1489	Open
P6682	J65_45	J66_45	150.00	300.0	130.0	0.1231	Open
P6683	J65_46	J65_47	150.00	150.0	130.0	0.0785	Open
P6684	J65_46	J66_46	150.00	100.0	130.0	0.0136	Open
P6685	J65_47	J65_48	150.00	300.0	125.0	0.0352	Open
P6686	J65_47	J66_47	150.00	150.0	140.0	0.0930	Open
P6687	J65_48	J65_49	150.00	250.0	140.0	0.1151	Open
P6688	J65_48	J66_48	150.00	150.0	140.0	0.0140	Open
P6689	J65_49	J65_50	150.00	300.0	135.0	0.0954	Open
P6690	J65_49	J66_49	150.00	100.0	135.0	0.0280	Open
P6691	J65_50	J65_51	150.00	150.0	125.0	0.0759	Open
P6692	J65_50	J66_50	150.00	100.0	130.0	0.1475	Open
P6693	J65_51	J65_52	150.00	400.0	120.0	0.0182	Open
P6694	J65_51	J66_51	150.00	350.0	130.0	0.0043	Open
P6695	J65_52	J66_52	150.00	250.0	140.0	0.0717	Open
P6696	J66_1	J66_2	150.00	450.0	125.0	0.0162	Open
P6697	J66_1	J67_1	150.00	400.0	130.0	0.0074	Open
P6698	J66_2	J66_3	150.00	100.0	140.0	0.1372	Open
P6699	J66_2	J67_2	150.00	200.0	140.0	0.0584	Open
P6700	J66_3	J66_4	150.00	250.0	125.0	0.0605	Open
P6701	J66_3	J67_3	150.00	100.0	140.0	0.1140	Open
P6702	J66_4	J66_5	150.00	200.0	135.0	0.0632	Open
P6703	J66_4	J67_4	150.00	200.0	130.0	0.0955	Open
P6704	J66_5	J66_6	150.00	200.0	125.0	0.0793	Open
P6705	J66_5	J67_5	150.00	300.0	130.0	0.0276	Open
P6706	J66_6	J66_7	150.00	100.0	130.0	0.0979	Open
P6707	J66_6	J67_6	150.00	250.0	125.0	0.0556	Open
P6708	J66_7	J66_8	150.00	150.0	125.0	0.0044	Open
P6709	J66_7	J67_7	150.00	200.0	130.0	0.1313	Open
P6710	J66_8	J66_9	150.00	100.0	140.0	0.0960	Open
P6711	J66_8	J67_8	150.00	200.0	135.0	0.0201	Open
P6712	J66_9	J66_10	150.00	250.0	125.0	0.1234	Open
P6713	J66_9	J67_9	150.00	300.0	130.0	0.0012	Open
P6714	J66_10	J66_11	150.00	300.0	135.0	0.0039	Open
P6715	J66_10	J67_10	150.00	200.0	135.0	0.0515	Open
P6716	J66_11	J66_12	150.00	600.0	130.0	0.0186	Open
P6717	J66_11	J67_11	150.00	400.0	130.0	0.0403	Open
P6718	J66_12	J66_13	150.00	250.0	135.0	0.0503	Open
P6719	J66_12	J67_12	150.00	150.0	130.0	0.0815	Open
P6720	J66_13	J66_14	150.00	100.0	140.0	0.0760	Open
P6721	J66_13	J67_13	150.00	100.0	140.0	0.1281	Open
P6722	J66_14	J66_15	150.00	200.0	140.0	0.0006	Open
P6723	J66_14	J67_14	150.00	250.0	130.0	0.1465	Open
P6724	J66_15	J66_16	150.00	200.0	140.0	0.0644	Open
P6725	J66_15	J67_15	150.00	300.0	135.0	0.1286	Open
P6726	J66_16	J66_17	150.00	150.0	130.0	0.1078	Open
P6727	J66_16	J67_16	150.00	200.0	135.0	0.0037	Open
P6728	J66_17	J66_18	150.00	200.0	125.0	0.0803	Open
P6729	J66_17	J67_17	150.00	200.0	135.0	0.1040	Open
P6730	J66_18	J66_19	150.00	150.0	130.0	0.1320	Open
P6731	J66_18	J67_18	150.00	100.0	135.0	0.1089	Open
P6732	J66_19	J66_20	150.00	200.0	125.0	0.0680	Open
P6733	J66_19	J67_19	150.00	150.0	130.0	0.0570	Open
P6734	J66_20	J66_21	150.00	100.0	125.0	0.0177	Open
P6735	J66_20	J67_20	150.00	150.0	135.0	0.1062	Open
P6736	J66_21	J66_22	150.00	400.0	130.0	0.0484	Open
P6737	J66_21	J67_21	150.00	350.0	125.0	0.0446	Open
P6738	J66_22	J66_23	150.00	300.0	135.0	0.1157	Open
P6739	J66_22	J67_22	150.00	150.0	130.0	0.0996	Open
P6740	J66_23	J66_24	150.00	250.0	140.0	0.1034	Open
P6741	J66_23	J67_23	150.00	200.0	125.0	0.1399	Open
P6742	J66_24	J66_25	150.00	250.0	130.0	0.0247	Open
P6743	J66_24	J67_24	150.00	100.0	130.0	0.1197	Open
P6744	J66_25	J66_26	150.00	100.0	140.0	0.0325	Open
P6745	J66_25	J67_25	150.00	250.0	130.0	0.0493	Open
P6746	J66_26	J66_27	150.00	100.0	140.0	0.0119	Open
P6747	J66_26	J67_26	150.00	250.0	125.0	0.1263	Open
P6748	J66_27	J66_28	150.00	150.0	135.0	0.0943	Open
P6749	J66_27	J67_27	150.00	300.0	125.0	0.0233	Open
P6750	J66_28	J66_29	150.00	250.0	125.0	0.0342	Open
P6751	J66_28	J67_28	150.00	300.0	140.0	0.1424	Open
P6752	J66_29	J66_30	150.00	100.0	130.0	0.0483	Open
P6753	J66_29	J67_29	150.00	150.0	125.0	0.0187	Open
P6754	J66_30	J66_31	150.00	150.0	140.0	0.0475	Open
P6755	J66_30	J67_30	150.00	100.0	130.0	0.0164	Open
P6756	J66_31	J66_32	150.00	400.0	120.0	0.0078	Open
P6757	J66_31	J67_31	150.00	350.0	125.0	0.0246	Open
P6758	J66_32	J66_33	150.00	150.0	135.0	0.0906	Open
P6759	J66_32	J67_32	150.00	100.0	125.0	0.1308	Open
P6760	J66_33	J66_34	150.00	300.0	125.0	0.0870	Open
P6761	J66_33	J67_33	150.00	300.0	135.0	0.0780	Open
P6762	J66_34	J66_35	150.00	250.0	125.0	0.1422	Open
P6763	J66_34	J67_34	150.00	250.0	130.0	0.1450	Open
P6764	J66_35	J66_36	150.00	150.0	135.0	0.0450	Open
P6765	J66_35	J67_35	150.00	250.0	125.0	0.0841	Open
P6766	J66_36	J66_37	150.00	150.0	140.0	0.1073	Open
P6767	J66_36	J67_36	150.00	200.0	130.0	0.0634	Open
P6768	J66_37	J66_38	150.00	150.0	135.0	0.0333	Open
P6769	J66_37	J67_37	150.00	100.0	140.0	0.0298	Open
P6770	J66_38	J66_39	150.00	100.0	140.0	0.0335	Open
P6771	J66_38	J67_38	150.00	150.0	135.0	0.0545	Open
P6772	J66_39	J66_40	150.00	200.0	140.0	0.0624	Open
P6773	J66_39	J67_39	150.00	100.0	130.0	0.1071	Open
P6774	J66_40	J66_41	150.00	150.0	135.0	0.1465	Open
P6775	J66_40	J67_40	150.00	300.0	135.0	0.0878	Open
P6776	J66_41	J66_42	150.00	450.0	125.0	0.0473	Open
P6777	J66_41	J67_41	150.00	400.0	125.0	0.0467	Open
P6778	J66_42	J66_43	150.00	200.0	135.0	0.0676	Open
P6779	J66_42	J67_42	150.00	300.0	135.0	0.0821	Open
P6780	J66_43	J66_44	150.00	150.0	125.0	0.0792	Open
P6781	J66_43	J67_43	150.00	250.0	140.0	0.0548	Open
P6782	J66_44	J66_45	150.00	150.0	130.0	0.0334	Open
P6783	J66_44	J67_44	150.00	100.0	135.0	0.0118	Open
P6784	J66_45	J66_46	150.00	150.0	135.0	0.0538	Open
P6785	J66_45	J67_45	150.00	250.0	130.0	0.1043	Open
P6786	J66_46	J66_47	150.00	300.0	125.0	0.0111	Open
P6787	J66_46	J67_46	150.00	200.0	140.0	0.0316	Open
P6788	J66_47	J66_48	150.00	300.0	140.0	0.0951	Open
P6789	J66_47	J67_47	150.00	150.0	125.0	0.0683	Open
P6790	J66_48	J66_49	150.00	150.0	135.0	0.1399	Open
P6791	J66_48	J67_48	150.00	100.0	125.0	0.1173	Open
P6792	J66_49	J66_50	150.00	150.0	125.0	0.0257	Open
P6793	J66_49	J67_49	150.00	300.0	140.0	0.0701	Open
P6794	J66_50	J66_51	150.00	100.0	140.0	0.0876	Open
P6795	J66_50	J67_50	150.00	150.0	135.0	0.1090	Open
P6796	J66_51	J66_52	150.00	300.0	125.0	0.0266	Open
P6797	J66_51	J67_51	150.00	600.0	130.0	0.0457	Open
P6798	J66_52	J67_52	150.00	300.0	130.0	0.0045	Open
P6799	J67_1	J67_2	150.00	350.0	130.0	0.0229	Open
P6800	J67_1	J68_1	150.00	300.0	130.0	0.0214	Open
P6801	J67_2	J67_3	150.00	200.0	135.0	0.0132	Open
P6802	J67_2	J68_2	150.00	150.0	125.0	0.1237	Open
P6803	J67_3	J67_4	150.00	300.0	125.0	0.1001	Open
P6804	J67_3	J68_3	150.00	150.0	125.0	0.0794	Open
P6805	J67_4	J67_5	150.00	250.0	130.0	0.0493	Open
P6806	J67_4	J68_4	150.00	200.0	130.0	0.0532	Open
P6807	J67_5	J67_6	150.00	200.0	135.0	0.0777	Open
P6808	J67_5	J68_5	150.00	100.0	130.0	0.1221	Open
P6809	J67_6	J67_7	150.00	300.0	125.0	0.0223	Open
P6810	J67_6	J68_6	150.00	150.0	125.0	0.0479	Open
P6811	J67_7	J67_8	150.00	250.0	140.0	0.0955	Open
P6812	J67_7	J68_7	150.00	300.0	140.0	0.0095	Open
P6813	J67_8	J67_9	150.00	300.0	140.0	0.0094	Open
P6814	J67_8	J68_8	150.00	150.0	125.0	0.1176	Open
P6815	J67_9	J67_10	150.00	150.0	135.0	0.1084	Open
P6816	J67_9	J68_9	150.00	300.0	135.0	0.0732	Open
P6817	J67_10	J67_11	150.00	300.0	140.0	0.0536	Open
P6818	J67_10	J68_10	150.00	200.0	135.0	0.1237	Open
P6819	J67_11	J67_12	150.00	500.0	130.0	0.0184	Open
P6820	J67_11	J68_11	150.00	400.0	130.0	0.0152	Open
P6821	J67_12	J67_13	150.00	100.0	135.0	0.1038	Open
P6822	J67_12	J68_12	150.00	250.0	140.0	0.0574	Open
P6823	J67_13	J67_14	150.00	250.0	130.0	0.1389	Open
P6824	J67_13	J68_13	150.00	250.0	140.0	0.1211	Open
P6825	J67_14	J67_15	150.00	200.0	140.0	0.0081	Open
P6826	J67_14	J68_14	150.00	200.0	130.0	0.0008	Open
P6827	J67_15	J67_16	150.00	200.0	135.0	0.0932	Open
P6828	J67_15	J68_15	150.00	200.0	140.0	0.0141	Open
P6829	J67_16	J67_17	150.00	250.0	135.0	0.1171	Open
P6830	J67_16	J68_16	150.00	150.0	130.0	0.0554	Open
P6831	J67_17	J67_18	150.00	100.0	125.0	0.1113	Open
P6832	J67_17	J68_17	150.00	250.0	125.0	0.0345	Open
P6833	J67_18	J67_19	150.00	150.0	135.0	0.1052	Open
P6834	J67_18	J68_18	150.00	200.0	135.0	0.0111	Open
P6835	J67_19	J67_20	150.00	300.0	140.0	0.0764	Open
P6836	J67_19	J68_19	150.00	300.0	135.0	0.0812	Open
P6837	J67_20	J67_21	150.00	250.0	135.0	0.1480	Open
P6838	J67_20	J68_20	150.00	300.0	135.0	0.0613	Open
P6839	J67_21	J67_22	150.00	400.0	130.0	0.0025	Open
P6840	J67_21	J68_21	150.00	450.0	125.0	0.0082	Open
P6841	J67_22	J67_23	150.00	250.0	140.0	0.0607	Open
P6842	J67_22	J68_22	150.00	150.0	130.0	0.0540	Open
P6843	J67_23	J67_24	150.00	200.0	135.0	0.0684	Open
P6844	J67_23	J68_23	150.00	250.0	125.0	0.1424	Open
P6845	J67_24	J67_25	150.00	200.0	135.0	0.0680	Open
P6846	J67_24	J68_24	150.00	300.0	140.0	0.0124	Open
P6847	J67_25	J67_26	150.00	300.0	140.0	0.0118	Open
P6848	J67_25	J68_25	150.00	200.0	135.0	0.0901	Open
P6849	J67_26	J67_27	150.00	200.0	125.0	0.0440	Open
P6850	J67_26	J68_26	150.00	150.0	140.0	0.1125	Open
P6851	J67_27	J67_28	150.00	150.0	130.0	0.1360	Open
P6852	J67_27	J68_27	150.00	150.0	135.0	0.1184	Open
P6853	J67_28	J67_29	150.00	250.0	130.0	0.1133	Open
P6854	J67_28	J68_28	150.00	250.0	135.0	0.0246	Open
P6855	J67_29	J67_30	150.00	250.0	140.0	0.0342	Open
P6856	J67_29	J68_29	150.00	250.0	130.0	0.1078	Open
P6857	J67_30	J67_31	150.00	200.0	125.0	0.1014	Open
P6858	J67_30	J68_30	150.00	300.0	140.0	0.0462	Open
P6859	J67_31	J67_32	150.00	600.0	125.0	0.0483	Open
P6860	J67_31	J68_31	150.00	400.0	130.0	0.0463	Open
P6861	J67_32	J67_33	150.00	300.0	140.0	0.0165	Open
P6862	J67_32	J68_32	150.00	200.0	125.0	0.0019	Open
P6863	J67_33	J67_34	150.00	200.0	125.0	0.1180	Open
P6864	J67_33	J68_33	150.00	100.0	130.0	0.0661	Open
P6865	J67_34	J67_35	150.00	150.0	135.0	0.0402	Open
P6866	J67_34	J68_34	150.00	300.0	135.0	0.0210	Open
P6867	J67_35	J67_36	150.00	100.0	125.0	0.0347	Open
P6868	J67_35	J68_35	150.00	100.0	135.0	0.1478	Open
P6869	J67_36	J67_37	150.00	200.0	125.0	0.1417	Open
P6870	J67_36	J68_36	150.00	250.0	130.0	0.0427	Open
P6871	J67_37	J67_38	150.00	150.0	130.0	0.1082	Open
P6872	J67_37	J68_37	150.00	150.0	140.0	0.1434	Open
P6873	J67_38	J67_39	150.00	150.0	140.0	0.1406	Open
P6874	J67_38	J68_38	150.00	300.0	135.0	0.0563	Open
P6875	J67_39	J67_40	150.00	300.0	125.0	0.0890	Open
P6876	J67_39	J68_39	150.00	150.0	140.0	0.1099	Open
P6877	J67_40	J67_41	150.00	100.0	130.0	0.0590	Open
P6878	J67_40	J68_40	150.00	150.0	140.0	0.0180	Open
P6879	J67_41	J67_42	150.00	400.0	120.0	0.0241	Open
P6880	J67_41	J68_41	150.00	350.0	120.0	0.0450	Open
P6881	J67_42	J67_43	150.00	250.0	140.0	0.1124	Open
P6882	J67_42	J68_42	150.00	200.0	125.0	0.0336	Open
P6883	J67_43	J67_44	150.00	200.0	125.0	0.1312	Open
P6884	J67_43	J68_43	150.00	250.0	135.0	0.1393	Open
P6885	J67_44	J67_45	150.00	150.0	130.0	0.0207	Open
P6886	J67_44	J68_44	150.00	100.0	130.0	0.0882	Open
P6887	J67_45	J67_46	150.00	200.0	125.0	0.1245	Open
P6888	J67_45	J68_45	150.00	250.0	135.0	0.0814	Open
P6889	J67_46	J67_47	150.00	250.0	135.0	0.0468	Open
P6890	J67_46	J68_46	150.00	200.0	135.0	0.0993	Open
P6891	J67_47	J67_48	150.00	250.0	140.0	0.1274	Open
P6892	J67_47	J68_47	150.00	250.0	130.0	0.0945	Open
P6893	J67_48	J67_49	150.00	100.0	135.0	0.0661	Open
P6894	J67_48	J68_48	150.00	100.0	140.0	0.1038	Open
P6895	J67_49	J67_50	150.00	100.0	135.0	0.0125	Open
P6896	J67_49	J68_49	150.00	250.0	140.0	0.0921	Open
P6897	J67_50	J67_51	150.00	200.0	135.0	0.0399	Open
P6898	J67_50	J68_50	150.00	200.0	125.0	0.0664	Open
P6899	J67_51	J67_52	150.00	450.0	120.0	0.0499	Open
P6900	J67_51	J68_51	150.00	400.0	130.0	0.0310	Open
P6901	J67_52	J68_52	150.00	200.0	135.0	0.1463	Open
P6902	J68_1	J68_2	150.00	450.0	125.0	0.0243	Open
P6903	J68_1	J69_1	150.00	600.0	130.0	0.0034	Open
P6904	J68_2	J68_3	150.00	200.0	130.0	0.0574	Open
P6905	J68_2	J69_2	150.00	300.0	135.0	0.1336	Open
P6906	J68_3	J68_4	150.00	150.0	125.0	0.0878	Open
P6907	J68_3	J69_3	150.00	150.0	130.0	0.0174	Open
P6908	J68_4	J68_5	150.00	100.0	125.0	0.0524	Open
P6909	J68_4	J69_4	150.00	250.0	135.0	0.0287	Open
P6910	J68_5	J68_6	150.00	250.0	135.0	0.0600	Open
P6911	J68_5	J69_5	150.00	250.0	135.0	0.0093	Open
P6912	J68_6	J68_7	150.00	150.0	140.0	0.1121	Open
P6913	J68_6	J69_6	150.00	300.0	140.0	0.0106	Open
P6914	J68_7	J68_8	150.00	200.0	130.0	0.0620	Open
P6915	J68_7	J69_7	150.00	300.0	135.0	0.0385	Open
P6916	J68_8	J68_9	150.00	300.0	125.0	0.1489	Open
P6917	J68_8	J69_8	150.00	100.0	125.0	0.0682	Open
P6918	J68_9	J68_10	150.00	200.0	140.0	0.0316	Open
P6919	J68_9	J69_9	150.00	300.0	140.0	0.0738	Open
P6920	J68_10	J68_11	150.00	150.0	135.0	0.0163	Open
P6921	J68_10	J69_10	150.00	100.0	140.0	0.0768	Open
P6922	J68_11	J68_12	150.00	400.0	120.0	0.0136	Open
P6923	J68_11	J69_11	150.00	450.0	125.0	0.0407	Open
P6924	J68_12	J68_13	150.00	200.0	130.0	0.1328	Open
P6925	J68_12	J69_12	150.00	250.0	130.0	0.0245	Open
P6926	J68_13	J68_14	150.00	150.0	130.0	0.1459	Open
P6927	J68_13	J69_13	150.00	100.0	125.0	0.0600	Open
P6928	J68_14	J68_15	150.00	300.0	125.0	0.1392	Open
P6929	J68_14	J69_14	150.00	200.0	130.0	0.0552	Open
P6930	J68_15	J68_16	150.00	250.0	135.0	0.1476	Open
P6931	J68_15	J69_15	150.00	150.0	125.0	0.1202	Open
P6932	J68_16	J68_17	150.00	100.0	140.0	0.1440	Open
P6933	J68_16	J69_16	150.00	100.0	130.0	0.0619	Open
P6934	J68_17	J68_18	150.00	100.0	125.0	0.1086	Open
P6935	J68_17	J69_17	150.00	200.0	135.0	0.0696	Open
P6936	J68_18	J68_19	150.00	250.0	130.0	0.0432	Open
P6937	J68_18	J69_18	150.00	250.0	135.0	0.1430	Open
P6938	J68_19	J68_20	150.00	250.0	130.0	0.0923	Open
P6939	J68_19	J69_19	150.00	150.0	140.0	0.0877	Open
P6940	J68_20	J68_21	150.00	100.0	140.0	0.0248	Open
P6941	J68_20	J69_20	150.00	250.0	140.0	0.1357	Open
P6942	J68_21	J68_22	150.00	500.0	120.0	0.0004	Open
P6943	J68_21	J69_21	150.00	300.0	125.0	0.0032	Open
P6944	J68_22	J68_23	150.00	150.0	130.0	0.0614	Open
P6945	J68_22	J69_22	150.00	250.0	135.0	0.0258	Open
P6946	J68_23	J68_24	150.00	100.0	125.0	0.1447	Open
P6947	J68_23	J69_23	150.00	250.0	140.0	0.0761	Open
P6948	J68_24	J68_25	150.00	300.0	140.0	0.0606	Open
P6949	J68_24	J69_24	150.00	300.0	140.0	0.0228	Open
P6950	J68_25	J68_26	150.00	300.0	130.0	0.0539	Open
P6951	J68_25	J69_25	150.00	300.0	140.0	0.1047	Open
P6952	J68_26	J68_27	150.00	100.0	135.0	0.0571	Open
P6953	J68_26	J69_26	150.00	250.0	140.0	0.0226	Open
P6954	J68_27	J68_28	150.00	150.0	125.0	0.1224	Open
P6955	J68_27	J69_27	150.00	200.0	140.0	0.1279	Open
P6956	J68_28	J68_29	150.00	250.0	130.0	0.1245	Open
P6957	J68_28	J69_28	150.00	300.0	140.0	0.0171	Open
P6958	J68_29	J68_30	150.00	150.0	135.0	0.0951	Open
P6959	J68_29	J69_29	150.00	100.0	125.0	0.0018	Open
P6960	J68_30	J68_31	150.00	100.0	125.0	0.1361	Open
P6961	J68_30	J69_30	150.00	200.0	125.0	0.0191	Open
P6962	J68_31	J68_32	150.00	600.0	130.0	0.0055	Open
P6963	J68_31	J69_31	150.00	300.0	125.0	0.0198	Open
P6964	J68_32	J68_33	150.00	300.0	140.0	0.0591	Open
P6965	J68_32	J69_32	150.00	100.0	135.0	0.0035	Open
P6966	J68_33	J68_34	150.00	300.0	140.0	0.1154	Open
P6967	J68_33	J69_33	150.00	300.0	140.0	0.0656	Open
P6968	J68_34	J68_35	150.00	200.0	140.0	0.0685	Open
P6969	J68_34	J69_34	150.00	150.0	135.0	0.0472	Open
P6970	J68_35	J68_36	150.00	100.0	140.0	0.0473	Open
P6971	J68_35	J69_35	150.00	150.0	130.0	0.1027	Open
P6972	J68_36	J68_37	150.00	200.0	125.0	0.0037	Open
P6973	J68_36	J69_36	150.00	300.0	125.0	0.1215	Open
P6974	J68_37	J68_38	150.00	100.0	130.0	0.0753	Open
P6975	J68_37	J69_37	150.00	300.0	130.0	0.0026	Open
P6976	J68_38	J68_39	150.00	250.0	125.0	0.1237	Open
P6977	J68_38	J69_38	150.00	300.0	130.0	0.0830	Open
P6978	J68_39	J68_40	150.00	150.0	130.0	0.0123	Open
P6979	J68_39	J69_39	150.00	200.0	135.0	0.0462	Open
P6980	J68_40	J68_41	150.00	200.0	125.0	0.1038	Open
P6981	J68_40	J69_40	150.00	200.0	135.0	0.0562	Open
P6982	J68_41	J68_42	150.00	500.0	125.0	0.0251	Open
P6983	J68_41	J69_41	150.00	600.0	125.0	0.0233	Open
P6984	J68_42	J68_43	150.00	250.0	135.0	0.1187	Open
P6985	J68_42	J69_42	150.00	300.0	130.0	0.0266	Open
P6986	J68_43	J68_44	150.00	150.0	125.0	0.1249	Open
P6987	J68_43	J69_43	150.00	100.0	140.0	0.1289	Open
P6988	J68_44	J68_45	150.00	300.0	125.0	0.0137	Open
P6989	J68_44	J69_44	150.00	250.0	140.0	0.0985	Open
P6990	J68_45	J68_46	150.00	300.0	130.0	0.1106	Open
P6991	J68_45	J69_45	150.00	300.0	135.0	0.0470	Open
P6992	J68_46	J68_47	150.00	250.0	125.0	0.0077	Open
P6993	J68_46	J69_46	150.00	250.0	140.0	0.0981	Open
P6994	J68_47	J68_48	150.00	100.0	130.0	0.0550	Open
P6995	J68_47	J69_47	150.00	100.0	135.0	0.1445	Open
P6996	J68_48	J68_49	150.00	250.0	135.0	0.0705	Open
P6997	J68_48	J69_48	150.00	100.0	130.0	0.0178	Open
P6998	J68_49	J68_50	150.00	100.0	130.0	0.0794	Open
P6999	J68_49	J69_49	150.00	250.0	130.0	0.0270	Open
P7000	J68_50	J68_51	150.00	300.0	125.0	0.0377	Open
P7001	J68_50	J69_50	150.00	300.0	140.0	0.1466	Open
P7002	J68_51	J68_52	150.00	300.0	130.0	0.0092	Open
P7003	J68_51	J69_51	150.00	300.0	120.0	0.0409	Open
P7004	J68_52	J69_52	150.00	100.0	125.0	0.0154	Open
P7005	J69_1	J69_2	150.00	350.0	125.0	0.0326	Open
P7006	J69_1	J70_1	150.00	450.0	125.0	0.0122	Open
P7007	J69_2	J69_3	150.00	200.0	135.0	0.0691	Open
P7008	J69_2	J70_2	150.00	100.0	130.0	0.0115	Open
P7009	J69_3	J69_4	150.00	250.0	140.0	0.1199	Open
P7010	J69_3	J70_3	150.00	200.0	125.0	0.0299	Open
P7011	J69_4	J69_5	150.00	100.0	140.0	0.0478	Open
P7012	J69_4	J70_4	150.00	100.0	135.0	0.1371	Open
P7013	J69_5	J69_6	150.00	300.0	130.0	0.0479	Open
P7014	J69_5	J70_5	150.00	300.0	135.0	0.0765	Open
P7015	J69_6	J69_7	150.00	100.0	140.0	0.0087	Open
P7016	J69_6	J70_6	150.00	100.0	130.0	0.1222	Open
P7017	J69_7	J69_8	150.00	200.0	135.0	0.0009	Open
P7018	J69_7	J70_7	150.00	100.0	130.0	0.0937	Open
P7019	J69_8	J69_9	150.00	300.0	140.0	0.1095	Open
P7020	J69_8	J70_8	150.00	200.0	140.0	0.1427	Open
P7021	J69_9	J69_10	150.00	300.0	130.0	0.0497	Open
P7022	J69_9	J70_9	150.00	300.0	125.0	0.0109	Open
P7023	J69_10	J69_11	150.00	100.0	130.0	0.1346	Open
P7024	J69_10	J70_10	150.00	100.0	130.0	0.0827	Open
P7025	J69_11	J69_12	150.00	450.0	120.0	0.0372	Open
P7026	J69_11	J70_11	150.00	600.0	130.0	0.0121	Open
P7027	J69_12	J69_13	150.00	300.0	125.0	0.1123	Open
P7028	J69_12	J70_12	150.00	200.0	140.0	0.0871	Open
P7029	J69_13	J69_14	150.00	250.0	135.0	0.0344	Open
P7030	J69_13	J70_13	150.00	300.0	130.0	0.0255	Open
P7031	J69_14	J69_15	150.00	200.0	140.0	0.1187	Open
P7032	J69_14	J70_14	150.00	200.0	130.0	0.0979	Open
P7033	J69_15	J69_16	150.00	100.0	130.0	0.0198	Open
P7034	J69_15	J70_15	150.00	200.0	140.0	0.0533	Open
P7035	J69_16	J69_17	150.00	100.0	140.0	0.0089	Open
P7036	J69_16	J70_16	150.00	250.0	140.0	0.1312	Open
P7037	J69_17	J69_18	150.00	200.0	130.0	0.0214	Open
P7038	J69_17	J70_17	150.00	300.0	140.0	0.0213	Open
P7039	J69_18	J69_19	150.00	250.0	135.0	0.1474	Open
P7040	J69_18	J70_18	150.00	150.0	130.0	0.1432	Open
P7041	J69_19	J69_20	150.00	250.0	135.0	0.1448	Open
P7042	J69_19	J70_19	150.00	150.0	135.0	0.0128	Open
P7043	J69_20	J69_21	150.00	300.0	135.0	0.0907	Open
P7044	J69_20	J70_20	150.00	150.0	140.0	0.0981	Open
P7045	J69_21	J69_22	150.00	300.0	125.0	0.0151	Open
P7046	J69_21	J70_21	150.00	600.0	130.0	0.0318	Open
P7047	J69_22	J69_23	150.00	300.0	140.0	0.0933	Open
P7048	J69_22	J70_22	150.00	150.0	135.0	0.0107	Open
P7049	J69_23	J69_24	150.00	300.0	135.0	0.0763	Open
P7050	J69_23	J70_23	150.00	200.0	135.0	0.1252	Open
P7051	J69_24	J69_25	150.00	250.0	125.0	0.0701	Open
P7052	J69_24	J70_24	150.00	200.0	130.0	0.0023	Open
P7053	J69_25	J69_26	150.00	300.0	130.0	0.1438	Open
P7054	J69_25	J70_25	150.00	250.0	140.0	0.0103	Open
P7055	J69_26	J69_27	150.00	250.0	140.0	0.1492	Open
P7056	J69_26	J70_26	150.00	250.0	140.0	0.0867	Open
P7057	J69_27	J69_28	150.00	150.0	130.0	0.0840	Open
P7058	J69_27	J70_27	150.00	300.0	130.0	0.0832	Open
P7059	J69_28	J69_29	150.00	150.0	125.0	0.1477	Open
P7060	J69_28	J70_28	150.00	200.0	135.0	0.0250	Open
P7061	J69_29	J69_30	150.00	150.0	135.0	0.1453	Open
P7062	J69_29	J70_29	150.00	300.0	140.0	0.0896	Open
P7063	J69_30	J69_31	150.00	150.0	125.0	0.0819	Open
P7064	J69_30	J70_30	150.00	250.0	135.0	0.0112	Open
P7065	J69_31	J69_32	150.00	300.0	130.0	0.0418	Open
P7066	J69_31	J70_31	150.00	500.0	120.0	0.0280	Open
P7067	J69_32	J69_33	150.00	150.0	125.0	0.0103	Open
P7068	J69_32	J70_32	150.00	100.0	125.0	0.1443	Open
P7069	J69_33	J69_34	150.00	250.0	130.0	0.0767	Open
P7070	J69_33	J70_33	150.00	100.0	140.0	0.0418	Open
P7071	J69_34	J69_35	150.00	100.0	130.0	0.1144	Open
P7072	J69_34	J70_34	150.00	250.0	130.0	0.0478	Open
P7073	J69_35	J69_36	150.00	300.0	140.0	0.0055	Open
P7074	J69_35	J70_35	150.00	150.0	130.0	0.0828	Open
P7075	J69_36	J69_37	150.00	100.0	140.0	0.1013	Open
P7076	J69_36	J70_36	150.00	250.0	135.0	0.1048	Open
P7077	J69_37	J69_38	150.00	100.0	135.0	0.1425	Open
P7078	J69_37	J70_37	150.00	250.0	135.0	0.0548	Open
P7079	J69_38	J69_39	150.00	250.0	125.0	0.0369	Open
P7080	J69_38	J70_38	150.00	200.0	130.0	0.0268	Open
P7081	J69_39	J69_40	150.00	100.0	140.0	0.0833	Open
P7082	J69_39	J70_39	150.00	250.0	125.0	0.0423	Open
P7083	J69_40	J69_41	150.00	250.0	125.0	0.0572	Open
P7084	J69_40	J70_40	150.00	100.0	135.0	0.1412	Open
P7085	J69_41	J69_42	150.00	500.0	120.0	0.0456	Open
P7086	J69_41	J70_41	150.00	500.0	130.0	0.0249	Open
P7087	J69_42	J69_43	150.00	100.0	135.0	0.0729	Open
P7088	J69_42	J70_42	150.00	100.0	135.0	0.0087	Open
P7089	J69_43	J69_44	150.00	300.0	140.0	0.0452	Open
P7090	J69_43	J70_43	150.00	100.0	135.0	0.0389	Open
P7091	J69_44	J69_45	150.00	200.0	135.0	0.1376	Open
P7092	J69_44	J70_44	150.00	250.0	135.0	0.1364	Open
P7093	J69_45	J69_46	150.00	150.0	140.0	0.0487	Open
P7094	J69_45	J70_45	150.00	300.0	140.0	0.0134	Open
P7095	J69_46	J69_47	150.00	150.0	135.0	0.0003	Open
P7096	J69_46	J70_46	150.00	250.0	125.0	0.0689	Open
P7097	J69_47	J69_48	150.00	250.0	140.0	0.1469	Open
P7098	J69_47	J70_47	150.00	300.0	125.0	0.0802	Open
P7099	J69_48	J69_49	150.00	100.0	135.0	0.0007	Open
P7100	J69_48	J70_48	150.00	100.0	130.0	0.0947	Open
P7101	J69_49	J69_50	150.00	300.0	125.0	0.1278	Open
P7102	J69_49	J70_49	150.00	150.0	125.0	0.0213	Open
P7103	J69_50	J69_51	150.00	200.0	125.0	0.0548	Open
P7104	J69_50	J70_50	150.00	100.0	135.0	0.0996	Open
P7105	J69_51	J69_52	150.00	350.0	125.0	0.0263	Open
P7106	J69_51	J70_51	150.00	600.0	120.0	0.0193	Open
P7107	J69_52	J70_52	150.00	200.0	135.0	0.0129	Open
P7108	J70_1	J70_2	150.00	600.0	120.0	0.0286	Open
P7109	J70_1	J71_1	150.00	600.0	120.0	0.0100	Open
P7110	J70_2	J70_3	150.00	300.0	125.0	0.1015	Open
P7111	J70_2	J71_2	150.00	100.0	125.0	0.0898	Open
P7112	J70_3	J70_4	150.00	300.0	135.0	0.0319	Open
P7113	J70_3	J71_3	150.00	150.0	135.0	0.0459	Open
P7114	J70_4	J70_5	150.00	300.0	130.0	0.0167	Open
P7115	J70_4	J71_4	150.00	100.0	125.0	0.0331	Open
P7116	J70_5	J70_6	150.00	150.0	130.0	0.0780	Open
P7117	J70_5	J71_5	150.00	250.0	135.0	0.0697	Open
P7118	J70_6	J70_7	150.00	300.0	125.0	0.0548	Open
P7119	J70_6	J71_6	150.00	150.0	130.0	0.0498	Open
P7120	J70_7	J70_8	150.00	150.0	125.0	0.0934	Open
P7121	J70_7	J71_7	150.00	300.0	125.0	0.0538	Open
P7122	J70_8	J70_9	150.00	150.0	140.0	0.0933	Open
P7123	J70_8	J71_8	150.00	250.0	140.0	0.0724	Open
P7124	J70_9	J70_10	150.00	150.0	140.0	0.0109	Open
P7125	J70_9	J71_9	150.00	250.0	130.0	0.0103	Open
P7126	J70_10	J70_11	150.00	300.0	130.0	0.0697	Open
P7127	J70_10	J71_10	150.00	100.0	140.0	0.0857	Open
P7128	J70_11	J70_12	150.00	350.0	125.0	0.0452	Open
P7129	J70_11	J71_11	150.00	500.0	120.0	0.0431	Open
P7130	J70_12	J70_13	150.00	250.0	140.0	0.0431	Open
P7131	J70_12	J71_12	150.00	150.0	140.0	0.1016	Open
P7132	J70_13	J70_14	150.00	300.0	140.0	0.1087	Open
P7133	J70_13	J71_13	150.00	300.0	140.0	0.0653	Open
P7134	J70_14	J70_15	150.00	300.0	140.0	0.0751	Open
P7135	J70_14	J71_14	150.00	250.0	125.0	0.1109	Open
P7136	J70_15	J70_16	150.00	200.0	135.0	0.1440	Open
P7137	J70_15	J71_15	150.00	300.0	130.0	0.1280	Open
P7138	J70_16	J70_17	150.00	100.0	125.0	0.1032	Open
P7139	J70_16	J71_16	150.00	200.0	125.0	0.0399	Open
P7140	J70_17	J70_18	150.00	100.0	130.0	0.0110	Open
P7141	J70_17	J71_17	150.00	100.0	130.0	0.1341	Open
P7142	J70_18	J70_19	150.00	250.0	125.0	0.1441	Open
P7143	J70_18	J71_18	150.00	300.0	125.0	0.1444	Open
P7144	J70_19	J70_20	150.00	250.0	130.0	0.1474	Open
P7145	J70_19	J71_19	150.00	300.0	135.0	0.1195	Open
P7146	J70_20	J70_21	150.00	100.0	135.0	0.1133	Open
P7147	J70_20	J71_20	150.00	250.0	140.0	0.1006	Open
P7148	J70_21	J70_22	150.00	500.0	125.0	0.0398	Open
P7149	J70_21	J71_21	150.00	600.0	125.0	0.0258	Open
P7150	J70_22	J70_23	150.00	150.0	130.0	0.1188	Open
P7151	J70_22	J71_22	150.00	250.0	130.0	0.0039	Open
P7152	J70_23	J70_24	150.00	200.0	135.0	0.1283	Open
P7153	J70_23	J71_23	150.00	200.0	125.0	0.0150	Open
P7154	J70_24	J70_25	150.00	250.0	125.0	0.0537	Open
P7155	J70_24	J71_24	150.00	250.0	135.0	0.1369	Open
P7156	J70_25	J70_26	150.00	300.0	130.0	0.0911	Open
P7157	J70_25	J71_25	150.00	200.0	130.0	0.0550	Open
P7158	J70_26	J70_27	150.00	200.0	140.0	0.1070	Open
P7159	J70_26	J71_26	150.00	300.0	140.0	0.0924	Open
P7160	J70_27	J70_28	150.00	300.0	140.0	0.0890	Open
P7161	J70_27	J71_27	150.00	300.0	125.0	0.0505	Open
P7162	J70_28	J70_29	150.00	200.0	140.0	0.0281	Open
P7163	J70_28	J71_28	150.00	150.0	135.0	0.1446	Open
P7164	J70_29	J70_30	150.00	300.0	140.0	0.1072	Open
P7165	J70_29	J71_29	150.00	300.0	130.0	0.1121	Open
P7166	J70_30	J70_31	150.00	200.0	140.0	0.0615	Open
P7167	J70_30	J71_30	150.00	150.0	125.0	0.1002	Open
P7168	J70_31	J70_32	150.00	500.0	130.0	0.0043	Open
P7169	J70_31	J71_31	150.00	350.0	125.0	0.0025	Open
P7170	J70_32	J70_33	150.00	250.0	140.0	0.0036	Open
P7171	J70_32	J71_32	150.00	250.0	140.0	0.0326	Open
P7172	J70_33	J70_34	150.00	100.0	140.0	0.1166	Open
P7173	J70_33	J71_33	150.00	100.0	130.0	0.0160	Open
P7174	J70_34	J70_35	150.00	200.0	125.0	0.0921	Open
P7175	J70_34	J71_34	150.00	250.0	130.0	0.0344	Open
P7176	J70_35	J70_36	150.00	200.0	140.0	0.0045	Open
P7177	J70_35	J71_35	150.00	300.0	140.0	0.1345	Open
P7178	J70_36	J70_37	150.00	100.0	125.0	0.0052	Open
P7179	J70_36	J71_36	150.00	100.0	125.0	0.0083	Open
P7180	J70_37	J70_38	150.00	100.0	140.0	0.1428	Open
P7181	J70_37	J71_37	150.00	200.0	125.0	0.0131	Open
P7182	J70_38	J70_39	150.00	300.0	140.0	0.0967	Open
P7183	J70_38	J71_38	150.00	200.0	140.0	0.0252	Open
P7184	J70_39	J70_40	150.00	150.0	130.0	0.1443	Open
P7185	J70_39	J71_39	150.00	300.0	125.0	0.0885	Open
P7186	J70_40	J70_41	150.00	300.0	125.0	0.1118	Open
P7187	J70_40	J71_40	150.00	300.0	130.0	0.1115	Open
P7188	J70_41	J70_42	150.00	450.0	120.0	0.0202	Open
P7189	J70_41	J71_41	150.00	500.0	130.0	0.0351	Open
P7190	J70_42	J70_43	150.00	200.0	130.0	0.1363	Open
P7191	J70_42	J71_42	150.00	300.0	140.0	0.1446	Open
P7192	J70_43	J70_44	150.00	300.0	125.0	0.0927	Open
P7193	J70_43	J71_43	150.00	300.0	130.0	0.0187	Open
P7194	J70_44	J70_45	150.00	150.0	140.0	0.0335	Open
P7195	J70_44	J71_44	150.00	100.0	130.0	0.1428	Open
P7196	J70_45	J70_46	150.00	100.0	135.0	0.0585	Open
P7197	J70_45	J71_45	150.00	150.0	130.0	0.0417	Open
P7198	J70_46	J70_47	150.00	150.0	130.0	0.0971	Open
P7199	J70_46	J71_46	150.00	100.0	140.0	0.0441	Open
P7200	J70_47	J70_48	150.00	300.0	140.0	0.0023	Open
P7201	J70_47	J71_47	150.00	300.0	125.0	0.0266	Open
P7202	J70_48	J70_49	150.00	250.0	135.0	0.0077	Open
P7203	J70_48	J71_48	150.00	150.0	135.0	0.0361	Open
P7204	J70_49	J70_50	150.00	200.0	130.0	0.0904	Open
P7205	J70_49	J71_49	150.00	250.0	140.0	0.0002	Open
P7206	J70_50	J70_51	150.00	250.0	125.0	0.1101	Open
P7207	J70_50	J71_50	150.00	100.0	125.0	0.1379	Open
P7208	J70_51	J70_52	150.00	500.0	130.0	0.0024	Open
P7209	J70_51	J71_51	150.00	500.0	120.0	0.0294	Open
P7210	J70_52	J71_52	150.00	200.0	135.0	0.0017	Open
P7211	J71_1	J71_2	150.00	500.0	130.0	0.0257	Open
P7212	J71_1	J72_1	150.00	400.0	130.0	0.0436	Open
P7213	J71_2	J71_3	150.00	500.0	130.0	0.0495	Open
P7214	J71_2	J72_2	150.00	500.0	130.0	0.0234	Open
P7215	J71_3	J71_4	150.00	350.0	125.0	0.0456	Open
P7216	J71_3	J72_3	150.00	400.0	130.0	0.0369	Open
P7217	J71_4	J71_5	150.00	600.0	120.0	0.0100	Open
P7218	J71_4	J72_4	150.00	450.0	120.0	0.0405	Open
P7219	J71_5	J71_6	150.00	600.0	130.0	0.0227	Open
P7220	J71_5	J72_5	150.00	350.0	130.0	0.0346	Open
P7221	J71_6	J71_7	150.00	300.0	130.0	0.0071	Open
P7222	J71_6	J72_6	150.00	350.0	120.0	0.0402	Open
P7223	J71_7	J71_8	150.00	300.0	120.0	0.0452	Open
P7224	J71_7	J72_7	150.00	500.0	130.0	0.0399	Open
P7225	J71_8	J71_9	150.00	500.0	120.0	0.0328	Open
P7226	J71_8	J72_8	150.00	450.0	120.0	0.0453	Open
P7227	J71_9	J71_10	150.00	450.0	120.0	0.0160	Open
P7228	J71_9	J72_9	150.00	500.0	120.0	0.0030	Open
P7229	J71_10	J71_11	150.00	300.0	120.0	0.0294	Open
P7230	J71_10	J72_10	150.00	400.0	125.0	0.0310	Open
P7231	J71_11	J71_12	150.00	450.0	130.0	0.0407	Open
P7232	J71_11	J72_11	150.00	300.0	125.0	0.0230	Open
P7233	J71_12	J71_13	150.00	600.0	130.0	0.0227	Open
P7234	J71_12	J72_12	150.00	300.0	120.0	0.0051	Open
P7235	J71_13	J71_14	150.00	500.0	130.0	0.0190	Open
P7236	J71_13	J72_13	150.00	600.0	130.0	0.0096	Open
P7237	J71_14	J71_15	150.00	300.0	125.0	0.0484	Open
P7238	J71_14	J72_14	150.00	350.0	125.0	0.0040	Open
P7239	J71_15	J71_16	150.00	450.0	125.0	0.0292	Open
P7240	J71_15	J72_15	150.00	450.0	125.0	0.0398	Open
P7241	J71_16	J71_17	150.00	600.0	130.0	0.0315	Open
P7242	J71_16	J72_16	150.00	500.0	125.0	0.0127	Open
P7243	J71_17	J71_18	150.00	350.0	125.0	0.0252	Open
P7244	J71_17	J72_17	150.00	300.0	130.0	0.0359	Open
P7245	J71_18	J71_19	150.00	600.0	125.0	0.0402	Open
P7246	J71_18	J72_18	150.00	350.0	125.0	0.0083	Open
P7247	J71_19	J71_20	150.00	350.0	120.0	0.0235	Open
P7248	J71_19	J72_19	150.00	400.0	130.0	0.0317	Open
P7249	J71_20	J71_21	150.00	600.0	125.0	0.0024	Open
P7250	J71_20	J72_20	150.00	500.0	120.0	0.0161	Open
P7251	J71_21	J71_22	150.00	600.0	130.0	0.0397	Open
P7252	J71_21	J72_21	150.00	400.0	120.0	0.0333	Open
P7253	J71_22	J71_23	150.00	450.0	130.0	0.0168	Open
P7254	J71_22	J72_22	150.00	400.0	120.0	0.0168	Open
P7255	J71_23	J71_24	150.00	500.0	125.0	0.0232	Open
P7256	J71_23	J72_23	150.00	600.0	125.0	0.0186	Open
P7257	J71_24	J71_25	150.00	500.0	120.0	0.0054	Open
P7258	J71_24	J72_24	150.00	500.0	130.0	0.0184	Open
P7259	J71_25	J71_26	150.00	600.0	130.0	0.0405	Open
P7260	J71_25	J72_25	150.00	350.0	130.0	0.0221	Open
P7261	J71_26	J71_27	150.00	300.0	125.0	0.0415	Open
P7262	J71_26	J72_26	150.00	400.0	130.0	0.0324	Open
P7263	J71_27	J71_28	150.00	450.0	125.0	0.0016	Open
P7264	J71_27	J72_27	150.00	600.0	120.0	0.0127	Open
P7265	J71_28	J71_29	150.00	500.0	125.0	0.0345	Open
P7266	J71_28	J72_28	150.00	600.0	125.0	0.0075	Open
P7267	J71_29	J71_30	150.00	600.0	130.0	0.0205	Open
P7268	J71_29	J72_29	150.00	300.0	125.0	0.0106	Open
P7269	J71_30	J71_31	150.00	450.0	130.0	0.0015	Open
P7270	J71_30	J72_30	150.00	600.0	130.0	0.0182	Open
P7271	J71_31	J71_32	150.00	600.0	130.0	0.0385	Open
P7272	J71_31	J72_31	150.00	400.0	130.0	0.0354	Open
P7273	J71_32	J71_33	150.00	600.0	120.0	0.0253	Open
P7274	J71_32	J72_32	150.00	450.0	125.0	0.0395	Open
P7275	J71_33	J71_34	150.00	400.0	125.0	0.0068	Open
P7276	J71_33	J72_33	150.00	600.0	120.0	0.0249	Open
P7277	J71_34	J71_35	150.00	350.0	125.0	0.0097	Open
P7278	J71_34	J72_34	150.00	450.0	120.0	0.0092	Open
P7279	J71_35	J71_36	150.00	600.0	125.0	0.0046	Open
P7280	J71_35	J72_35	150.00	350.0	125.0	0.0469	Open
P7281	J71_36	J71_37	150.00	600.0	120.0	0.0057	Open
P7282	J71_36	J72_36	150.00	400.0	120.0	0.0145	Open
P7283	J71_37	J71_38	150.00	300.0	125.0	0.0372	Open
P7284	J71_37	J72_37	150.00	450.0	120.0	0.0377	Open
P7285	J71_38	J71_39	150.00	450.0	130.0	0.0170	Open
P7286	J71_38	J72_38	150.00	300.0	125.0	0.0195	Open
P7287	J71_39	J71_40	150.00	600.0	130.0	0.0461	Open
P7288	J71_39	J72_39	150.00	400.0	120.0	0.0438	Open
P7289	J71_40	J71_41	150.00	450.0	130.0	0.0354	Open
P7290	J71_40	J72_40	150.00	450.0	130.0	0.0089	Open
P7291	J71_41	J71_42	150.00	450.0	130.0	0.0267	Open
P7292	J71_41	J72_41	150.00	500.0	120.0	0.0494	Open
P7293	J71_42	J71_43	150.00	350.0	125.0	0.0024	Open
P7294	J71_42	J72_42	150.00	500.0	130.0	0.0015	Open
P7295	J71_43	J71_44	150.00	600.0	130.0	0.0493	Open
P7296	J71_43	J72_43	150.00	300.0	120.0	0.0210	Open
P7297	J71_44	J71_45	150.00	400.0	130.0	0.0048	Open
P7298	J71_44	J72_44	150.00	450.0	125.0	0.0064	Open
P7299	J71_45	J71_46	150.00	300.0	120.0	0.0236	Open
P7300	J71_45	J72_45	150.00	300.0	125.0	0.0271	Open
P7301	J71_46	J71_47	150.00	600.0	125.0	0.0254	Open
P7302	J71_46	J72_46	150.00	300.0	125.0	0.0352	Open
P7303	J71_47	J71_48	150.00	600.0	120.0	0.0282	Open
P7304	J71_47	J72_47	150.00	400.0	125.0	0.0282	Open
P7305	J71_48	J71_49	150.00	600.0	125.0	0.0376	Open
P7306	J71_48	J72_48	150.00	600.0	130.0	0.0137	Open
P7307	J71_49	J71_50	150.00	350.0	120.0	0.0461	Open
P7308	J71_49	J72_49	150.00	450.0	130.0	0.0398	Open
P7309	J71_50	J71_51	150.00	500.0	125.0	0.0206	Open
P7310	J71_50	J72_50	150.00	400.0	120.0	0.0092	Open
P7311	J71_51	J71_52	150.00	450.0	130.0	0.0207	Open
P7312	J71_51	J72_51	150.00	600.0	130.0	0.0327	Open
P7313	J71_52	J72_52	150.00	500.0	125.0	0.0028	Open
P7314	J72_1	J72_2	150.00	300.0	130.0	0.0233	Open
P7315	J72_1	J73_1	150.00	600.0	120.0	0.0175	Open
P7316	J72_2	J72_3	150.00	100.0	125.0	0.0153	Open
P7317	J72_2	J73_2	150.00	100.0	125.0	0.0455	Open
P7318	J72_3	J72_4	150.00	150.0	125.0	0.0412	Open
P7319	J72_3	J73_3	150.00	100.0	135.0	0.0693	Open
P7320	J72_4	J72_5	150.00	300.0	125.0	0.0488	Open
P7321	J72_4	J73_4	150.00	150.0	140.0	0.0691	Open
P7322	J72_5	J72_6	150.00	250.0	130.0	0.0153	Open
P7323	J72_5	J73_5	150.00	200.0	135.0	0.0815	Open
P7324	J72_6	J72_7	150.00	100.0	125.0	0.1193	Open
P7325	J72_6	J73_6	150.00	250.0	130.0	0.0948	Open
P7326	J72_7	J72_8	150.00	100.0	140.0	0.0658	Open
P7327	J72_7	J73_7	150.00	200.0	135.0	0.1440	Open
P7328	J72_8	J72_9	150.00	250.0	130.0	0.1491	Open
P7329	J72_8	J73_8	150.00	150.0	130.0	0.1321	Open
P7330	J72_9	J72_10	150.00	250.0	125.0	0.0165	Open
P7331	J72_9	J73_9	150.00	200.0	130.0	0.1178	Open
P7332	J72_10	J72_11	150.00	300.0	135.0	0.0521	Open
P7333	J72_10	J73_10	150.00	250.0	135.0	0.0425	Open
P7334	J72_11	J72_12	150.00	300.0	130.0	0.0186	Open
P7335	J72_11	J73_11	150.00	350.0	125.0	0.0119	Open
P7336	J72_12	J72_13	150.00	250.0	125.0	0.0206	Open
P7337	J72_12	J73_12	150.00	150.0	125.0	0.0312	Open
P7338	J72_13	J72_14	150.00	100.0	135.0	0.0771	Open
P7339	J72_13	J73_13	150.00	200.0	140.0	0.0754	Open
P7340	J72_14	J72_15	150.00	250.0	135.0	0.0866	Open
P7341	J72_14	J73_14	150.00	100.0	135.0	0.1194	Open
P7342	J72_15	J72_16	150.00	300.0	135.0	0.0346	Open
P7343	J72_15	J73_15	150.00	150.0	125.0	0.0852	Open
P7344	J72_16	J72_17	150.00	300.0	125.0	0.1053	Open
P7345	J72_16	J73_16	150.00	250.0	135.0	0.0453	Open
P7346	J72_17	J72_18	150.00	200.0	135.0	0.1166	Open
P7347	J72_17	J73_17	150.00	300.0	140.0	0.0452	Open
P7348	J72_18	J72_19	150.00	100.0	140.0	0.1465	Open
P7349	J72_18	J73_18	150.00	300.0	130.0	0.1059	Open
P7350	J72_19	J72_20	150.00	100.0	130.0	0.0041	Open
P7351	J72_19	J73_19	150.00	200.0	125.0	0.1303	Open
P7352	J72_20	J72_21	150.00	150.0	125.0	0.0706	Open
P7353	J72_20	J73_20	150.00	200.0	140.0	0.1309	Open
P7354	J72_21	J72_22	150.00	600.0	120.0	0.0060	Open
P7355	J72_21	J73_21	150.00	450.0	130.0	0.0372	Open
P7356	J72_22	J72_23	150.00	100.0	140.0	0.0420	Open
P7357	J72_22	J73_22	150.00	300.0	135.0	0.0087	Open
P7358	J72_23	J72_24	150.00	250.0	125.0	0.1069	Open
P7359	J72_23	J73_23	150.00	250.0	135.0	0.0244	Open
P7360	J72_24	J72_25	150.00	300.0	140.0	0.0104	Open
P7361	J72_24	J73_24	150.00	250.0	135.0	0.0792	Open
P7362	J72_25	J72_26	150.00	200.0	125.0	0.0538	Open
P7363	J72_25	J73_25	150.00	100.0	140.0	0.0850	Open
P7364	J72_26	J72_27	150.00	150.0	135.0	0.0640	Open
P7365	J72_26	J73_26	150.00	150.0	125.0	0.1405	Open
P7366	J72_27	J72_28	150.00	250.0	125.0	0.0170	Open
P7367	J72_27	J73_27	150.00	250.0	140.0	0.1419	Open
P7368	J72_28	J72_29	150.00	250.0	130.0	0.1147	Open
P7369	J72_28	J73_28	150.00	250.0	135.0	0.0226	Open
P7370	J72_29	J72_30	150.00	300.0	130.0	0.1094	Open
P7371	J72_29	J73_29	150.00	250.0	125.0	0.1070	Open
P7372	J72_30	J72_31	150.00	100.0	125.0	0.1083	Open
P7373	J72_30	J73_30	150.00	150.0	130.0	0.0763	Open
P7374	J72_31	J72_32	150.00	350.0	120.0	0.0427	Open
P7375	J72_31	J73_31	150.00	350.0	120.0	0.0342	Open
P7376	J72_32	J72_33	150.00	150.0	140.0	0.1092	Open
P7377	J72_32	J73_32	150.00	300.0	125.0	0.0306	Open
P7378	J72_33	J72_34	150.00	200.0	125.0	0.0212	Open
P7379	J72_33	J73_33	150.00	250.0	125.0	0.0555	Open
P7380	J72_34	J72_35	150.00	150.0	130.0	0.0969	Open
P7381	J72_34	J73_34	150.00	300.0	130.0	0.1005	Open
P7382	J72_35	J72_36	150.00	200.0	125.0	0.1283	Open
P7383	J72_35	J73_35	150.00	150.0	140.0	0.0198	Open
P7384	J72_36	J72_37	150.00	250.0	140.0	0.0103	Open
P7385	J72_36	J73_36	150.00	250.0	135.0	0.0073	Open
P7386	J72_37	J72_38	150.00	150.0	125.0	0.0134	Open
P7387	J72_37	J73_37	150.00	250.0	135.0	0.1136	Open
P7388	J72_38	J72_39	150.00	200.0	135.0	0.0934	Open
P7389	J72_38	J73_38	150.00	250.0	140.0	0.1027	Open
P7390	J72_39	J72_40	150.00	150.0	135.0	0.1144	Open
P7391	J72_39	J73_39	150.00	250.0	125.0	0.0082	Open
P7392	J72_40	J72_41	150.00	200.0	130.0	0.0594	Open
P7393	J72_40	J73_40	150.00	250.0	140.0	0.1369	Open
P7394	J72_41	J72_42	150.00	300.0	120.0	0.0283	Open
P7395	J72_41	J73_41	150.00	300.0	125.0	0.0357	Open
P7396	J72_42	J72_43	150.00	250.0	135.0	0.0900	Open
P7397	J72_42	J73_42	150.00	100.0	135.0	0.1417	Open
P7398	J72_43	J72_44	150.00	250.0	125.0	0.0352	Open
P7399	J72_43	J73_43	150.00	300.0	140.0	0.0200	Open
P7400	J72_44	J72_45	150.00	200.0	130.0	0.0874	Open
P7401	J72_44	J73_44	150.00	250.0	140.0	0.0758	Open
P7402	J72_45	J72_46	150.00	300.0	135.0	0.0049	Open
P7403	J72_45	J73_45	150.00	200.0	140.0	0.1300	Open
P7404	J72_46	J72_47	150.00	300.0	135.0	0.0340	Open
P7405	J72_46	J73_46	150.00	200.0	140.0	0.1251	Open
P7406	J72_47	J72_48	150.00	100.0	125.0	0.1380	Open
P7407	J72_47	J73_47	150.00	300.0	130.0	0.0549	Open
P7408	J72_48	J72_49	150.00	100.0	125.0	0.0664	Open
P7409	J72_48	J73_48	150.00	100.0	135.0	0.0258	Open
P7410	J72_49	J72_50	150.00	250.0	130.0	0.1030	Open
P7411	J72_49	J73_49	150.00	150.0	130.0	0.0807	Open
P7412	J72_50	J72_51	150.00	250.0	140.0	0.0342	Open
P7413	J72_50	J73_50	150.00	200.0	140.0	0.0276	Open
P7414	J72_51	J72_52	150.00	300.0	125.0	0.0278	Open
P7415	J72_51	J73_51	150.00	400.0	125.0	0.0186	Open
P7416	J72_52	J73_52	150.00	200.0	140.0	0.1313	Open
P7417	J73_1	J73_2	150.00	350.0	130.0	0.0091	Open
P7418	J73_1	J74_1	150.00	600.0	120.0	0.0190	Open
P7419	J73_2	J73_3	150.00	100.0	125.0	0.0695	Open
P7420	J73_2	J74_2	150.00	200.0	130.0	0.1110	Open
P7421	J73_3	J73_4	150.00	300.0	125.0	0.0726	Open
P7422	J73_3	J74_3	150.00	300.0	135.0	0.0459	Open
P7423	J73_4	J73_5	150.00	100.0	130.0	0.1107	Open
P7424	J73_4	J74_4	150.00	200.0	140.0	0.0793	Open
P7425	J73_5	J73_6	150.00	250.0	125.0	0.0809	Open
P7426	J73_5	J74_5	150.00	200.0	130.0	0.0480	Open
P7427	J73_6	J73_7	150.00	300.0	135.0	0.1093	Open
P7428	J73_6	J74_6	150.00	250.0	135.0	0.0360	Open
P7429	J73_7	J73_8	150.00	200.0	130.0	0.0297	Open
P7430	J73_7	J74_7	150.00	250.0	135.0	0.0642	Open
P7431	J73_8	J73_9	150.00	150.0	140.0	0.0249	Open
P7432	J73_8	J74_8	150.00	150.0	135.0	0.1055	Open
P7433	J73_9	J73_10	150.00	250.0	135.0	0.1095	Open
P7434	J73_9	J74_9	150.00	150.0	135.0	0.1338	Open
P7435	J73_10	J73_11	150.00	150.0	125.0	0.1076	Open
P7436	J73_10	J74_10	150.00	100.0	135.0	0.0873	Open
P7437	J73_11	J73_12	150.00	400.0	130.0	0.0324	Open
P7438	J73_11	J74_11	150.00	600.0	125.0	0.0444	Open
P7439	J73_12	J73_13	150.00	250.0	125.0	0.0972	Open
P7440	J73_12	J74_12	150.00	300.0	140.0	0.0224	Open
P7441	J73_13	J73_14	150.00	300.0	125.0	0.1462	Open
P7442	J73_13	J74_13	150.00	250.0	125.0	0.0746	Open
P7443	J73_14	J73_15	150.00	200.0	140.0	0.1181	Open
P7444	J73_14	J74_14	150.00	300.0	125.0	0.0926	Open
P7445	J73_15	J73_16	150.00	250.0	130.0	0.0685	Open
P7446	J73_15	J74_15	150.00	200.0	135.0	0.1461	Open
P7447	J73_16	J73_17	150.00	150.0	140.0	0.0009	Open
P7448	J73_16	J74_16	150.00	150.0	130.0	0.0592	Open
P7449	J73_17	J73_18	150.00	150.0	130.0	0.0417	Open
P7450	J73_17	J74_17	150.00	300.0	140.0	0.0515	Open
P7451	J73_18	J73_19	150.00	250.0	130.0	0.0664	Open
P7452	J73_18	J74_18	150.00	100.0	125.0	0.0090	Open
P7453	J73_19	J73_20	150.00	150.0	135.0	0.0627	Open
P7454	J73_19	J74_19	150.00	250.0	140.0	0.0682	Open
P7455	J73_20	J73_21	150.00	100.0	135.0	0.0168	Open
P7456	J73_20	J74_20	150.00	300.0	140.0	0.0966	Open
P7457	J73_21	J73_22	150.00	300.0	125.0	0.0477	Open
P7458	J73_21	J74_21	150.00	350.0	120.0	0.0480	Open
P7459	J73_22	J73_23	150.00	150.0	135.0	0.0309	Open
P7460	J73_22	J74_22	150.00	100.0	140.0	0.0768	Open
P7461	J73_23	J73_24	150.00	150.0	135.0	0.1244	Open
P7462	J73_23	J74_23	150.00	250.0	140.0	0.0169	Open
P7463	J73_24	J73_25	150.00	200.0	140.0	0.0010	Open
P7464	J73_24	J74_24	150.00	250.0	135.0	0.1470	Open
P7465	J73_25	J73_26	150.00	100.0	125.0	0.0856	Open
P7466	J73_25	J74_25	150.00	150.0	140.0	0.1268	Open
P7467	J73_26	J73_27	150.00	200.0	140.0	0.1333	Open
P7468	J73_26	J74_26	150.00	100.0	130.0	0.1471	Open
P7469	J73_27	J73_28	150.00	250.0	130.0	0.0295	Open
P7470	J73_27	J74_27	150.00	250.0	140.0	0.1456	Open
P7471	J73_28	J73_29	150.00	100.0	135.0	0.0063	Open
P7472	J73_28	J74_28	150.00	100.0	125.0	0.0090	Open
P7473	J73_29	J73_30	150.00	250.0	135.0	0.1240	Open
P7474	J73_29	J74_29	150.00	300.0	125.0	0.0824	Open
P7475	J73_30	J73_31	150.00	250.0	125.0	0.0385	Open
P7476	J73_30	J74_30	150.00	150.0	125.0	0.0667	Open
P7477	J73_31	J73_32	150.00	350.0	120.0	0.0429	Open
P7478	J73_31	J74_31	150.00	350.0	125.0	0.0122	Open
P7479	J73_32	J73_33	150.00	150.0	130.0	0.1467	Open
P7480	J73_32	J74_32	150.00	200.0	130.0	0.0814	Open
P7481	J73_33	J73_34	150.00	300.0	135.0	0.1444	Open
P7482	J73_33	J74_33	150.00	250.0	140.0	0.0422	Open
P7483	J73_34	J73_35	150.00	100.0	130.0	0.0649	Open
P7484	J73_34	J74_34	150.00	100.0	125.0	0.0953	Open
P7485	J73_35	J73_36	150.00	250.0	135.0	0.0362	Open
P7486	J73_35	J74_35	150.00	150.0	140.0	0.1433	Open
P7487	J73_36	J73_37	150.00	250.0	140.0	0.1410	Open
P7488	J73_36	J74_36	150.00	150.0	125.0	0.0885	Open
P7489	J73_37	J73_38	150.00	100.0	130.0	0.1178	Open
P7490	J73_37	J74_37	150.00	300.0	135.0	0.0337	Open
P7491	J73_38	J73_39	150.00	150.0	140.0	0.1137	Open
P7492	J73_38	J74_38	150.00	100.0	130.0	0.1349	Open
P7493	J73_39	J73_40	150.00	100.0	135.0	0.1456	Open
P7494	J73_39	J74_39	150.00	100.0	135.0	0.1357	Open
P7495	J73_40	J73_41	150.00	100.0	130.0	0.0250	Open
P7496	J73_40	J74_40	150.00	150.0	125.0	0.1436	Open
P7497	J73_41	J73_42	150.00	600.0	125.0	0.0118	Open
P7498	J73_41	J74_41	150.00	350.0	120.0	0.0247	Open
P7499	J73_42	J73_43	150.00	200.0	130.0	0.0652	Open
P7500	J73_42	J74_42	150.00	250.0	135.0	0.1298	Open
P7501	J73_43	J73_44	150.00	150.0	135.0	0.1350	Open
P7502	J73_43	J74_43	150.00	150.0	130.0	0.1458	Open
P7503	J73_44	J73_45	150.00	250.0	140.0	0.0726	Open
P7504	J73_44	J74_44	150.00	300.0	135.0	0.0611	Open
P7505	J73_45	J73_46	150.00	200.0	125.0	0.0049	Open
P7506	J73_45	J74_45	150.00	250.0	130.0	0.0927	Open
P7507	J73_46	J73_47	150.00	150.0	140.0	0.0292	Open
P7508	J73_46	J74_46	150.00	250.0	140.0	0.1183	Open
P7509	J73_47	J73_48	150.00	200.0	125.0	0.0638	Open
P7510	J73_47	J74_47	150.00	300.0	125.0	0.0202	Open
P7511	J73_48	J73_49	150.00	250.0	135.0	0.1053	Open
P7512	J73_48	J74_48	150.00	100.0	140.0	0.0075	Open
P7513	J73_49	J73_50	150.00	150.0	140.0	0.1342	Open
P7514	J73_49	J74_49	150.00	250.0	125.0	0.0456	Open
P7515	J73_50	J73_51	150.00	200.0	125.0	0.0165	Open
P7516	J73_50	J74_50	150.00	100.0	125.0	0.0193	Open
P7517	J73_51	J73_52	150.00	450.0	120.0	0.0097	Open
P7518	J73_51	J74_51	150.00	500.0	125.0	0.0172	Open
P7519	J73_52	J74_52	150.00	300.0	140.0	0.0433	Open
P7520	J74_1	J74_2	150.00	300.0	130.0	0.0001	Open
P7521	J74_1	J75_1	150.00	400.0	125.0	0.0366	Open
P7522	J74_2	J74_3	150.00	150.0	130.0	0.0418	Open
P7523	J74_2	J75_2	150.00	200.0	125.0	0.1269	Open
P7524	J74_3	J74_4	150.00	300.0	135.0	0.1173	Open
P7525	J74_3	J75_3	150.00	300.0	140.0	0.1048	Open
P7526	J74_4	J74_5	150.00	150.0	135.0	0.0239	Open
P7527	J74_4	J75_4	150.00	150.0	125.0	0.0120	Open
P7528	J74_5	J74_6	150.00	300.0	140.0	0.0087	Open
P7529	J74_5	J75_5	150.00	300.0	130.0	0.0305	Open
P7530	J74_6	J74_7	150.00	200.0	125.0	0.0907	Open
P7531	J74_6	J75_6	150.00	150.0	135.0	0.1125	Open
P7532	J74_7	J74_8	150.00	300.0	140.0	0.0779	Open
P7533	J74_7	J75_7	150.00	150.0	140.0	0.0215	Open
P7534	J74_8	J74_9	150.00	250.0	140.0	0.0373	Open
P7535	J74_8	J75_8	150.00	300.0	125.0	0.0608	Open
P7536	J74_9	J74_10	150.00	100.0	125.0	0.0105	Open
P7537	J74_9	J75_9	150.00	150.0	135.0	0.0386	Open
P7538	J74_10	J74_11	150.00	100.0	125.0	0.0914	Open
P7539	J74_10	J75_10	150.00	250.0	125.0	0.1016	Open
P7540	J74_11	J74_12	150.00	350.0	120.0	0.0227	Open
P7541	J74_11	J75_11	150.00	300.0	120.0	0.0499	Open
P7542	J74_12	J74_13	150.00	300.0	130.0	0.0962	Open
P7543	J74_12	J75_12	150.00	100.0	125.0	0.1332	Open
P7544	J74_13	J74_14	150.00	300.0	130.0	0.0491	Open
P7545	J74_13	J75_13	150.00	250.0	135.0	0.0082	Open
P7546	J74_14	J74_15	150.00	200.0	140.0	0.0949	Open
P7547	J74_14	J75_14	150.00	300.0	135.0	0.1314	Open
P7548	J74_15	J74_16	150.00	100.0	135.0	0.1209	Open
P7549	J74_15	J75_15	150.00	200.0	135.0	0.0229	Open
P7550	J74_16	J74_17	150.00	200.0	135.0	0.0461	Open
P7551	J74_16	J75_16	150.00	250.0	135.0	0.0696	Open
P7552	J74_17	J74_18	150.00	200.0	135.0	0.0618	Open
P7553	J74_17	J75_17	150.00	300.0	140.0	0.0217	Open
P7554	J74_18	J74_19	150.00	150.0	125.0	0.1315	Open
P7555	J74_18	J75_18	150.00	200.0	130.0	0.0621	Open
P7556	J74_19	J74_20	150.00	150.0	135.0	0.0662	Open
P7557	J74_19	J75_19	150.00	150.0	135.0	0.0995	Open
P7558	J74_20	J74_21	150.00	200.0	130.0	0.0739	Open
P7559	J74_20	J75_20	150.00	100.0	125.0	0.1291	Open
P7560	J74_21	J74_22	150.00	600.0	130.0	0.0413	Open
P7561	J74_21	J75_21	150.00	500.0	130.0	0.0336	Open
P7562	J74_22	J74_23	150.00	250.0	130.0	0.0892	Open
P7563	J74_22	J75_22	150.00	150.0	140.0	0.1214	Open
P7564	J74_23	J74_24	150.00	150.0	125.0	0.0329	Open
P7565	J74_23	J75_23	150.00	150.0	125.0	0.0149	Open
P7566	J74_24	J74_25	150.00	250.0	125.0	0.1150	Open
P7567	J74_24	J75_24	150.00	250.0	140.0	0.1396	Open
P7568	J74_25	J74_26	150.00	250.0	140.0	0.0197	Open
P7569	J74_25	J75_25	150.00	250.0	125.0	0.1062	Open
P7570	J74_26	J74_27	150.00	100.0	140.0	0.0198	Open
P7571	J74_26	J75_26	150.00	200.0	125.0	0.0701	Open
P7572	J74_27	J74_28	150.00	200.0	130.0	0.0316	Open
P7573	J74_27	J75_27	150.00	200.0	140.0	0.1281	Open
P7574	J74_28	J74_29	150.00	300.0	135.0	0.0922	Open
P7575	J74_28	J75_28	150.00	100.0	130.0	0.0451	Open
P7576	J74_29	J74_30	150.00	150.0	135.0	0.1160	Open
P7577	J74_29	J75_29	150.00	100.0	130.0	0.1070	Open
P7578	J74_30	J74_31	150.00	300.0	140.0	0.0215	Open
P7579	J74_30	J75_30	150.00	250.0	125.0	0.0789	Open
P7580	J74_31	J74_32	150.00	450.0	120.0	0.0024	Open
P7581	J74_31	J75_31	150.00	500.0	120.0	0.0342	Open
P7582	J74_32	J74_33	150.00	150.0	135.0	0.0104	Open
P7583	J74_32	J75_32	150.00	250.0	125.0	0.0073	Open
P7584	J74_33	J74_34	150.00	300.0	130.0	0.1387	Open
P7585	J74_33	J75_33	150.00	150.0	130.0	0.0498	Open
P7586	J74_34	J74_35	150.00	250.0	130.0	0.0855	Open
P7587	J74_34	J75_34	150.00	250.0	140.0	0.0275	Open
P7588	J74_35	J74_36	150.00	200.0	130.0	0.0280	Open
P7589	J74_35	J75_35	150.00	100.0	130.0	0.1378	Open
P7590	J74_36	J74_37	150.00	250.0	130.0	0.1325	Open
P7591	J74_36	J75_36	150.00	300.0	125.0	0.1142	Open
P7592	J74_37	J74_38	150.00	250.0	140.0	0.0751	Open
P7593	J74_37	J75_37	150.00	300.0	130.0	0.0203	Open
P7594	J74_38	J74_39	150.00	200.0	140.0	0.1166	Open
P7595	J74_38	J75_38	150.00	150.0	125.0	0.0600	Open
P7596	J74_39	J74_40	150.00	150.0	130.0	0.0739	Open
P7597	J74_39	J75_39	150.00	150.0	140.0	0.0594	Open
P7598	J74_40	J74_41	150.00	250.0	125.0	0.0067	Open
P7599	J74_40	J75_40	150.00	150.0	135.0	0.0258	Open
P7600	J74_41	J74_42	150.00	350.0	130.0	0.0477	Open
P7601	J74_41	J75_41	150.00	300.0	130.0	0.0386	Open
P7602	J74_42	J74_43	150.00	300.0	135.0	0.0228	Open
P7603	J74_42	J75_42	150.00	250.0	130.0	0.1184	Open
P7604	J74_43	J74_44	150.00	150.0	140.0	0.0557	Open
P7605	J74_43	J75_43	150.00	250.0	125.0	0.1122	Open
P7606	J74_44	J74_45	150.00	150.0	135.0	0.0939	Open
P7607	J74_44	J75_44	150.00	150.0	140.0	0.0956	Open
P7608	J74_45	J74_46	150.00	100.0	125.0	0.1032	Open
P7609	J74_45	J75_45	150.00	150.0	125.0	0.1071	Open
P7610	J74_46	J74_47	150.00	200.0	140.0	0.0519	Open
P7611	J74_46	J75_46	150.00	150.0	130.0	0.0568	Open
P7612	J74_47	J74_48	150.00	150.0	140.0	0.0543	Open
P7613	J74_47	J75_47	150.00	150.0	130.0	0.0877	Open
P7614	J74_48	J74_49	150.00	100.0	135.0	0.1427	Open
P7615	J74_48	J75_48	150.00	300.0	140.0	0.1132	Open
P7616	J74_49	J74_50	150.00	100.0	130.0	0.1128	Open
P7617	J74_49	J75_49	150.00	150.0	140.0	0.0449	Open
P7618	J74_50	J74_51	150.00	250.0	130.0	0.0034	Open
P7619	J74_50	J75_50	150.00	250.0	140.0	0.1495	Open
P7620	J74_51	J74_52	150.00	600.0	130.0	0.0095	Open
P7621	J74_51	J75_51	150.00	500.0	130.0	0.0008	Open
P7622	J74_52	J75_52	150.00	150.0	125.0	0.1151	Open
P7623	J75_1	J75_2	150.00	450.0	125.0	0.0038	Open
P7624	J75_1	J76_1	150.00	450.0	120.0	0.0146	Open
P7625	J75_2	J75_3	150.00	250.0	125.0	0.1027	Open
P7626	J75_2	J76_2	150.00	300.0	125.0	0.0364	Open
P7627	J75_3	J75_4	150.00	200.0	130.0	0.0677	Open
P7628	J75_3	J76_3	150.00	100.0	140.0	0.0415	Open
P7629	J75_4	J75_5	150.00	150.0	125.0	0.1477	Open
P7630	J75_4	J76_4	150.00	200.0	140.0	0.0282	Open
P7631	J75_5	J75_6	150.00	300.0	130.0	0.0107	Open
P7632	J75_5	J76_5	150.00	300.0	135.0	0.1064	Open
P7633	J75_6	J75_7	150.00	200.0	125.0	0.0444	Open
P7634	J75_6	J76_6	150.00	200.0	125.0	0.1191	Open
P7635	J75_7	J75_8	150.00	200.0	130.0	0.1154	Open
P7636	J75_7	J76_7	150.00	100.0	140.0	0.1099	Open
P7637	J75_8	J75_9	150.00	150.0	130.0	0.0201	Open
P7638	J75_8	J76_8	150.00	250.0	140.0	0.0224	Open
P7639	J75_9	J75_10	150.00	100.0	135.0	0.0034	Open
P7640	J75_9	J76_9	150.00	100.0	130.0	0.0110	Open
P7641	J75_10	J75_11	150.00	100.0	125.0	0.0308	Open
P7642	J75_10	J76_10	150.00	300.0	135.0	0.0529	Open
P7643	J75_11	J75_12	150.00	500.0	130.0	0.0294	Open
P7644	J75_11	J76_11	150.00	450.0	125.0	0.0421	Open
P7645	J75_12	J75_13	150.00	200.0	130.0	0.1220	Open
P7646	J75_12	J76_12	150.00	300.0	140.0	0.0012	Open
P7647	J75_13	J75_14	150.00	200.0	140.0	0.0684	Open
P7648	J75_13	J76_13	150.00	300.0	130.0	0.1352	Open
P7649	J75_14	J75_15	150.00	300.0	140.0	0.1369	Open
P7650	J75_14	J76_14	150.00	300.0	140.0	0.0412	Open
P7651	J75_15	J75_16	150.00	300.0	125.0	0.0350	Open
P7652	J75_15	J76_15	150.00	200.0	130.0	0.0095	Open
P7653	J75_16	J75_17	150.00	200.0	130.0	0.0515	Open
P7654	J75_16	J76_16	150.00	250.0	140.0	0.1447	Open
P7655	J75_17	J75_18	150.00	150.0	135.0	0.0479	Open
P7656	J75_17	J76_17	150.00	250.0	130.0	0.1409	Open
P7657	J75_18	J75_19	150.00	100.0	140.0	0.0980	Open
P7658	J75_18	J76_18	150.00	100.0	140.0	0.0319	Open
P7659	J75_19	J75_20	150.00	150.0	130.0	0.0839	Open
P7660	J75_19	J76_19	150.00	250.0	130.0	0.0179	Open
P7661	J75_20	J75_21	150.00	200.0	135.0	0.0785	Open
P7662	J75_20	J76_20	150.00	250.0	130.0	0.0885	Open
P7663	J75_21	J75_22	150.00	450.0	120.0	0.0390	Open
P7664	J75_21	J76_21	150.00	450.0	120.0	0.0267	Open
P7665	J75_22	J75_23	150.00	250.0	125.0	0.0207	Open
P7666	J75_22	J76_22	150.00	300.0	140.0	0.0472	Open
P7667	J75_23	J75_24	150.00	100.0	135.0	0.0805	Open
P7668	J75_23	J76_23	150.00	250.0	130.0	0.1185	Open
P7669	J75_24	J75_25	150.00	300.0	135.0	0.1186	Open
P7670	J75_24	J76_24	150.00	150.0	135.0	0.0647	Open
P7671	J75_25	J75_26	150.00	300.0	130.0	0.1259	Open
P7672	J75_25	J76_25	150.00	100.0	140.0	0.0058	Open
P7673	J75_26	J75_27	150.00	150.0	130.0	0.0880	Open
P7674	J75_26	J76_26	150.00	300.0	135.0	0.1303	Open
P7675	J75_27	J75_28	150.00	300.0	140.0	0.1152	Open
P7676	J75_27	J76_27	150.00	150.0	130.0	0.0375	Open
P7677	J75_28	J75_29	150.00	200.0	130.0	0.1422	Open
P7678	J75_28	J76_28	150.00	150.0	130.0	0.1160	Open
P7679	J75_29	J75_30	150.00	250.0	125.0	0.0774	Open
P7680	J75_29	J76_29	150.00	150.0	125.0	0.0315	Open
P7681	J75_30	J75_31	150.00	300.0	125.0	0.1128	Open
P7682	J75_30	J76_30	150.00	100.0	135.0	0.0770	Open
P7683	J75_31	J75_32	150.00	300.0	130.0	0.0007	Open
P7684	J75_31	J76_31	150.00	400.0	130.0	0.0342	Open
P7685	J75_32	J75_33	150.00	100.0	125.0	0.0156	Open
P7686	J75_32	J76_32	150.00	250.0	130.0	0.0334	Open
P7687	J75_33	J75_34	150.00	100.0	135.0	0.0069	Open
P7688	J75_33	J76_33	150.00	300.0	125.0	0.0247	Open
P7689	J75_34	J75_35	150.00	150.0	130.0	0.0633	Open
P7690	J75_34	J76_34	150.00	150.0	135.0	0.1069	Open
P7691	J75_35	J75_36	150.00	300.0	140.0	0.0782	Open
P7692	J75_35	J76_35	150.00	100.0	125.0	0.0653	Open
P7693	J75_36	J75_37	150.00	100.0	135.0	0.0661	Open
P7694	J75_36	J76_36	150.00	250.0	140.0	0.0011	Open
P7695	J75_37	J75_38	150.00	250.0	130.0	0.0633	Open
P7696	J75_37	J76_37	150.00	250.0	135.0	0.1251	Open
P7697	J75_38	J75_39	150.00	300.0	130.0	0.1105	Open
P7698	J75_38	J76_38	150.00	100.0	140.0	0.0993	Open
P7699	J75_39	J75_40	150.00	100.0	135.0	0.0890	Open
P7700	J75_39	J76_39	150.00	150.0	130.0	0.1202	Open
P7701	J75_40	J75_41	150.00	100.0	140.0	0.0628	Open
P7702	J75_40	J76_40	150.00	200.0	135.0	0.0410	Open
P7703	J75_41	J75_42	150.00	600.0	120.0	0.0308	Open
P7704	J75_41	J76_41	150.00	600.0	120.0	0.0368	Open
P7705	J75_42	J75_43	150.00	300.0	130.0	0.1495	Open
P7706	J75_42	J76_42	150.00	250.0	140.0	0.0290	Open
P7707	J75_43	J75_44	150.00	150.0	130.0	0.1263	Open
P7708	J75_43	J76_43	150.00	300.0	135.0	0.0481	Open
P7709	J75_44	J75_45	150.00	300.0	125.0	0.0471	Open
P7710	J75_44	J76_44	150.00	150.0	125.0	0.1195	Open
P7711	J75_45	J75_46	150.00	250.0	135.0	0.1313	Open
P7712	J75_45	J76_45	150.00	150.0	125.0	0.0187	Open
P7713	J75_46	J75_47	150.00	100.0	140.0	0.0352	Open
P7714	J75_46	J76_46	150.00	100.0	125.0	0.1339	Open
P7715	J75_47	J75_48	150.00	250.0	140.0	0.0488	Open
P7716	J75_47	J76_47	150.00	150.0	135.0	0.0368	Open
P7717	J75_48	J75_49	150.00	150.0	130.0	0.0646	Open
P7718	J75_48	J76_48	150.00	150.0	130.0	0.1177	Open
P7719	J75_49	J75_50	150.00	100.0	140.0	0.0713	Open
P7720	J75_49	J76_49	150.00	100.0	140.0	0.0899	Open
P7721	J75_50	J75_51	150.00	100.0	135.0	0.1171	Open
P7722	J75_50	J76_50	150.00	100.0	140.0	0.0507	Open
P7723	J75_51	J75_52	150.00	450.0	125.0	0.0071	Open
P7724	J75_51	J76_51	150.00	600.0	120.0	0.0384	Open
P7725	J75_52	J76_52	150.00	250.0	125.0	0.1104	Open
P7726	J76_1	J76_2	150.00	300.0	125.0	0.0363	Open
P7727	J76_1	J77_1	150.00	350.0	130.0	0.0197	Open
P7728	J76_2	J76_3	150.00	300.0	130.0	0.1416	Open
P7729	J76_2	J77_2	150.00	100.0	125.0	0.0243	Open
P7730	J76_3	J76_4	150.00	100.0	125.0	0.0155	Open
P7731	J76_3	J77_3	150.00	150.0	135.0	0.0413	Open
P7732	J76_4	J76_5	150.00	100.0	140.0	0.0872	Open
P7733	J76_4	J77_4	150.00	150.0	125.0	0.1208	Open
P7734	J76_5	J76_6	150.00	250.0	130.0	0.0602	Open
P7735	J76_5	J77_5	150.00	200.0	125.0	0.1088	Open
P7736	J76_6	J76_7	150.00	250.0	135.0	0.1140	Open
P7737	J76_6	J77_6	150.00	150.0	135.0	0.0886	Open
P7738	J76_7	J76_8	150.00	150.0	125.0	0.1363	Open
P7739	J76_7	J77_7	150.00	300.0	135.0	0.0649	Open
P7740	J76_8	J76_9	150.00	250.0	130.0	0.0380	Open
P7741	J76_8	J77_8	150.00	200.0	130.0	0.0356	Open
P7742	J76_9	J76_10	150.00	150.0	125.0	0.0223	Open
P7743	J76_9	J77_9	150.00	150.0	130.0	0.0148	Open
P7744	J76_10	J76_11	150.00	250.0	125.0	0.1432	Open
P7745	J76_10	J77_10	150.00	200.0	125.0	0.1298	Open
P7746	J76_11	J76_12	150.00	400.0	120.0	0.0254	Open
P7747	J76_11	J77_11	150.00	450.0	130.0	0.0140	Open
P7748	J76_12	J76_13	150.00	200.0	130.0	0.0890	Open
P7749	J76_12	J77_12	150.00	150.0	125.0	0.0549	Open
P7750	J76_13	J76_14	150.00	100.0	135.0	0.0368	Open
P7751	J76_13	J77_13	150.00	150.0	125.0	0.1217	Open
P7752	J76_14	J76_15	150.00	200.0	125.0	0.0143	Open
P7753	J76_14	J77_14	150.00	250.0	125.0	0.1135	Open
P7754	J76_15	J76_16	150.00	250.0	140.0	0.0628	Open
P7755	J76_15	J77_15	150.00	200.0	125.0	0.1320	Open
P7756	J76_16	J76_17	150.00	250.0	135.0	0.1349	Open
P7757	J76_16	J77_16	150.00	100.0	125.0	0.0361	Open
P7758	J76_17	J76_18	150.00	300.0	130.0	0.1406	Open
P7759	J76_17	J77_17	150.00	250.0	130.0	0.0793	Open
P7760	J76_18	J76_19	150.00	200.0	125.0	0.0218	Open
P7761	J76_18	J77_18	150.00	100.0	140.0	0.0173	Open
P7762	J76_19	J76_20	150.00	300.0	135.0	0.1283	Open
P7763	J76_19	J77_19	150.00	150.0	130.0	0.0017	Open
P7764	J76_20	J76_21	150.00	100.0	135.0	0.0797	Open
P7765	J76_20	J77_20	150.00	300.0	130.0	0.0519	Open
P7766	J76_21	J76_22	150.00	350.0	120.0	0.0380	Open
P7767	J76_21	J77_21	150.00	400.0	120.0	0.0055	Open
P7768	J76_22	J76_23	150.00	300.0	125.0	0.0315	Open
P7769	J76_22	J77_22	150.00	250.0	125.0	0.0502	Open
P7770	J76_23	J76_24	150.00	200.0	140.0	0.0987	Open
P7771	J76_23	J77_23	150.00	150.0	140.0	0.0379	Open
P7772	J76_24	J76_25	150.00	300.0	135.0	0.0153	Open
P7773	J76_24	J77_24	150.00	150.0	140.0	0.0721	Open
P7774	J76_25	J76_26	150.00	250.0	125.0	0.1043	Open
P7775	J76_25	J77_25	150.00	150.0	135.0	0.0765	Open
P7776	J76_26	J76_27	150.00	100.0	130.0	0.1278	Open
P7777	J76_26	J77_26	150.00	250.0	125.0	0.0309	Open
P7778	J76_27	J76_28	150.00	150.0	130.0	0.0378	Open
P7779	J76_27	J77_27	150.00	150.0	135.0	0.0997	Open
P7780	J76_28	J76_29	150.00	250.0	130.0	0.1313	Open
P7781	J76_28	J77_28	150.00	300.0	125.0	0.0247	Open
P7782	J76_29	J76_30	150.00	100.0	130.0	0.0838	Open
P7783	J76_29	J77_29	150.00	250.0	135.0	0.0748	Open
P7784	J76_30	J76_31	150.00	250.0	135.0	0.0052	Open
P7785	J76_30	J77_30	150.00	200.0	130.0	0.0557	Open
P7786	J76_31	J76_32	150.00	500.0	130.0	0.0179	Open
P7787	J76_31	J77_31	150.00	400.0	130.0	0.0481	Open
P7788	J76_32	J76_33	150.00	300.0	125.0	0.0120	Open
P7789	J76_32	J77_32	150.00	300.0	140.0	0.0614	Open
P7790	J76_33	J76_34	150.00	300.0	140.0	0.0511	Open
P7791	J76_33	J77_33	150.00	250.0	140.0	0.0655	Open
P7792	J76_34	J76_35	150.00	150.0	135.0	0.0285	Open
P7793	J76_34	J77_34	150.00	100.0	140.0	0.0082	Open
P7794	J76_35	J76_36	150.00	150.0	130.0	0.1338	Open
P7795	J76_35	J77_35	150.00	200.0	130.0	0.1106	Open
P7796	J76_36	J76_37	150.00	250.0	130.0	0.0741	Open
P7797	J76_36	J77_36	150.00	300.0	140.0	0.1298	Open
P7798	J76_37	J76_38	150.00	200.0	140.0	0.1295	Open
P7799	J76_37	J77_37	150.00	300.0	140.0	0.1450	Open
P7800	J76_38	J76_39	150.00	250.0	125.0	0.0138	Open
P7801	J76_38	J77_38	150.00	200.0	125.0	0.0361	Open
P7802	J76_39	J76_40	150.00	150.0	135.0	0.0664	Open
P7803	J76_39	J77_39	150.00	150.0	130.0	0.0184	Open
P7804	J76_40	J76_41	150.00	300.0	140.0	0.1276	Open
P7805	J76_40	J77_40	150.00	100.0	125.0	0.1244	Open
P7806	J76_41	J76_42	150.00	400.0	130.0	0.0407	Open
P7807	J76_41	J77_41	150.00	500.0	120.0	0.0457	Open
P7808	J76_42	J76_43	150.00	300.0	130.0	0.0379	Open
P7809	J76_42	J77_42	150.00	150.0	140.0	0.1145	Open
P7810	J76_43	J76_44	150.00	200.0	130.0	0.1454	Open
P7811	J76_43	J77_43	150.00	200.0	135.0	0.0021	Open
P7812	J76_44	J76_45	150.00	300.0	125.0	0.0728	Open
P7813	J76_44	J77_44	150.00	250.0	130.0	0.1398	Open
P7814	J76_45	J76_46	150.00	300.0	135.0	0.1268	Open
P7815	J76_45	J77_45	150.00	300.0	130.0	0.1498	Open
P7816	J76_46	J76_47	150.00	150.0	140.0	0.0393	Open
P7817	J76_46	J77_46	150.00	150.0	140.0	0.0678	Open
P7818	J76_47	J76_48	150.00	200.0	130.0	0.1362	Open
P7819	J76_47	J77_47	150.00	100.0	130.0	0.1186	Open
P7820	J76_48	J76_49	150.00	200.0	140.0	0.1073	Open
P7821	J76_48	J77_48	150.00	300.0	135.0	0.0498	Open
P7822	J76_49	J76_50	150.00	250.0	130.0	0.0873	Open
P7823	J76_49	J77_49	150.00	200.0	135.0	0.0717	Open
P7824	J76_50	J76_51	150.00	100.0	135.0	0.0537	Open
P7825	J76_50	J77_50	150.00	150.0	140.0	0.0022	Open
P7826	J76_51	J76_52	150.00	450.0	125.0	0.0245	Open
P7827	J76_51	J77_51	150.00	350.0	125.0	0.0474	Open
P7828	J76_52	J77_52	150.00	100.0	140.0	0.1263	Open
P7829	J77_1	J77_2	150.00	350.0	130.0	0.0467	Open
P7830	J77_1	J78_1	150.00	350.0	120.0	0.0498	Open
P7831	J77_2	J77_3	150.00	100.0	135.0	0.0237	Open
P7832	J77_2	J78_2	150.00	200.0	130.0	0.0637	Open
P7833	J77_3	J77_4	150.00	100.0	140.0	0.0318	Open
P7834	J77_3	J78_3	150.00	250.0	130.0	0.1093	Open
P7835	J77_4	J77_5	150.00	150.0	130.0	0.0471	Open
P7836	J77_4	J78_4	150.00	150.0	135.0	0.0756	Open
P7837	J77_5	J77_6	150.00	300.0	135.0	0.1432	Open
P7838	J77_5	J78_5	150.00	300.0	135.0	0.0100	Open
P7839	J77_6	J77_7	150.00	250.0	130.0	0.0812	Open
P7840	J77_6	J78_6	150.00	150.0	135.0	0.1496	Open
P7841	J77_7	J77_8	150.00	150.0	130.0	0.0932	Open
P7842	J77_7	J78_7	150.00	200.0	125.0	0.0294	Open
P7843	J77_8	J77_9	150.00	100.0	130.0	0.0011	Open
P7844	J77_8	J78_8	150.00	300.0	135.0	0.0318	Open
P7845	J77_9	J77_10	150.00	150.0	140.0	0.0862	Open
P7846	J77_9	J78_9	150.00	250.0	140.0	0.0441	Open
P7847	J77_10	J77_11	150.00	200.0	130.0	0.0302	Open
P7848	J77_10	J78_10	150.00	100.0	140.0	0.0947	Open
P7849	J77_11	J77_12	150.00	500.0	120.0	0.0058	Open
P7850	J77_11	J78_11	150.00	500.0	130.0	0.0129	Open
P7851	J77_12	J77_13	150.00	100.0	130.0	0.1159	Open
P7852	J77_12	J78_12	150.00	150.0	130.0	0.1002	Open
P7853	J77_13	J77_14	150.00	100.0	140.0	0.0451	Open
P7854	J77_13	J78_13	150.00	250.0	140.0	0.0066	Open
P7855	J77_14	J77_15	150.00	250.0	130.0	0.0345	Open
P7856	J77_14	J78_14	150.00	150.0	135.0	0.0054	Open
P7857	J77_15	J77_16	150.00	100.0	125.0	0.0544	Open
P7858	J77_15	J78_15	150.00	250.0	140.0	0.0826	Open
P7859	J77_16	J77_17	150.00	100.0	135.0	0.0440	Open
P7860	J77_16	J78_16	150.00	200.0	125.0	0.1216	Open
P7861	J77_17	J77_18	150.00	200.0	125.0	0.0085	Open
P7862	J77_17	J78_17	150.00	200.0	140.0	0.1250	Open
P7863	J77_18	J77_19	150.00	150.0	135.0	0.0821	Open
P7864	J77_18	J78_18	150.00	200.0	125.0	0.0214	Open
P7865	J77_19	J77_20	150.00	250.0	140.0	0.1427	Open
P7866	J77_19	J78_19	150.00	150.0	125.0	0.1291	Open
P7867	J77_20	J77_21	150.00	300.0	130.0	0.0762	Open
P7868	J77_20	J78_20	150.00	250.0	135.0	0.0256	Open
P7869	J77_21	J77_22	150.00	400.0	125.0	0.0137	Open
P7870	J77_21	J78_21	150.00	600.0	125.0	0.0067	Open
P7871	J77_22	J77_23	150.00	250.0	125.0	0.0894	Open
P7872	J77_22	J78_22	150.00	250.0	135.0	0.1407	Open
P7873	J77_23	J77_24	150.00	250.0	135.0	0.1088	Open
P7874	J77_23	J78_23	150.00	100.0	135.0	0.1320	Open
P7875	J77_24	J77_25	150.00	100.0	125.0	0.0416	Open
P7876	J77_24	J78_24	150.00	100.0	140.0	0.1259	Open
P7877	J77_25	J77_26	150.00	150.0	125.0	0.1254	Open
P7878	J77_25	J78_25	150.00	250.0	125.0	0.0606	Open
P7879	J77_26	J77_27	150.00	250.0	130.0	0.0218	Open
P7880	J77_26	J78_26	150.00	150.0	140.0	0.0269	Open
P7881	J77_27	J77_28	150.00	300.0	130.0	0.0410	Open
P7882	J77_27	J78_27	150.00	150.0	125.0	0.0854	Open
P7883	J77_28	J77_29	150.00	150.0	135.0	0.0912	Open
P7884	J77_28	J78_28	150.00	300.0	140.0	0.0496	Open
P7885	J77_29	J77_30	150.00	150.0	135.0	0.0444	Open
P7886	J77_29	J78_29	150.00	150.0	135.0	0.0095	Open
P7887	J77_30	J77_31	150.00	100.0	135.0	0.0009	Open
P7888	J77_30	J78_30	150.00	200.0	140.0	0.1388	Open
P7889	J77_31	J77_32	150.00	300.0	125.0	0.0169	Open
P7890	J77_31	J78_31	150.00	400.0	125.0	0.0180	Open
P7891	J77_32	J77_33	150.00	150.0	130.0	0.1465	Open
P7892	J77_32	J78_32	150.00	300.0	135.0	0.0932	Open
P7893	J77_33	J77_34	150.00	200.0	140.0	0.0891	Open
P7894	J77_33	J78_33	150.00	300.0	140.0	0.1419	Open
P7895	J77_34	J77_35	150.00	250.0	125.0	0.0352	Open
P7896	J77_34	J78_34	150.00	100.0	140.0	0.0464	Open
P7897	J77_35	J77_36	150.00	200.0	135.0	0.0413	Open
P7898	J77_35	J78_35	150.00	200.0	135.0	0.1490	Open
P7899	J77_36	J77_37	150.00	200.0	130.0	0.0191	Open
P7900	J77_36	J78_36	150.00	200.0	125.0	0.0706	Open
P7901	J77_37	J77_38	150.00	250.0	130.0	0.0536	Open
P7902	J77_37	J78_37	150.00	300.0	140.0	0.0085	Open
P7903	J77_38	J77_39	150.00	100.0	130.0	0.0063	Open
P7904	J77_38	J78_38	150.00	300.0	140.0	0.0747	Open
P7905	J77_39	J77_40	150.00	250.0	140.0	0.1347	Open
P7906	J77_39	J78_39	150.00	200.0	140.0	0.0572	Open
P7907	J77_40	J77_41	150.00	250.0	130.0	0.1357	Open
P7908	J77_40	J78_40	150.00	100.0	125.0	0.1408	Open
P7909	J77_41	J77_42	150.00	600.0	125.0	0.0165	Open
P7910	J77_41	J78_41	150.00	400.0	120.0	0.0091	Open
P7911	J77_42	J77_43	150.00	100.0	125.0	0.0384	Open
P7912	J77_42	J78_42	150.00	250.0	125.0	0.1201	Open
P7913	J77_43	J77_44	150.00	200.0	125.0	0.0790	Open
P7914	J77_43	J78_43	150.00	150.0	130.0	0.0720	Open
P7915	J77_44	J77_45	150.00	100.0	135.0	0.0565	Open
P7916	J77_44	J78_44	150.00	250.0	135.0	0.0748	Open
P7917	J77_45	J77_46	150.00	250.0	140.0	0.1183	Open
P7918	J77_45	J78_45	150.00	250.0	130.0	0.1080	Open
P7919	J77_46	J77_47	150.00	300.0	130.0	0.0116	Open
P7920	J77_46	J78_46	150.00	200.0	135.0	0.1094	Open
P7921	J77_47	J77_48	150.00	300.0	125.0	0.1249	Open
P7922	J77_47	J78_47	150.00	300.0	140.0	0.0996	Open
P7923	J77_48	J77_49	150.00	150.0	135.0	0.1057	Open
P7924	J77_48	J78_48	150.00	250.0	130.0	0.1090	Open
P7925	J77_49	J77_50	150.00	300.0	140.0	0.0847	Open
P7926	J77_49	J78_49	150.00	150.0	140.0	0.0351	Open
P7927	J77_50	J77_51	150.00	200.0	130.0	0.1250	Open
P7928	J77_50	J78_50	150.00	200.0	125.0	0.0767	Open
P7929	J77_51	J77_52	150.00	300.0	125.0	0.0383	Open
P7930	J77_51	J78_51	150.00	400.0	125.0	0.0495	Open
P7931	J77_52	J78_52	150.00	300.0	125.0	0.0755	Open
P7932	J78_1	J78_2	150.00	600.0	130.0	0.0156	Open
P7933	J78_2	J78_3	150.00	200.0	130.0	0.0863	Open
P7934	J78_3	J78_4	150.00	300.0	125.0	0.0428	Open
P7935	J78_4	J78_5	150.00	300.0	140.0	0.0404	Open
P7936	J78_5	J78_6	150.00	250.0	130.0	0.0494	Open
P7937	J78_6	J78_7	150.00	200.0	125.0	0.0969	Open
P7938	J78_7	J78_8	150.00	150.0	135.0	0.1311	Open
P7939	J78_8	J78_9	150.00	150.0	125.0	0.0009	Open
P7940	J78_9	J78_10	150.00	250.0	140.0	0.0952	Open
P7941	J78_10	J78_11	150.00	200.0	125.0	0.0967	Open
P7942	J78_11	J78_12	150.00	400.0	130.0	0.0094	Open
P7943	J78_12	J78_13	150.00	150.0	140.0	0.0822	Open
P7944	J78_13	J78_14	150.00	150.0	130.0	0.1404	Open
P7945	J78_14	J78_15	150.00	100.0	130.0	0.0720	Open
P7946	J78_15	J78_16	150.00	300.0	130.0	0.0575	Open
P7947	J78_16	J78_17	150.00	300.0	125.0	0.1448	Open
P7948	J78_17	J78_18	150.00	100.0	140.0	0.0566	Open
P7949	J78_18	J78_19	150.00	250.0	140.0	0.0856	Open
P7950	J78_19	J78_20	150.00	300.0	135.0	0.0502	Open
P7951	J78_20	J78_21	150.00	200.0	125.0	0.0182	Open
P7952	J78_21	J78_22	150.00	450.0	130.0	0.0394	Open
P7953	J78_22	J78_23	150.00	100.0	125.0	0.1248	Open
P7954	J78_23	J78_24	150.00	250.0	125.0	0.0116	Open
P7955	J78_24	J78_25	150.00	150.0	125.0	0.0173	Open
P7956	J78_25	J78_26	150.00	300.0	140.0	0.0149	Open
P7957	J78_26	J78_27	150.00	300.0	130.0	0.0647	Open
P7958	J78_27	J78_28	150.00	300.0	135.0	0.0608	Open
P7959	J78_28	J78_29	150.00	250.0	130.0	0.1362	Open
P7960	J78_29	J78_30	150.00	300.0	130.0	0.1261	Open
P7961	J78_30	J78_31	150.00	200.0	140.0	0.0761	Open
P7962	J78_31	J78_32	150.00	350.0	130.0	0.0044	Open
P7963	J78_32	J78_33	150.00	200.0	125.0	0.0799	Open
P7964	J78_33	J78_34	150.00	200.0	130.0	0.0894	Open
P7965	J78_34	J78_35	150.00	150.0	135.0	0.1239	Open
P7966	J78_35	J78_36	150.00	150.0	130.0	0.0939	Open
P7967	J78_36	J78_37	150.00	200.0	140.0	0.0921	Open
P7968	J78_37	J78_38	150.00	300.0	125.0	0.1016	Open
P7969	J78_38	J78_39	150.00	200.0	125.0	0.0397	Open
P7970	J78_39	J78_40	150.00	200.0	125.0	0.1469	Open
P7971	J78_40	J78_41	150.00	200.0	130.0	0.0662	Open
P7972	J78_41	J78_42	150.00	400.0	120.0	0.0203	Open
P7973	J78_42	J78_43	150.00	100.0	140.0	0.0176	Open
P7974	J78_43	J78_44	150.00	300.0	130.0	0.0644	Open
P7975	J78_44	J78_45	150.00	150.0	130.0	0.1245	Open
P7976	J78_45	J78_46	150.00	150.0	125.0	0.0110	Open
P7977	J78_46	J78_47	150.00	150.0	130.0	0.0511	Open
P7978	J78_47	J78_48	150.00	300.0	125.0	0.1087	Open
P7979	J78_48	J78_49	150.00	150.0	135.0	0.0420	Open
P7980	J78_49	J78_50	150.00	300.0	130.0	0.0418	Open
P7981	J78_50	J78_51	150.00	150.0	125.0	0.1010	Open
P7982	J78_51	J78_52	150.00	450.0	130.0	0.0497	Open
P7983	T1	J48_10	180.00	500.0	120.0	0.0200	Open
P7984	T2	J40_27	180.00	500.0	120.0	0.0200	Open
P7985	T3	J31_43	180.00	500.0	120.0	0.0200	Open

P7986	R1	J40_1	1200.00	300.0	120.0	0.0000	Open

[PUMPS]
;ID	Node1	Node2	Parameters
PU1	R1	T1	HEAD	H_PUMP_MAIN


[VALVES]
;ID	Node1	Node2	Diameter	Type	Setting	MinorLoss

[PATTERNS]
;ID	Multipliers
P_RES	0.550	0.480	0.430	0.410	0.450	0.620	0.840	1.050	1.020	0.940	0.900	0.920	0.950	0.970	1.000	1.050	1.180	1.320	1.380	1.300	1.120	0.930	0.760	0.630
P_COM	0.160	0.140	0.120	0.110	0.140	0.240	0.480	0.860	1.120	1.200	1.220	1.210	1.180	1.160	1.140	1.170	1.130	1.050	0.840	0.600	0.440	0.330	0.250	0.190
P_IND	0.820	0.800	0.780	0.780	0.800	0.880	0.960	1.030	1.070	1.100	1.120	1.100	1.080	1.060	1.080	1.090	1.080	1.050	1.000	0.950	0.920	0.900	0.870	0.840


[CURVES]
;ID	X-Value	Y-Value
H_PUMP_MAIN	0	85
H_PUMP_MAIN	0.8	72
H_PUMP_MAIN	1.6	56
H_PUMP_MAIN	2.4	35


[CONTROLS]
LINK PU1 OPEN IF TANK T1 BELOW 4.500
LINK PU1 CLOSED IF TANK T1 ABOVE 15.500


[RULES]
; Intentionally left minimal; controls section remains active

[STATUS]
;ID	Status/Setting

[EMITTERS]
;Junction	Coefficient

[QUALITY]
;Node	InitQual

[SOURCES]
;Node	Type	Quality	Pattern

[REACTIONS]
ORDER BULK	1
ORDER TANK	1
ORDER WALL	1
GLOBAL BULK	0.00
GLOBAL WALL	0.00

[ENERGY]
GLOBAL EFFICIENCY	75
GLOBAL PRICE	0.12
DEMAND CHARGE	2.0

[MIXING]

[TIMES]
DURATION	24:00
HYDRAULIC TIMESTEP	1:00
QUALITY TIMESTEP	0:30
PATTERN TIMESTEP	1:00
REPORT TIMESTEP	1:00

[REPORT]
STATUS	NO
SUMMARY	YES
NODES	NONE
LINKS	NONE

[OPTIONS]
UNITS	GPM
HEADLOSS	H-W
SPECIFIC GRAVITY	1.02
VISCOSITY	1.15
TRIALS	100
ACCURACY	0.001
UNBALANCED	CONTINUE 20
DEMAND MULTIPLIER	0.95
QUALITY	AGE

[COORDINATES]
;Node	X-Coord	Y-Coord
R1	-300.00	-300.00
J1_1	0.00	0.00
J1_2	150.00	0.00
J1_3	300.00	0.00
J1_4	450.00	0.00
J1_5	600.00	0.00
J1_6	750.00	0.00
J1_7	900.00	0.00
J1_8	1050.00	0.00
J1_9	1200.00	0.00
J1_10	1350.00	0.00
J1_11	1500.00	0.00
J1_12	1650.00	0.00
J1_13	1800.00	0.00
J1_14	1950.00	0.00
J1_15	2100.00	0.00
J1_16	2250.00	0.00
J1_17	2400.00	0.00
J1_18	2550.00	0.00
J1_19	2700.00	0.00
J1_20	2850.00	0.00
J1_21	3000.00	0.00
J1_22	3150.00	0.00
J1_23	3300.00	0.00
J1_24	3450.00	0.00
J1_25	3600.00	0.00
J1_26	3750.00	0.00
J1_27	3900.00	0.00
J1_28	4050.00	0.00
J1_29	4200.00	0.00
J1_30	4350.00	0.00
J1_31	4500.00	0.00
J1_32	4650.00	0.00
J1_33	4800.00	0.00
J1_34	4950.00	0.00
J1_35	5100.00	0.00
J1_36	5250.00	0.00
J1_37	5400.00	0.00
J1_38	5550.00	0.00
J1_39	5700.00	0.00
J1_40	5850.00	0.00
J1_41	6000.00	0.00
J1_42	6150.00	0.00
J1_43	6300.00	0.00
J1_44	6450.00	0.00
J1_45	6600.00	0.00
J1_46	6750.00	0.00
J1_47	6900.00	0.00
J1_48	7050.00	0.00
J1_49	7200.00	0.00
J1_50	7350.00	0.00
J1_51	7500.00	0.00
J1_52	7650.00	0.00
J2_1	0.00	150.00
J2_2	150.00	150.00
J2_3	300.00	150.00
J2_4	450.00	150.00
J2_5	600.00	150.00
J2_6	750.00	150.00
J2_7	900.00	150.00
J2_8	1050.00	150.00
J2_9	1200.00	150.00
J2_10	1350.00	150.00
J2_11	1500.00	150.00
J2_12	1650.00	150.00
J2_13	1800.00	150.00
J2_14	1950.00	150.00
J2_15	2100.00	150.00
J2_16	2250.00	150.00
J2_17	2400.00	150.00
J2_18	2550.00	150.00
J2_19	2700.00	150.00
J2_20	2850.00	150.00
J2_21	3000.00	150.00
J2_22	3150.00	150.00
J2_23	3300.00	150.00
J2_24	3450.00	150.00
J2_25	3600.00	150.00
J2_26	3750.00	150.00
J2_27	3900.00	150.00
J2_28	4050.00	150.00
J2_29	4200.00	150.00
J2_30	4350.00	150.00
J2_31	4500.00	150.00
J2_32	4650.00	150.00
J2_33	4800.00	150.00
J2_34	4950.00	150.00
J2_35	5100.00	150.00
J2_36	5250.00	150.00
J2_37	5400.00	150.00
J2_38	5550.00	150.00
J2_39	5700.00	150.00
J2_40	5850.00	150.00
J2_41	6000.00	150.00
J2_42	6150.00	150.00
J2_43	6300.00	150.00
J2_44	6450.00	150.00
J2_45	6600.00	150.00
J2_46	6750.00	150.00
J2_47	6900.00	150.00
J2_48	7050.00	150.00
J2_49	7200.00	150.00
J2_50	7350.00	150.00
J2_51	7500.00	150.00
J2_52	7650.00	150.00
J3_1	0.00	300.00
J3_2	150.00	300.00
J3_3	300.00	300.00
J3_4	450.00	300.00
J3_5	600.00	300.00
J3_6	750.00	300.00
J3_7	900.00	300.00
J3_8	1050.00	300.00
J3_9	1200.00	300.00
J3_10	1350.00	300.00
J3_11	1500.00	300.00
J3_12	1650.00	300.00
J3_13	1800.00	300.00
J3_14	1950.00	300.00
J3_15	2100.00	300.00
J3_16	2250.00	300.00
J3_17	2400.00	300.00
J3_18	2550.00	300.00
J3_19	2700.00	300.00
J3_20	2850.00	300.00
J3_21	3000.00	300.00
J3_22	3150.00	300.00
J3_23	3300.00	300.00
J3_24	3450.00	300.00
J3_25	3600.00	300.00
J3_26	3750.00	300.00
J3_27	3900.00	300.00
J3_28	4050.00	300.00
J3_29	4200.00	300.00
J3_30	4350.00	300.00
J3_31	4500.00	300.00
J3_32	4650.00	300.00
J3_33	4800.00	300.00
J3_34	4950.00	300.00
J3_35	5100.00	300.00
J3_36	5250.00	300.00
J3_37	5400.00	300.00
J3_38	5550.00	300.00
J3_39	5700.00	300.00
J3_40	5850.00	300.00
J3_41	6000.00	300.00
J3_42	6150.00	300.00
J3_43	6300.00	300.00
J3_44	6450.00	300.00
J3_45	6600.00	300.00
J3_46	6750.00	300.00
J3_47	6900.00	300.00
J3_48	7050.00	300.00
J3_49	7200.00	300.00
J3_50	7350.00	300.00
J3_51	7500.00	300.00
J3_52	7650.00	300.00
J4_1	0.00	450.00
J4_2	150.00	450.00
J4_3	300.00	450.00
J4_4	450.00	450.00
J4_5	600.00	450.00
J4_6	750.00	450.00
J4_7	900.00	450.00
J4_8	1050.00	450.00
J4_9	1200.00	450.00
J4_10	1350.00	450.00
J4_11	1500.00	450.00
J4_12	1650.00	450.00
J4_13	1800.00	450.00
J4_14	1950.00	450.00
J4_15	2100.00	450.00
J4_16	2250.00	450.00
J4_17	2400.00	450.00
J4_18	2550.00	450.00
J4_19	2700.00	450.00
J4_20	2850.00	450.00
J4_21	3000.00	450.00
J4_22	3150.00	450.00
J4_23	3300.00	450.00
J4_24	3450.00	450.00
J4_25	3600.00	450.00
J4_26	3750.00	450.00
J4_27	3900.00	450.00
J4_28	4050.00	450.00
J4_29	4200.00	450.00
J4_30	4350.00	450.00
J4_31	4500.00	450.00
J4_32	4650.00	450.00
J4_33	4800.00	450.00
J4_34	4950.00	450.00
J4_35	5100.00	450.00
J4_36	5250.00	450.00
J4_37	5400.00	450.00
J4_38	5550.00	450.00
J4_39	5700.00	450.00
J4_40	5850.00	450.00
J4_41	6000.00	450.00
J4_42	6150.00	450.00
J4_43	6300.00	450.00
J4_44	6450.00	450.00
J4_45	6600.00	450.00
J4_46	6750.00	450.00
J4_47	6900.00	450.00
J4_48	7050.00	450.00
J4_49	7200.00	450.00
J4_50	7350.00	450.00
J4_51	7500.00	450.00
J4_52	7650.00	450.00
J5_1	0.00	600.00
J5_2	150.00	600.00
J5_3	300.00	600.00
J5_4	450.00	600.00
J5_5	600.00	600.00
J5_6	750.00	600.00
J5_7	900.00	600.00
J5_8	1050.00	600.00
J5_9	1200.00	600.00
J5_10	1350.00	600.00
J5_11	1500.00	600.00
J5_12	1650.00	600.00
J5_13	1800.00	600.00
J5_14	1950.00	600.00
J5_15	2100.00	600.00
J5_16	2250.00	600.00
J5_17	2400.00	600.00
J5_18	2550.00	600.00
J5_19	2700.00	600.00
J5_20	2850.00	600.00
J5_21	3000.00	600.00
J5_22	3150.00	600.00
J5_23	3300.00	600.00
J5_24	3450.00	600.00
J5_25	3600.00	600.00
J5_26	3750.00	600.00
J5_27	3900.00	600.00
J5_28	4050.00	600.00
J5_29	4200.00	600.00
J5_30	4350.00	600.00
J5_31	4500.00	600.00
J5_32	4650.00	600.00
J5_33	4800.00	600.00
J5_34	4950.00	600.00
J5_35	5100.00	600.00
J5_36	5250.00	600.00
J5_37	5400.00	600.00
J5_38	5550.00	600.00
J5_39	5700.00	600.00
J5_40	5850.00	600.00
J5_41	6000.00	600.00
J5_42	6150.00	600.00
J5_43	6300.00	600.00
J5_44	6450.00	600.00
J5_45	6600.00	600.00
J5_46	6750.00	600.00
J5_47	6900.00	600.00
J5_48	7050.00	600.00
J5_49	7200.00	600.00
J5_50	7350.00	600.00
J5_51	7500.00	600.00
J5_52	7650.00	600.00
J6_1	0.00	750.00
J6_2	150.00	750.00
J6_3	300.00	750.00
J6_4	450.00	750.00
J6_5	600.00	750.00
J6_6	750.00	750.00
J6_7	900.00	750.00
J6_8	1050.00	750.00
J6_9	1200.00	750.00
J6_10	1350.00	750.00
J6_11	1500.00	750.00
J6_12	1650.00	750.00
J6_13	1800.00	750.00
J6_14	1950.00	750.00
J6_15	2100.00	750.00
J6_16	2250.00	750.00
J6_17	2400.00	750.00
J6_18	2550.00	750.00
J6_19	2700.00	750.00
J6_20	2850.00	750.00
J6_21	3000.00	750.00
J6_22	3150.00	750.00
J6_23	3300.00	750.00
J6_24	3450.00	750.00
J6_25	3600.00	750.00
J6_26	3750.00	750.00
J6_27	3900.00	750.00
J6_28	4050.00	750.00
J6_29	4200.00	750.00
J6_30	4350.00	750.00
J6_31	4500.00	750.00
J6_32	4650.00	750.00
J6_33	4800.00	750.00
J6_34	4950.00	750.00
J6_35	5100.00	750.00
J6_36	5250.00	750.00
J6_37	5400.00	750.00
J6_38	5550.00	750.00
J6_39	5700.00	750.00
J6_40	5850.00	750.00
J6_41	6000.00	750.00
J6_42	6150.00	750.00
J6_43	6300.00	750.00
J6_44	6450.00	750.00
J6_45	6600.00	750.00
J6_46	6750.00	750.00
J6_47	6900.00	750.00
J6_48	7050.00	750.00
J6_49	7200.00	750.00
J6_50	7350.00	750.00
J6_51	7500.00	750.00
J6_52	7650.00	750.00
J7_1	0.00	900.00
J7_2	150.00	900.00
J7_3	300.00	900.00
J7_4	450.00	900.00
J7_5	600.00	900.00
J7_6	750.00	900.00
J7_7	900.00	900.00
J7_8	1050.00	900.00
J7_9	1200.00	900.00
J7_10	1350.00	900.00
J7_11	1500.00	900.00
J7_12	1650.00	900.00
J7_13	1800.00	900.00
J7_14	1950.00	900.00
J7_15	2100.00	900.00
J7_16	2250.00	900.00
J7_17	2400.00	900.00
J7_18	2550.00	900.00
J7_19	2700.00	900.00
J7_20	2850.00	900.00
J7_21	3000.00	900.00
J7_22	3150.00	900.00
J7_23	3300.00	900.00
J7_24	3450.00	900.00
J7_25	3600.00	900.00
J7_26	3750.00	900.00
J7_27	3900.00	900.00
J7_28	4050.00	900.00
J7_29	4200.00	900.00
J7_30	4350.00	900.00
J7_31	4500.00	900.00
J7_32	4650.00	900.00
J7_33	4800.00	900.00
J7_34	4950.00	900.00
J7_35	5100.00	900.00
J7_36	5250.00	900.00
J7_37	5400.00	900.00
J7_38	5550.00	900.00
J7_39	5700.00	900.00
J7_40	5850.00	900.00
J7_41	6000.00	900.00
J7_42	6150.00	900.00
J7_43	6300.00	900.00
J7_44	6450.00	900.00
J7_45	6600.00	900.00
J7_46	6750.00	900.00
J7_47	6900.00	900.00
J7_48	7050.00	900.00
J7_49	7200.00	900.00
J7_50	7350.00	900.00
J7_51	7500.00	900.00
J7_52	7650.00	900.00
J8_1	0.00	1050.00
J8_2	150.00	1050.00
J8_3	300.00	1050.00
J8_4	450.00	1050.00
J8_5	600.00	1050.00
J8_6	750.00	1050.00
J8_7	900.00	1050.00
J8_8	1050.00	1050.00
J8_9	1200.00	1050.00
J8_10	1350.00	1050.00
J8_11	1500.00	1050.00
J8_12	1650.00	1050.00
J8_13	1800.00	1050.00
J8_14	1950.00	1050.00
J8_15	2100.00	1050.00
J8_16	2250.00	1050.00
J8_17	2400.00	1050.00
J8_18	2550.00	1050.00
J8_19	2700.00	1050.00
J8_20	2850.00	1050.00
J8_21	3000.00	1050.00
J8_22	3150.00	1050.00
J8_23	3300.00	1050.00
J8_24	3450.00	1050.00
J8_25	3600.00	1050.00
J8_26	3750.00	1050.00
J8_27	3900.00	1050.00
J8_28	4050.00	1050.00
J8_29	4200.00	1050.00
J8_30	4350.00	1050.00
J8_31	4500.00	1050.00
J8_32	4650.00	1050.00
J8_33	4800.00	1050.00
J8_34	4950.00	1050.00
J8_35	5100.00	1050.00
J8_36	5250.00	1050.00
J8_37	5400.00	1050.00
J8_38	5550.00	1050.00
J8_39	5700.00	1050.00
J8_40	5850.00	1050.00
J8_41	6000.00	1050.00
J8_42	6150.00	1050.00
J8_43	6300.00	1050.00
J8_44	6450.00	1050.00
J8_45	6600.00	1050.00
J8_46	6750.00	1050.00
J8_47	6900.00	1050.00
J8_48	7050.00	1050.00
J8_49	7200.00	1050.00
J8_50	7350.00	1050.00
J8_51	7500.00	1050.00
J8_52	7650.00	1050.00
J9_1	0.00	1200.00
J9_2	150.00	1200.00
J9_3	300.00	1200.00
J9_4	450.00	1200.00
J9_5	600.00	1200.00
J9_6	750.00	1200.00
J9_7	900.00	1200.00
J9_8	1050.00	1200.00
J9_9	1200.00	1200.00
J9_10	1350.00	1200.00
J9_11	1500.00	1200.00
J9_12	1650.00	1200.00
J9_13	1800.00	1200.00
J9_14	1950.00	1200.00
J9_15	2100.00	1200.00
J9_16	2250.00	1200.00
J9_17	2400.00	1200.00
J9_18	2550.00	1200.00
J9_19	2700.00	1200.00
J9_20	2850.00	1200.00
J9_21	3000.00	1200.00
J9_22	3150.00	1200.00
J9_23	3300.00	1200.00
J9_24	3450.00	1200.00
J9_25	3600.00	1200.00
J9_26	3750.00	1200.00
J9_27	3900.00	1200.00
J9_28	4050.00	1200.00
J9_29	4200.00	1200.00
J9_30	4350.00	1200.00
J9_31	4500.00	1200.00
J9_32	4650.00	1200.00
J9_33	4800.00	1200.00
J9_34	4950.00	1200.00
J9_35	5100.00	1200.00
J9_36	5250.00	1200.00
J9_37	5400.00	1200.00
J9_38	5550.00	1200.00
J9_39	5700.00	1200.00
J9_40	5850.00	1200.00
J9_41	6000.00	1200.00
J9_42	6150.00	1200.00
J9_43	6300.00	1200.00
J9_44	6450.00	1200.00
J9_45	6600.00	1200.00
J9_46	6750.00	1200.00
J9_47	6900.00	1200.00
J9_48	7050.00	1200.00
J9_49	7200.00	1200.00
J9_50	7350.00	1200.00
J9_51	7500.00	1200.00
J9_52	7650.00	1200.00
J10_1	0.00	1350.00
J10_2	150.00	1350.00
J10_3	300.00	1350.00
J10_4	450.00	1350.00
J10_5	600.00	1350.00
J10_6	750.00	1350.00
J10_7	900.00	1350.00
J10_8	1050.00	1350.00
J10_9	1200.00	1350.00
J10_10	1350.00	1350.00
J10_11	1500.00	1350.00
J10_12	1650.00	1350.00
J10_13	1800.00	1350.00
J10_14	1950.00	1350.00
J10_15	2100.00	1350.00
J10_16	2250.00	1350.00
J10_17	2400.00	1350.00
J10_18	2550.00	1350.00
J10_19	2700.00	1350.00
J10_20	2850.00	1350.00
J10_21	3000.00	1350.00
J10_22	3150.00	1350.00
J10_23	3300.00	1350.00
J10_24	3450.00	1350.00
J10_25	3600.00	1350.00
J10_26	3750.00	1350.00
J10_27	3900.00	1350.00
J10_28	4050.00	1350.00
J10_29	4200.00	1350.00
J10_30	4350.00	1350.00
J10_31	4500.00	1350.00
J10_32	4650.00	1350.00
J10_33	4800.00	1350.00
J10_34	4950.00	1350.00
J10_35	5100.00	1350.00
J10_36	5250.00	1350.00
J10_37	5400.00	1350.00
J10_38	5550.00	1350.00
J10_39	5700.00	1350.00
J10_40	5850.00	1350.00
J10_41	6000.00	1350.00
J10_42	6150.00	1350.00
J10_43	6300.00	1350.00
J10_44	6450.00	1350.00
J10_45	6600.00	1350.00
J10_46	6750.00	1350.00
J10_47	6900.00	1350.00
J10_48	7050.00	1350.00
J10_49	7200.00	1350.00
J10_50	7350.00	1350.00
J10_51	7500.00	1350.00
J10_52	7650.00	1350.00
J11_1	0.00	1500.00
J11_2	150.00	1500.00
J11_3	300.00	1500.00
J11_4	450.00	1500.00
J11_5	600.00	1500.00
J11_6	750.00	1500.00
J11_7	900.00	1500.00
J11_8	1050.00	1500.00
J11_9	1200.00	1500.00
J11_10	1350.00	1500.00
J11_11	1500.00	1500.00
J11_12	1650.00	1500.00
J11_13	1800.00	1500.00
J11_14	1950.00	1500.00
J11_15	2100.00	1500.00
J11_16	2250.00	1500.00
J11_17	2400.00	1500.00
J11_18	2550.00	1500.00
J11_19	2700.00	1500.00
J11_20	2850.00	1500.00
J11_21	3000.00	1500.00
J11_22	3150.00	1500.00
J11_23	3300.00	1500.00
J11_24	3450.00	1500.00
J11_25	3600.00	1500.00
J11_26	3750.00	1500.00
J11_27	3900.00	1500.00
J11_28	4050.00	1500.00
J11_29	4200.00	1500.00
J11_30	4350.00	1500.00
J11_31	4500.00	1500.00
J11_32	4650.00	1500.00
J11_33	4800.00	1500.00
J11_34	4950.00	1500.00
J11_35	5100.00	1500.00
J11_36	5250.00	1500.00
J11_37	5400.00	1500.00
J11_38	5550.00	1500.00
J11_39	5700.00	1500.00
J11_40	5850.00	1500.00
J11_41	6000.00	1500.00
J11_42	6150.00	1500.00
J11_43	6300.00	1500.00
J11_44	6450.00	1500.00
J11_45	6600.00	1500.00
J11_46	6750.00	1500.00
J11_47	6900.00	1500.00
J11_48	7050.00	1500.00
J11_49	7200.00	1500.00
J11_50	7350.00	1500.00
J11_51	7500.00	1500.00
J11_52	7650.00	1500.00
J12_1	0.00	1650.00
J12_2	150.00	1650.00
J12_3	300.00	1650.00
J12_4	450.00	1650.00
J12_5	600.00	1650.00
J12_6	750.00	1650.00
J12_7	900.00	1650.00
J12_8	1050.00	1650.00
J12_9	1200.00	1650.00
J12_10	1350.00	1650.00
J12_11	1500.00	1650.00
J12_12	1650.00	1650.00
J12_13	1800.00	1650.00
J12_14	1950.00	1650.00
J12_15	2100.00	1650.00
J12_16	2250.00	1650.00
J12_17	2400.00	1650.00
J12_18	2550.00	1650.00
J12_19	2700.00	1650.00
J12_20	2850.00	1650.00
J12_21	3000.00	1650.00
J12_22	3150.00	1650.00
J12_23	3300.00	1650.00
J12_24	3450.00	1650.00
J12_25	3600.00	1650.00
J12_26	3750.00	1650.00
J12_27	3900.00	1650.00
J12_28	4050.00	1650.00
J12_29	4200.00	1650.00
J12_30	4350.00	1650.00
J12_31	4500.00	1650.00
J12_32	4650.00	1650.00
J12_33	4800.00	1650.00
J12_34	4950.00	1650.00
J12_35	5100.00	1650.00
J12_36	5250.00	1650.00
J12_37	5400.00	1650.00
J12_38	5550.00	1650.00
J12_39	5700.00	1650.00
J12_40	5850.00	1650.00
J12_41	6000.00	1650.00
J12_42	6150.00	1650.00
J12_43	6300.00	1650.00
J12_44	6450.00	1650.00
J12_45	6600.00	1650.00
J12_46	6750.00	1650.00
J12_47	6900.00	1650.00
J12_48	7050.00	1650.00
J12_49	7200.00	1650.00
J12_50	7350.00	1650.00
J12_51	7500.00	1650.00
J12_52	7650.00	1650.00
J13_1	0.00	1800.00
J13_2	150.00	1800.00
J13_3	300.00	1800.00
J13_4	450.00	1800.00
J13_5	600.00	1800.00
J13_6	750.00	1800.00
J13_7	900.00	1800.00
J13_8	1050.00	1800.00
J13_9	1200.00	1800.00
J13_10	1350.00	1800.00
J13_11	1500.00	1800.00
J13_12	1650.00	1800.00
J13_13	1800.00	1800.00
J13_14	1950.00	1800.00
J13_15	2100.00	1800.00
J13_16	2250.00	1800.00
J13_17	2400.00	1800.00
J13_18	2550.00	1800.00
J13_19	2700.00	1800.00
J13_20	2850.00	1800.00
J13_21	3000.00	1800.00
J13_22	3150.00	1800.00
J13_23	3300.00	1800.00
J13_24	3450.00	1800.00
J13_25	3600.00	1800.00
J13_26	3750.00	1800.00
J13_27	3900.00	1800.00
J13_28	4050.00	1800.00
J13_29	4200.00	1800.00
J13_30	4350.00	1800.00
J13_31	4500.00	1800.00
J13_32	4650.00	1800.00
J13_33	4800.00	1800.00
J13_34	4950.00	1800.00
J13_35	5100.00	1800.00
J13_36	5250.00	1800.00
J13_37	5400.00	1800.00
J13_38	5550.00	1800.00
J13_39	5700.00	1800.00
J13_40	5850.00	1800.00
J13_41	6000.00	1800.00
J13_42	6150.00	1800.00
J13_43	6300.00	1800.00
J13_44	6450.00	1800.00
J13_45	6600.00	1800.00
J13_46	6750.00	1800.00
J13_47	6900.00	1800.00
J13_48	7050.00	1800.00
J13_49	7200.00	1800.00
J13_50	7350.00	1800.00
J13_51	7500.00	1800.00
J13_52	7650.00	1800.00
J14_1	0.00	1950.00
J14_2	150.00	1950.00
J14_3	300.00	1950.00
J14_4	450.00	1950.00
J14_5	600.00	1950.00
J14_6	750.00	1950.00
J14_7	900.00	1950.00
J14_8	1050.00	1950.00
J14_9	1200.00	1950.00
J14_10	1350.00	1950.00
J14_11	1500.00	1950.00
J14_12	1650.00	1950.00
J14_13	1800.00	1950.00
J14_14	1950.00	1950.00
J14_15	2100.00	1950.00
J14_16	2250.00	1950.00
J14_17	2400.00	1950.00
J14_18	2550.00	1950.00
J14_19	2700.00	1950.00
J14_20	2850.00	1950.00
J14_21	3000.00	1950.00
J14_22	3150.00	1950.00
J14_23	3300.00	1950.00
J14_24	3450.00	1950.00
J14_25	3600.00	1950.00
J14_26	3750.00	1950.00
J14_27	3900.00	1950.00
J14_28	4050.00	1950.00
J14_29	4200.00	1950.00
J14_30	4350.00	1950.00
J14_31	4500.00	1950.00
J14_32	4650.00	1950.00
J14_33	4800.00	1950.00
J14_34	4950.00	1950.00
J14_35	5100.00	1950.00
J14_36	5250.00	1950.00
J14_37	5400.00	1950.00
J14_38	5550.00	1950.00
J14_39	5700.00	1950.00
J14_40	5850.00	1950.00
J14_41	6000.00	1950.00
J14_42	6150.00	1950.00
J14_43	6300.00	1950.00
J14_44	6450.00	1950.00
J14_45	6600.00	1950.00
J14_46	6750.00	1950.00
J14_47	6900.00	1950.00
J14_48	7050.00	1950.00
J14_49	7200.00	1950.00
J14_50	7350.00	1950.00
J14_51	7500.00	1950.00
J14_52	7650.00	1950.00
J15_1	0.00	2100.00
J15_2	150.00	2100.00
J15_3	300.00	2100.00
J15_4	450.00	2100.00
J15_5	600.00	2100.00
J15_6	750.00	2100.00
J15_7	900.00	2100.00
J15_8	1050.00	2100.00
J15_9	1200.00	2100.00
J15_10	1350.00	2100.00
J15_11	1500.00	2100.00
J15_12	1650.00	2100.00
J15_13	1800.00	2100.00
J15_14	1950.00	2100.00
J15_15	2100.00	2100.00
J15_16	2250.00	2100.00
J15_17	2400.00	2100.00
J15_18	2550.00	2100.00
J15_19	2700.00	2100.00
J15_20	2850.00	2100.00
J15_21	3000.00	2100.00
J15_22	3150.00	2100.00
J15_23	3300.00	2100.00
J15_24	3450.00	2100.00
J15_25	3600.00	2100.00
J15_26	3750.00	2100.00
J15_27	3900.00	2100.00
J15_28	4050.00	2100.00
J15_29	4200.00	2100.00
J15_30	4350.00	2100.00
J15_31	4500.00	2100.00
J15_32	4650.00	2100.00
J15_33	4800.00	2100.00
J15_34	4950.00	2100.00
J15_35	5100.00	2100.00
J15_36	5250.00	2100.00
J15_37	5400.00	2100.00
J15_38	5550.00	2100.00
J15_39	5700.00	2100.00
J15_40	5850.00	2100.00
J15_41	6000.00	2100.00
J15_42	6150.00	2100.00
J15_43	6300.00	2100.00
J15_44	6450.00	2100.00
J15_45	6600.00	2100.00
J15_46	6750.00	2100.00
J15_47	6900.00	2100.00
J15_48	7050.00	2100.00
J15_49	7200.00	2100.00
J15_50	7350.00	2100.00
J15_51	7500.00	2100.00
J15_52	7650.00	2100.00
J16_1	0.00	2250.00
J16_2	150.00	2250.00
J16_3	300.00	2250.00
J16_4	450.00	2250.00
J16_5	600.00	2250.00
J16_6	750.00	2250.00
J16_7	900.00	2250.00
J16_8	1050.00	2250.00
J16_9	1200.00	2250.00
J16_10	1350.00	2250.00
J16_11	1500.00	2250.00
J16_12	1650.00	2250.00
J16_13	1800.00	2250.00
J16_14	1950.00	2250.00
J16_15	2100.00	2250.00
J16_16	2250.00	2250.00
J16_17	2400.00	2250.00
J16_18	2550.00	2250.00
J16_19	2700.00	2250.00
J16_20	2850.00	2250.00
J16_21	3000.00	2250.00
J16_22	3150.00	2250.00
J16_23	3300.00	2250.00
J16_24	3450.00	2250.00
J16_25	3600.00	2250.00
J16_26	3750.00	2250.00
J16_27	3900.00	2250.00
J16_28	4050.00	2250.00
J16_29	4200.00	2250.00
J16_30	4350.00	2250.00
J16_31	4500.00	2250.00
J16_32	4650.00	2250.00
J16_33	4800.00	2250.00
J16_34	4950.00	2250.00
J16_35	5100.00	2250.00
J16_36	5250.00	2250.00
J16_37	5400.00	2250.00
J16_38	5550.00	2250.00
J16_39	5700.00	2250.00
J16_40	5850.00	2250.00
J16_41	6000.00	2250.00
J16_42	6150.00	2250.00
J16_43	6300.00	2250.00
J16_44	6450.00	2250.00
J16_45	6600.00	2250.00
J16_46	6750.00	2250.00
J16_47	6900.00	2250.00
J16_48	7050.00	2250.00
J16_49	7200.00	2250.00
J16_50	7350.00	2250.00
J16_51	7500.00	2250.00
J16_52	7650.00	2250.00
J17_1	0.00	2400.00
J17_2	150.00	2400.00
J17_3	300.00	2400.00
J17_4	450.00	2400.00
J17_5	600.00	2400.00
J17_6	750.00	2400.00
J17_7	900.00	2400.00
J17_8	1050.00	2400.00
J17_9	1200.00	2400.00
J17_10	1350.00	2400.00
J17_11	1500.00	2400.00
J17_12	1650.00	2400.00
J17_13	1800.00	2400.00
J17_14	1950.00	2400.00
J17_15	2100.00	2400.00
J17_16	2250.00	2400.00
J17_17	2400.00	2400.00
J17_18	2550.00	2400.00
J17_19	2700.00	2400.00
J17_20	2850.00	2400.00
J17_21	3000.00	2400.00
J17_22	3150.00	2400.00
J17_23	3300.00	2400.00
J17_24	3450.00	2400.00
J17_25	3600.00	2400.00
J17_26	3750.00	2400.00
J17_27	3900.00	2400.00
J17_28	4050.00	2400.00
J17_29	4200.00	2400.00
J17_30	4350.00	2400.00
J17_31	4500.00	2400.00
J17_32	4650.00	2400.00
J17_33	4800.00	2400.00
J17_34	4950.00	2400.00
J17_35	5100.00	2400.00
J17_36	5250.00	2400.00
J17_37	5400.00	2400.00
J17_38	5550.00	2400.00
J17_39	5700.00	2400.00
J17_40	5850.00	2400.00
J17_41	6000.00	2400.00
J17_42	6150.00	2400.00
J17_43	6300.00	2400.00
J17_44	6450.00	2400.00
J17_45	6600.00	2400.00
J17_46	6750.00	2400.00
J17_47	6900.00	2400.00
J17_48	7050.00	2400.00
J17_49	7200.00	2400.00
J17_50	7350.00	2400.00
J17_51	7500.00	2400.00
J17_52	7650.00	2400.00
J18_1	0.00	2550.00
J18_2	150.00	2550.00
J18_3	300.00	2550.00
J18_4	450.00	2550.00
J18_5	600.00	2550.00
J18_6	750.00	2550.00
J18_7	900.00	2550.00
J18_8	1050.00	2550.00
J18_9	1200.00	2550.00
J18_10	1350.00	2550.00
J18_11	1500.00	2550.00
J18_12	1650.00	2550.00
J18_13	1800.00	2550.00
J18_14	1950.00	2550.00
J18_15	2100.00	2550.00
J18_16	2250.00	2550.00
J18_17	2400.00	2550.00
J18_18	2550.00	2550.00
J18_19	2700.00	2550.00
J18_20	2850.00	2550.00
J18_21	3000.00	2550.00
J18_22	3150.00	2550.00
J18_23	3300.00	2550.00
J18_24	3450.00	2550.00
J18_25	3600.00	2550.00
J18_26	3750.00	2550.00
J18_27	3900.00	2550.00
J18_28	4050.00	2550.00
J18_29	4200.00	2550.00
J18_30	4350.00	2550.00
J18_31	4500.00	2550.00
J18_32	4650.00	2550.00
J18_33	4800.00	2550.00
J18_34	4950.00	2550.00
J18_35	5100.00	2550.00
J18_36	5250.00	2550.00
J18_37	5400.00	2550.00
J18_38	5550.00	2550.00
J18_39	5700.00	2550.00
J18_40	5850.00	2550.00
J18_41	6000.00	2550.00
J18_42	6150.00	2550.00
J18_43	6300.00	2550.00
J18_44	6450.00	2550.00
J18_45	6600.00	2550.00
J18_46	6750.00	2550.00
J18_47	6900.00	2550.00
J18_48	7050.00	2550.00
J18_49	7200.00	2550.00
J18_50	7350.00	2550.00
J18_51	7500.00	2550.00
J18_52	7650.00	2550.00
J19_1	0.00	2700.00
J19_2	150.00	2700.00
J19_3	300.00	2700.00
J19_4	450.00	2700.00
J19_5	600.00	2700.00
J19_6	750.00	2700.00
J19_7	900.00	2700.00
J19_8	1050.00	2700.00
J19_9	1200.00	2700.00
J19_10	1350.00	2700.00
J19_11	1500.00	2700.00
J19_12	1650.00	2700.00
J19_13	1800.00	2700.00
J19_14	1950.00	2700.00
J19_15	2100.00	2700.00
J19_16	2250.00	2700.00
J19_17	2400.00	2700.00
J19_18	2550.00	2700.00
J19_19	2700.00	2700.00
J19_20	2850.00	2700.00
J19_21	3000.00	2700.00
J19_22	3150.00	2700.00
J19_23	3300.00	2700.00
J19_24	3450.00	2700.00
J19_25	3600.00	2700.00
J19_26	3750.00	2700.00
J19_27	3900.00	2700.00
J19_28	4050.00	2700.00
J19_29	4200.00	2700.00
J19_30	4350.00	2700.00
J19_31	4500.00	2700.00
J19_32	4650.00	2700.00
J19_33	4800.00	2700.00
J19_34	4950.00	2700.00
J19_35	5100.00	2700.00
J19_36	5250.00	2700.00
J19_37	5400.00	2700.00
J19_38	5550.00	2700.00
J19_39	5700.00	2700.00
J19_40	5850.00	2700.00
J19_41	6000.00	2700.00
J19_42	6150.00	2700.00
J19_43	6300.00	2700.00
J19_44	6450.00	2700.00
J19_45	6600.00	2700.00
J19_46	6750.00	2700.00
J19_47	6900.00	2700.00
J19_48	7050.00	2700.00
J19_49	7200.00	2700.00
J19_50	7350.00	2700.00
J19_51	7500.00	2700.00
J19_52	7650.00	2700.00
J20_1	0.00	2850.00
J20_2	150.00	2850.00
J20_3	300.00	2850.00
J20_4	450.00	2850.00
J20_5	600.00	2850.00
J20_6	750.00	2850.00
J20_7	900.00	2850.00
J20_8	1050.00	2850.00
J20_9	1200.00	2850.00
J20_10	1350.00	2850.00
J20_11	1500.00	2850.00
J20_12	1650.00	2850.00
J20_13	1800.00	2850.00
J20_14	1950.00	2850.00
J20_15	2100.00	2850.00
J20_16	2250.00	2850.00
J20_17	2400.00	2850.00
J20_18	2550.00	2850.00
J20_19	2700.00	2850.00
J20_20	2850.00	2850.00
J20_21	3000.00	2850.00
J20_22	3150.00	2850.00
J20_23	3300.00	2850.00
J20_24	3450.00	2850.00
J20_25	3600.00	2850.00
J20_26	3750.00	2850.00
J20_27	3900.00	2850.00
J20_28	4050.00	2850.00
J20_29	4200.00	2850.00
J20_30	4350.00	2850.00
J20_31	4500.00	2850.00
J20_32	4650.00	2850.00
J20_33	4800.00	2850.00
J20_34	4950.00	2850.00
J20_35	5100.00	2850.00
J20_36	5250.00	2850.00
J20_37	5400.00	2850.00
J20_38	5550.00	2850.00
J20_39	5700.00	2850.00
J20_40	5850.00	2850.00
J20_41	6000.00	2850.00
J20_42	6150.00	2850.00
J20_43	6300.00	2850.00
J20_44	6450.00	2850.00
J20_45	6600.00	2850.00
J20_46	6750.00	2850.00
J20_47	6900.00	2850.00
J20_48	7050.00	2850.00
J20_49	7200.00	2850.00
J20_50	7350.00	2850.00
J20_51	7500.00	2850.00
J20_52	7650.00	2850.00
J21_1	0.00	3000.00
J21_2	150.00	3000.00
J21_3	300.00	3000.00
J21_4	450.00	3000.00
J21_5	600.00	3000.00
J21_6	750.00	3000.00
J21_7	900.00	3000.00
J21_8	1050.00	3000.00
J21_9	1200.00	3000.00
J21_10	1350.00	3000.00
J21_11	1500.00	3000.00
J21_12	1650.00	3000.00
J21_13	1800.00	3000.00
J21_14	1950.00	3000.00
J21_15	2100.00	3000.00
J21_16	2250.00	3000.00
J21_17	2400.00	3000.00
J21_18	2550.00	3000.00
J21_19	2700.00	3000.00
J21_20	2850.00	3000.00
J21_21	3000.00	3000.00
J21_22	3150.00	3000.00
J21_23	3300.00	3000.00
J21_24	3450.00	3000.00
J21_25	3600.00	3000.00
J21_26	3750.00	3000.00
J21_27	3900.00	3000.00
J21_28	4050.00	3000.00
J21_29	4200.00	3000.00
J21_30	4350.00	3000.00
J21_31	4500.00	3000.00
J21_32	4650.00	3000.00
J21_33	4800.00	3000.00
J21_34	4950.00	3000.00
J21_35	5100.00	3000.00
J21_36	5250.00	3000.00
J21_37	5400.00	3000.00
J21_38	5550.00	3000.00
J21_39	5700.00	3000.00
J21_40	5850.00	3000.00
J21_41	6000.00	3000.00
J21_42	6150.00	3000.00
J21_43	6300.00	3000.00
J21_44	6450.00	3000.00
J21_45	6600.00	3000.00
J21_46	6750.00	3000.00
J21_47	6900.00	3000.00
J21_48	7050.00	3000.00
J21_49	7200.00	3000.00
J21_50	7350.00	3000.00
J21_51	7500.00	3000.00
J21_52	7650.00	3000.00
J22_1	0.00	3150.00
J22_2	150.00	3150.00
J22_3	300.00	3150.00
J22_4	450.00	3150.00
J22_5	600.00	3150.00
J22_6	750.00	3150.00
J22_7	900.00	3150.00
J22_8	1050.00	3150.00
J22_9	1200.00	3150.00
J22_10	1350.00	3150.00
J22_11	1500.00	3150.00
J22_12	1650.00	3150.00
J22_13	1800.00	3150.00
J22_14	1950.00	3150.00
J22_15	2100.00	3150.00
J22_16	2250.00	3150.00
J22_17	2400.00	3150.00
J22_18	2550.00	3150.00
J22_19	2700.00	3150.00
J22_20	2850.00	3150.00
J22_21	3000.00	3150.00
J22_22	3150.00	3150.00
J22_23	3300.00	3150.00
J22_24	3450.00	3150.00
J22_25	3600.00	3150.00
J22_26	3750.00	3150.00
J22_27	3900.00	3150.00
J22_28	4050.00	3150.00
J22_29	4200.00	3150.00
J22_30	4350.00	3150.00
J22_31	4500.00	3150.00
J22_32	4650.00	3150.00
J22_33	4800.00	3150.00
J22_34	4950.00	3150.00
J22_35	5100.00	3150.00
J22_36	5250.00	3150.00
J22_37	5400.00	3150.00
J22_38	5550.00	3150.00
J22_39	5700.00	3150.00
J22_40	5850.00	3150.00
J22_41	6000.00	3150.00
J22_42	6150.00	3150.00
J22_43	6300.00	3150.00
J22_44	6450.00	3150.00
J22_45	6600.00	3150.00
J22_46	6750.00	3150.00
J22_47	6900.00	3150.00
J22_48	7050.00	3150.00
J22_49	7200.00	3150.00
J22_50	7350.00	3150.00
J22_51	7500.00	3150.00
J22_52	7650.00	3150.00
J23_1	0.00	3300.00
J23_2	150.00	3300.00
J23_3	300.00	3300.00
J23_4	450.00	3300.00
J23_5	600.00	3300.00
J23_6	750.00	3300.00
J23_7	900.00	3300.00
J23_8	1050.00	3300.00
J23_9	1200.00	3300.00
J23_10	1350.00	3300.00
J23_11	1500.00	3300.00
J23_12	1650.00	3300.00
J23_13	1800.00	3300.00
J23_14	1950.00	3300.00
J23_15	2100.00	3300.00
J23_16	2250.00	3300.00
J23_17	2400.00	3300.00
J23_18	2550.00	3300.00
J23_19	2700.00	3300.00
J23_20	2850.00	3300.00
J23_21	3000.00	3300.00
J23_22	3150.00	3300.00
J23_23	3300.00	3300.00
J23_24	3450.00	3300.00
J23_25	3600.00	3300.00
J23_26	3750.00	3300.00
J23_27	3900.00	3300.00
J23_28	4050.00	3300.00
J23_29	4200.00	3300.00
J23_30	4350.00	3300.00
J23_31	4500.00	3300.00
J23_32	4650.00	3300.00
J23_33	4800.00	3300.00
J23_34	4950.00	3300.00
J23_35	5100.00	3300.00
J23_36	5250.00	3300.00
J23_37	5400.00	3300.00
J23_38	5550.00	3300.00
J23_39	5700.00	3300.00
J23_40	5850.00	3300.00
J23_41	6000.00	3300.00
J23_42	6150.00	3300.00
J23_43	6300.00	3300.00
J23_44	6450.00	3300.00
J23_45	6600.00	3300.00
J23_46	6750.00	3300.00
J23_47	6900.00	3300.00
J23_48	7050.00	3300.00
J23_49	7200.00	3300.00
J23_50	7350.00	3300.00
J23_51	7500.00	3300.00
J23_52	7650.00	3300.00
J24_1	0.00	3450.00
J24_2	150.00	3450.00
J24_3	300.00	3450.00
J24_4	450.00	3450.00
J24_5	600.00	3450.00
J24_6	750.00	3450.00
J24_7	900.00	3450.00
J24_8	1050.00	3450.00
J24_9	1200.00	3450.00
J24_10	1350.00	3450.00
J24_11	1500.00	3450.00
J24_12	1650.00	3450.00
J24_13	1800.00	3450.00
J24_14	1950.00	3450.00
J24_15	2100.00	3450.00
J24_16	2250.00	3450.00
J24_17	2400.00	3450.00
J24_18	2550.00	3450.00
J24_19	2700.00	3450.00
J24_20	2850.00	3450.00
J24_21	3000.00	3450.00
J24_22	3150.00	3450.00
J24_23	3300.00	3450.00
J24_24	3450.00	3450.00
J24_25	3600.00	3450.00
J24_26	3750.00	3450.00
J24_27	3900.00	3450.00
J24_28	4050.00	3450.00
J24_29	4200.00	3450.00
J24_30	4350.00	3450.00
J24_31	4500.00	3450.00
J24_32	4650.00	3450.00
J24_33	4800.00	3450.00
J24_34	4950.00	3450.00
J24_35	5100.00	3450.00
J24_36	5250.00	3450.00
J24_37	5400.00	3450.00
J24_38	5550.00	3450.00
J24_39	5700.00	3450.00
J24_40	5850.00	3450.00
J24_41	6000.00	3450.00
J24_42	6150.00	3450.00
J24_43	6300.00	3450.00
J24_44	6450.00	3450.00
J24_45	6600.00	3450.00
J24_46	6750.00	3450.00
J24_47	6900.00	3450.00
J24_48	7050.00	3450.00
J24_49	7200.00	3450.00
J24_50	7350.00	3450.00
J24_51	7500.00	3450.00
J24_52	7650.00	3450.00
J25_1	0.00	3600.00
J25_2	150.00	3600.00
J25_3	300.00	3600.00
J25_4	450.00	3600.00
J25_5	600.00	3600.00
J25_6	750.00	3600.00
J25_7	900.00	3600.00
J25_8	1050.00	3600.00
J25_9	1200.00	3600.00
J25_10	1350.00	3600.00
J25_11	1500.00	3600.00
J25_12	1650.00	3600.00
J25_13	1800.00	3600.00
J25_14	1950.00	3600.00
J25_15	2100.00	3600.00
J25_16	2250.00	3600.00
J25_17	2400.00	3600.00
J25_18	2550.00	3600.00
J25_19	2700.00	3600.00
J25_20	2850.00	3600.00
J25_21	3000.00	3600.00
J25_22	3150.00	3600.00
J25_23	3300.00	3600.00
J25_24	3450.00	3600.00
J25_25	3600.00	3600.00
J25_26	3750.00	3600.00
J25_27	3900.00	3600.00
J25_28	4050.00	3600.00
J25_29	4200.00	3600.00
J25_30	4350.00	3600.00
J25_31	4500.00	3600.00
J25_32	4650.00	3600.00
J25_33	4800.00	3600.00
J25_34	4950.00	3600.00
J25_35	5100.00	3600.00
J25_36	5250.00	3600.00
J25_37	5400.00	3600.00
J25_38	5550.00	3600.00
J25_39	5700.00	3600.00
J25_40	5850.00	3600.00
J25_41	6000.00	3600.00
J25_42	6150.00	3600.00
J25_43	6300.00	3600.00
J25_44	6450.00	3600.00
J25_45	6600.00	3600.00
J25_46	6750.00	3600.00
J25_47	6900.00	3600.00
J25_48	7050.00	3600.00
J25_49	7200.00	3600.00
J25_50	7350.00	3600.00
J25_51	7500.00	3600.00
J25_52	7650.00	3600.00
J26_1	0.00	3750.00
J26_2	150.00	3750.00
J26_3	300.00	3750.00
J26_4	450.00	3750.00
J26_5	600.00	3750.00
J26_6	750.00	3750.00
J26_7	900.00	3750.00
J26_8	1050.00	3750.00
J26_9	1200.00	3750.00
J26_10	1350.00	3750.00
J26_11	1500.00	3750.00
J26_12	1650.00	3750.00
J26_13	1800.00	3750.00
J26_14	1950.00	3750.00
J26_15	2100.00	3750.00
J26_16	2250.00	3750.00
J26_17	2400.00	3750.00
J26_18	2550.00	3750.00
J26_19	2700.00	3750.00
J26_20	2850.00	3750.00
J26_21	3000.00	3750.00
J26_22	3150.00	3750.00
J26_23	3300.00	3750.00
J26_24	3450.00	3750.00
J26_25	3600.00	3750.00
J26_26	3750.00	3750.00
J26_27	3900.00	3750.00
J26_28	4050.00	3750.00
J26_29	4200.00	3750.00
J26_30	4350.00	3750.00
J26_31	4500.00	3750.00
J26_32	4650.00	3750.00
J26_33	4800.00	3750.00
J26_34	4950.00	3750.00
J26_35	5100.00	3750.00
J26_36	5250.00	3750.00
J26_37	5400.00	3750.00
J26_38	5550.00	3750.00
J26_39	5700.00	3750.00
J26_40	5850.00	3750.00
J26_41	6000.00	3750.00
J26_42	6150.00	3750.00
J26_43	6300.00	3750.00
J26_44	6450.00	3750.00
J26_45	6600.00	3750.00
J26_46	6750.00	3750.00
J26_47	6900.00	3750.00
J26_48	7050.00	3750.00
J26_49	7200.00	3750.00
J26_50	7350.00	3750.00
J26_51	7500.00	3750.00
J26_52	7650.00	3750.00
J27_1	0.00	3900.00
J27_2	150.00	3900.00
J27_3	300.00	3900.00
J27_4	450.00	3900.00
J27_5	600.00	3900.00
J27_6	750.00	3900.00
J27_7	900.00	3900.00
J27_8	1050.00	3900.00
J27_9	1200.00	3900.00
J27_10	1350.00	3900.00
J27_11	1500.00	3900.00
J27_12	1650.00	3900.00
J27_13	1800.00	3900.00
J27_14	1950.00	3900.00
J27_15	2100.00	3900.00
J27_16	2250.00	3900.00
J27_17	2400.00	3900.00
J27_18	2550.00	3900.00
J27_19	2700.00	3900.00
J27_20	2850.00	3900.00
J27_21	3000.00	3900.00
J27_22	3150.00	3900.00
J27_23	3300.00	3900.00
J27_24	3450.00	3900.00
J27_25	3600.00	3900.00
J27_26	3750.00	3900.00
J27_27	3900.00	3900.00
J27_28	4050.00	3900.00
J27_29	4200.00	3900.00
J27_30	4350.00	3900.00
J27_31	4500.00	3900.00
J27_32	4650.00	3900.00
J27_33	4800.00	3900.00
J27_34	4950.00	3900.00
J27_35	5100.00	3900.00
J27_36	5250.00	3900.00
J27_37	5400.00	3900.00
J27_38	5550.00	3900.00
J27_39	5700.00	3900.00
J27_40	5850.00	3900.00
J27_41	6000.00	3900.00
J27_42	6150.00	3900.00
J27_43	6300.00	3900.00
J27_44	6450.00	3900.00
J27_45	6600.00	3900.00
J27_46	6750.00	3900.00
J27_47	6900.00	3900.00
J27_48	7050.00	3900.00
J27_49	7200.00	3900.00
J27_50	7350.00	3900.00
J27_51	7500.00	3900.00
J27_52	7650.00	3900.00
J28_1	0.00	4050.00
J28_2	150.00	4050.00
J28_3	300.00	4050.00
J28_4	450.00	4050.00
J28_5	600.00	4050.00
J28_6	750.00	4050.00
J28_7	900.00	4050.00
J28_8	1050.00	4050.00
J28_9	1200.00	4050.00
J28_10	1350.00	4050.00
J28_11	1500.00	4050.00
J28_12	1650.00	4050.00
J28_13	1800.00	4050.00
J28_14	1950.00	4050.00
J28_15	2100.00	4050.00
J28_16	2250.00	4050.00
J28_17	2400.00	4050.00
J28_18	2550.00	4050.00
J28_19	2700.00	4050.00
J28_20	2850.00	4050.00
J28_21	3000.00	4050.00
J28_22	3150.00	4050.00
J28_23	3300.00	4050.00
J28_24	3450.00	4050.00
J28_25	3600.00	4050.00
J28_26	3750.00	4050.00
J28_27	3900.00	4050.00
J28_28	4050.00	4050.00
J28_29	4200.00	4050.00
J28_30	4350.00	4050.00
J28_31	4500.00	4050.00
J28_32	4650.00	4050.00
J28_33	4800.00	4050.00
J28_34	4950.00	4050.00
J28_35	5100.00	4050.00
J28_36	5250.00	4050.00
J28_37	5400.00	4050.00
J28_38	5550.00	4050.00
J28_39	5700.00	4050.00
J28_40	5850.00	4050.00
J28_41	6000.00	4050.00
J28_42	6150.00	4050.00
J28_43	6300.00	4050.00
J28_44	6450.00	4050.00
J28_45	6600.00	4050.00
J28_46	6750.00	4050.00
J28_47	6900.00	4050.00
J28_48	7050.00	4050.00
J28_49	7200.00	4050.00
J28_50	7350.00	4050.00
J28_51	7500.00	4050.00
J28_52	7650.00	4050.00
J29_1	0.00	4200.00
J29_2	150.00	4200.00
J29_3	300.00	4200.00
J29_4	450.00	4200.00
J29_5	600.00	4200.00
J29_6	750.00	4200.00
J29_7	900.00	4200.00
J29_8	1050.00	4200.00
J29_9	1200.00	4200.00
J29_10	1350.00	4200.00
J29_11	1500.00	4200.00
J29_12	1650.00	4200.00
J29_13	1800.00	4200.00
J29_14	1950.00	4200.00
J29_15	2100.00	4200.00
J29_16	2250.00	4200.00
J29_17	2400.00	4200.00
J29_18	2550.00	4200.00
J29_19	2700.00	4200.00
J29_20	2850.00	4200.00
J29_21	3000.00	4200.00
J29_22	3150.00	4200.00
J29_23	3300.00	4200.00
J29_24	3450.00	4200.00
J29_25	3600.00	4200.00
J29_26	3750.00	4200.00
J29_27	3900.00	4200.00
J29_28	4050.00	4200.00
J29_29	4200.00	4200.00
J29_30	4350.00	4200.00
J29_31	4500.00	4200.00
J29_32	4650.00	4200.00
J29_33	4800.00	4200.00
J29_34	4950.00	4200.00
J29_35	5100.00	4200.00
J29_36	5250.00	4200.00
J29_37	5400.00	4200.00
J29_38	5550.00	4200.00
J29_39	5700.00	4200.00
J29_40	5850.00	4200.00
J29_41	6000.00	4200.00
J29_42	6150.00	4200.00
J29_43	6300.00	4200.00
J29_44	6450.00	4200.00
J29_45	6600.00	4200.00
J29_46	6750.00	4200.00
J29_47	6900.00	4200.00
J29_48	7050.00	4200.00
J29_49	7200.00	4200.00
J29_50	7350.00	4200.00
J29_51	7500.00	4200.00
J29_52	7650.00	4200.00
J30_1	0.00	4350.00
J30_2	150.00	4350.00
J30_3	300.00	4350.00
J30_4	450.00	4350.00
J30_5	600.00	4350.00
J30_6	750.00	4350.00
J30_7	900.00	4350.00
J30_8	1050.00	4350.00
J30_9	1200.00	4350.00
J30_10	1350.00	4350.00
J30_11	1500.00	4350.00
J30_12	1650.00	4350.00
J30_13	1800.00	4350.00
J30_14	1950.00	4350.00
J30_15	2100.00	4350.00
J30_16	2250.00	4350.00
J30_17	2400.00	4350.00
J30_18	2550.00	4350.00
J30_19	2700.00	4350.00
J30_20	2850.00	4350.00
J30_21	3000.00	4350.00
J30_22	3150.00	4350.00
J30_23	3300.00	4350.00
J30_24	3450.00	4350.00
J30_25	3600.00	4350.00
J30_26	3750.00	4350.00
J30_27	3900.00	4350.00
J30_28	4050.00	4350.00
J30_29	4200.00	4350.00
J30_30	4350.00	4350.00
J30_31	4500.00	4350.00
J30_32	4650.00	4350.00
J30_33	4800.00	4350.00
J30_34	4950.00	4350.00
J30_35	5100.00	4350.00
J30_36	5250.00	4350.00
J30_37	5400.00	4350.00
J30_38	5550.00	4350.00
J30_39	5700.00	4350.00
J30_40	5850.00	4350.00
J30_41	6000.00	4350.00
J30_42	6150.00	4350.00
J30_43	6300.00	4350.00
J30_44	6450.00	4350.00
J30_45	6600.00	4350.00
J30_46	6750.00	4350.00
J30_47	6900.00	4350.00
J30_48	7050.00	4350.00
J30_49	7200.00	4350.00
J30_50	7350.00	4350.00
J30_51	7500.00	4350.00
J30_52	7650.00	4350.00
J31_1	0.00	4500.00
J31_2	150.00	4500.00
J31_3	300.00	4500.00
J31_4	450.00	4500.00
J31_5	600.00	4500.00
J31_6	750.00	4500.00
J31_7	900.00	4500.00
J31_8	1050.00	4500.00
J31_9	1200.00	4500.00
J31_10	1350.00	4500.00
J31_11	1500.00	4500.00
J31_12	1650.00	4500.00
J31_13	1800.00	4500.00
J31_14	1950.00	4500.00
J31_15	2100.00	4500.00
J31_16	2250.00	4500.00
J31_17	2400.00	4500.00
J31_18	2550.00	4500.00
J31_19	2700.00	4500.00
J31_20	2850.00	4500.00
J31_21	3000.00	4500.00
J31_22	3150.00	4500.00
J31_23	3300.00	4500.00
J31_24	3450.00	4500.00
J31_25	3600.00	4500.00
J31_26	3750.00	4500.00
J31_27	3900.00	4500.00
J31_28	4050.00	4500.00
J31_29	4200.00	4500.00
J31_30	4350.00	4500.00
J31_31	4500.00	4500.00
J31_32	4650.00	4500.00
J31_33	4800.00	4500.00
J31_34	4950.00	4500.00
J31_35	5100.00	4500.00
J31_36	5250.00	4500.00
J31_37	5400.00	4500.00
J31_38	5550.00	4500.00
J31_39	5700.00	4500.00
J31_40	5850.00	4500.00
J31_41	6000.00	4500.00
J31_42	6150.00	4500.00
J31_43	6300.00	4500.00
J31_44	6450.00	4500.00
J31_45	6600.00	4500.00
J31_46	6750.00	4500.00
J31_47	6900.00	4500.00
J31_48	7050.00	4500.00
J31_49	7200.00	4500.00
J31_50	7350.00	4500.00
J31_51	7500.00	4500.00
J31_52	7650.00	4500.00
J32_1	0.00	4650.00
J32_2	150.00	4650.00
J32_3	300.00	4650.00
J32_4	450.00	4650.00
J32_5	600.00	4650.00
J32_6	750.00	4650.00
J32_7	900.00	4650.00
J32_8	1050.00	4650.00
J32_9	1200.00	4650.00
J32_10	1350.00	4650.00
J32_11	1500.00	4650.00
J32_12	1650.00	4650.00
J32_13	1800.00	4650.00
J32_14	1950.00	4650.00
J32_15	2100.00	4650.00
J32_16	2250.00	4650.00
J32_17	2400.00	4650.00
J32_18	2550.00	4650.00
J32_19	2700.00	4650.00
J32_20	2850.00	4650.00
J32_21	3000.00	4650.00
J32_22	3150.00	4650.00
J32_23	3300.00	4650.00
J32_24	3450.00	4650.00
J32_25	3600.00	4650.00
J32_26	3750.00	4650.00
J32_27	3900.00	4650.00
J32_28	4050.00	4650.00
J32_29	4200.00	4650.00
J32_30	4350.00	4650.00
J32_31	4500.00	4650.00
J32_32	4650.00	4650.00
J32_33	4800.00	4650.00
J32_34	4950.00	4650.00
J32_35	5100.00	4650.00
J32_36	5250.00	4650.00
J32_37	5400.00	4650.00
J32_38	5550.00	4650.00
J32_39	5700.00	4650.00
J32_40	5850.00	4650.00
J32_41	6000.00	4650.00
J32_42	6150.00	4650.00
J32_43	6300.00	4650.00
J32_44	6450.00	4650.00
J32_45	6600.00	4650.00
J32_46	6750.00	4650.00
J32_47	6900.00	4650.00
J32_48	7050.00	4650.00
J32_49	7200.00	4650.00
J32_50	7350.00	4650.00
J32_51	7500.00	4650.00
J32_52	7650.00	4650.00
J33_1	0.00	4800.00
J33_2	150.00	4800.00
J33_3	300.00	4800.00
J33_4	450.00	4800.00
J33_5	600.00	4800.00
J33_6	750.00	4800.00
J33_7	900.00	4800.00
J33_8	1050.00	4800.00
J33_9	1200.00	4800.00
J33_10	1350.00	4800.00
J33_11	1500.00	4800.00
J33_12	1650.00	4800.00
J33_13	1800.00	4800.00
J33_14	1950.00	4800.00
J33_15	2100.00	4800.00
J33_16	2250.00	4800.00
J33_17	2400.00	4800.00
J33_18	2550.00	4800.00
J33_19	2700.00	4800.00
J33_20	2850.00	4800.00
J33_21	3000.00	4800.00
J33_22	3150.00	4800.00
J33_23	3300.00	4800.00
J33_24	3450.00	4800.00
J33_25	3600.00	4800.00
J33_26	3750.00	4800.00
J33_27	3900.00	4800.00
J33_28	4050.00	4800.00
J33_29	4200.00	4800.00
J33_30	4350.00	4800.00
J33_31	4500.00	4800.00
J33_32	4650.00	4800.00
J33_33	4800.00	4800.00
J33_34	4950.00	4800.00
J33_35	5100.00	4800.00
J33_36	5250.00	4800.00
J33_37	5400.00	4800.00
J33_38	5550.00	4800.00
J33_39	5700.00	4800.00
J33_40	5850.00	4800.00
J33_41	6000.00	4800.00
J33_42	6150.00	4800.00
J33_43	6300.00	4800.00
J33_44	6450.00	4800.00
J33_45	6600.00	4800.00
J33_46	6750.00	4800.00
J33_47	6900.00	4800.00
J33_48	7050.00	4800.00
J33_49	7200.00	4800.00
J33_50	7350.00	4800.00
J33_51	7500.00	4800.00
J33_52	7650.00	4800.00
J34_1	0.00	4950.00
J34_2	150.00	4950.00
J34_3	300.00	4950.00
J34_4	450.00	4950.00
J34_5	600.00	4950.00
J34_6	750.00	4950.00
J34_7	900.00	4950.00
J34_8	1050.00	4950.00
J34_9	1200.00	4950.00
J34_10	1350.00	4950.00
J34_11	1500.00	4950.00
J34_12	1650.00	4950.00
J34_13	1800.00	4950.00
J34_14	1950.00	4950.00
J34_15	2100.00	4950.00
J34_16	2250.00	4950.00
J34_17	2400.00	4950.00
J34_18	2550.00	4950.00
J34_19	2700.00	4950.00
J34_20	2850.00	4950.00
J34_21	3000.00	4950.00
J34_22	3150.00	4950.00
J34_23	3300.00	4950.00
J34_24	3450.00	4950.00
J34_25	3600.00	4950.00
J34_26	3750.00	4950.00
J34_27	3900.00	4950.00
J34_28	4050.00	4950.00
J34_29	4200.00	4950.00
J34_30	4350.00	4950.00
J34_31	4500.00	4950.00
J34_32	4650.00	4950.00
J34_33	4800.00	4950.00
J34_34	4950.00	4950.00
J34_35	5100.00	4950.00
J34_36	5250.00	4950.00
J34_37	5400.00	4950.00
J34_38	5550.00	4950.00
J34_39	5700.00	4950.00
J34_40	5850.00	4950.00
J34_41	6000.00	4950.00
J34_42	6150.00	4950.00
J34_43	6300.00	4950.00
J34_44	6450.00	4950.00
J34_45	6600.00	4950.00
J34_46	6750.00	4950.00
J34_47	6900.00	4950.00
J34_48	7050.00	4950.00
J34_49	7200.00	4950.00
J34_50	7350.00	4950.00
J34_51	7500.00	4950.00
J34_52	7650.00	4950.00
J35_1	0.00	5100.00
J35_2	150.00	5100.00
J35_3	300.00	5100.00
J35_4	450.00	5100.00
J35_5	600.00	5100.00
J35_6	750.00	5100.00
J35_7	900.00	5100.00
J35_8	1050.00	5100.00
J35_9	1200.00	5100.00
J35_10	1350.00	5100.00
J35_11	1500.00	5100.00
J35_12	1650.00	5100.00
J35_13	1800.00	5100.00
J35_14	1950.00	5100.00
J35_15	2100.00	5100.00
J35_16	2250.00	5100.00
J35_17	2400.00	5100.00
J35_18	2550.00	5100.00
J35_19	2700.00	5100.00
J35_20	2850.00	5100.00
J35_21	3000.00	5100.00
J35_22	3150.00	5100.00
J35_23	3300.00	5100.00
J35_24	3450.00	5100.00
J35_25	3600.00	5100.00
J35_26	3750.00	5100.00
J35_27	3900.00	5100.00
J35_28	4050.00	5100.00
J35_29	4200.00	5100.00
J35_30	4350.00	5100.00
J35_31	4500.00	5100.00
J35_32	4650.00	5100.00
J35_33	4800.00	5100.00
J35_34	4950.00	5100.00
J35_35	5100.00	5100.00
J35_36	5250.00	5100.00
J35_37	5400.00	5100.00
J35_38	5550.00	5100.00
J35_39	5700.00	5100.00
J35_40	5850.00	5100.00
J35_41	6000.00	5100.00
J35_42	6150.00	5100.00
J35_43	6300.00	5100.00
J35_44	6450.00	5100.00
J35_45	6600.00	5100.00
J35_46	6750.00	5100.00
J35_47	6900.00	5100.00
J35_48	7050.00	5100.00
J35_49	7200.00	5100.00
J35_50	7350.00	5100.00
J35_51	7500.00	5100.00
J35_52	7650.00	5100.00
J36_1	0.00	5250.00
J36_2	150.00	5250.00
J36_3	300.00	5250.00
J36_4	450.00	5250.00
J36_5	600.00	5250.00
J36_6	750.00	5250.00
J36_7	900.00	5250.00
J36_8	1050.00	5250.00
J36_9	1200.00	5250.00
J36_10	1350.00	5250.00
J36_11	1500.00	5250.00
J36_12	1650.00	5250.00
J36_13	1800.00	5250.00
J36_14	1950.00	5250.00
J36_15	2100.00	5250.00
J36_16	2250.00	5250.00
J36_17	2400.00	5250.00
J36_18	2550.00	5250.00
J36_19	2700.00	5250.00
J36_20	2850.00	5250.00
J36_21	3000.00	5250.00
J36_22	3150.00	5250.00
J36_23	3300.00	5250.00
J36_24	3450.00	5250.00
J36_25	3600.00	5250.00
J36_26	3750.00	5250.00
J36_27	3900.00	5250.00
J36_28	4050.00	5250.00
J36_29	4200.00	5250.00
J36_30	4350.00	5250.00
J36_31	4500.00	5250.00
J36_32	4650.00	5250.00
J36_33	4800.00	5250.00
J36_34	4950.00	5250.00
J36_35	5100.00	5250.00
J36_36	5250.00	5250.00
J36_37	5400.00	5250.00
J36_38	5550.00	5250.00
J36_39	5700.00	5250.00
J36_40	5850.00	5250.00
J36_41	6000.00	5250.00
J36_42	6150.00	5250.00
J36_43	6300.00	5250.00
J36_44	6450.00	5250.00
J36_45	6600.00	5250.00
J36_46	6750.00	5250.00
J36_47	6900.00	5250.00
J36_48	7050.00	5250.00
J36_49	7200.00	5250.00
J36_50	7350.00	5250.00
J36_51	7500.00	5250.00
J36_52	7650.00	5250.00
J37_1	0.00	5400.00
J37_2	150.00	5400.00
J37_3	300.00	5400.00
J37_4	450.00	5400.00
J37_5	600.00	5400.00
J37_6	750.00	5400.00
J37_7	900.00	5400.00
J37_8	1050.00	5400.00
J37_9	1200.00	5400.00
J37_10	1350.00	5400.00
J37_11	1500.00	5400.00
J37_12	1650.00	5400.00
J37_13	1800.00	5400.00
J37_14	1950.00	5400.00
J37_15	2100.00	5400.00
J37_16	2250.00	5400.00
J37_17	2400.00	5400.00
J37_18	2550.00	5400.00
J37_19	2700.00	5400.00
J37_20	2850.00	5400.00
J37_21	3000.00	5400.00
J37_22	3150.00	5400.00
J37_23	3300.00	5400.00
J37_24	3450.00	5400.00
J37_25	3600.00	5400.00
J37_26	3750.00	5400.00
J37_27	3900.00	5400.00
J37_28	4050.00	5400.00
J37_29	4200.00	5400.00
J37_30	4350.00	5400.00
J37_31	4500.00	5400.00
J37_32	4650.00	5400.00
J37_33	4800.00	5400.00
J37_34	4950.00	5400.00
J37_35	5100.00	5400.00
J37_36	5250.00	5400.00
J37_37	5400.00	5400.00
J37_38	5550.00	5400.00
J37_39	5700.00	5400.00
J37_40	5850.00	5400.00
J37_41	6000.00	5400.00
J37_42	6150.00	5400.00
J37_43	6300.00	5400.00
J37_44	6450.00	5400.00
J37_45	6600.00	5400.00
J37_46	6750.00	5400.00
J37_47	6900.00	5400.00
J37_48	7050.00	5400.00
J37_49	7200.00	5400.00
J37_50	7350.00	5400.00
J37_51	7500.00	5400.00
J37_52	7650.00	5400.00
J38_1	0.00	5550.00
J38_2	150.00	5550.00
J38_3	300.00	5550.00
J38_4	450.00	5550.00
J38_5	600.00	5550.00
J38_6	750.00	5550.00
J38_7	900.00	5550.00
J38_8	1050.00	5550.00
J38_9	1200.00	5550.00
J38_10	1350.00	5550.00
J38_11	1500.00	5550.00
J38_12	1650.00	5550.00
J38_13	1800.00	5550.00
J38_14	1950.00	5550.00
J38_15	2100.00	5550.00
J38_16	2250.00	5550.00
J38_17	2400.00	5550.00
J38_18	2550.00	5550.00
J38_19	2700.00	5550.00
J38_20	2850.00	5550.00
J38_21	3000.00	5550.00
J38_22	3150.00	5550.00
J38_23	3300.00	5550.00
J38_24	3450.00	5550.00
J38_25	3600.00	5550.00
J38_26	3750.00	5550.00
J38_27	3900.00	5550.00
J38_28	4050.00	5550.00
J38_29	4200.00	5550.00
J38_30	4350.00	5550.00
J38_31	4500.00	5550.00
J38_32	4650.00	5550.00
J38_33	4800.00	5550.00
J38_34	4950.00	5550.00
J38_35	5100.00	5550.00
J38_36	5250.00	5550.00
J38_37	5400.00	5550.00
J38_38	5550.00	5550.00
J38_39	5700.00	5550.00
J38_40	5850.00	5550.00
J38_41	6000.00	5550.00
J38_42	6150.00	5550.00
J38_43	6300.00	5550.00
J38_44	6450.00	5550.00
J38_45	6600.00	5550.00
J38_46	6750.00	5550.00
J38_47	6900.00	5550.00
J38_48	7050.00	5550.00
J38_49	7200.00	5550.00
J38_50	7350.00	5550.00
J38_51	7500.00	5550.00
J38_52	7650.00	5550.00
J39_1	0.00	5700.00
J39_2	150.00	5700.00
J39_3	300.00	5700.00
J39_4	450.00	5700.00
J39_5	600.00	5700.00
J39_6	750.00	5700.00
J39_7	900.00	5700.00
J39_8	1050.00	5700.00
J39_9	1200.00	5700.00
J39_10	1350.00	5700.00
J39_11	1500.00	5700.00
J39_12	1650.00	5700.00
J39_13	1800.00	5700.00
J39_14	1950.00	5700.00
J39_15	2100.00	5700.00
J39_16	2250.00	5700.00
J39_17	2400.00	5700.00
J39_18	2550.00	5700.00
J39_19	2700.00	5700.00
J39_20	2850.00	5700.00
J39_21	3000.00	5700.00
J39_22	3150.00	5700.00
J39_23	3300.00	5700.00
J39_24	3450.00	5700.00
J39_25	3600.00	5700.00
J39_26	3750.00	5700.00
J39_27	3900.00	5700.00
J39_28	4050.00	5700.00
J39_29	4200.00	5700.00
J39_30	4350.00	5700.00
J39_31	4500.00	5700.00
J39_32	4650.00	5700.00
J39_33	4800.00	5700.00
J39_34	4950.00	5700.00
J39_35	5100.00	5700.00
J39_36	5250.00	5700.00
J39_37	5400.00	5700.00
J39_38	5550.00	5700.00
J39_39	5700.00	5700.00
J39_40	5850.00	5700.00
J39_41	6000.00	5700.00
J39_42	6150.00	5700.00
J39_43	6300.00	5700.00
J39_44	6450.00	5700.00
J39_45	6600.00	5700.00
J39_46	6750.00	5700.00
J39_47	6900.00	5700.00
J39_48	7050.00	5700.00
J39_49	7200.00	5700.00
J39_50	7350.00	5700.00
J39_51	7500.00	5700.00
J39_52	7650.00	5700.00
J40_1	0.00	5850.00
J40_2	150.00	5850.00
J40_3	300.00	5850.00
J40_4	450.00	5850.00
J40_5	600.00	5850.00
J40_6	750.00	5850.00
J40_7	900.00	5850.00
J40_8	1050.00	5850.00
J40_9	1200.00	5850.00
J40_10	1350.00	5850.00
J40_11	1500.00	5850.00
J40_12	1650.00	5850.00
J40_13	1800.00	5850.00
J40_14	1950.00	5850.00
J40_15	2100.00	5850.00
J40_16	2250.00	5850.00
J40_17	2400.00	5850.00
J40_18	2550.00	5850.00
J40_19	2700.00	5850.00
J40_20	2850.00	5850.00
J40_21	3000.00	5850.00
J40_22	3150.00	5850.00
J40_23	3300.00	5850.00
J40_24	3450.00	5850.00
J40_25	3600.00	5850.00
J40_26	3750.00	5850.00
J40_27	3900.00	5850.00
J40_28	4050.00	5850.00
J40_29	4200.00	5850.00
J40_30	4350.00	5850.00
J40_31	4500.00	5850.00
J40_32	4650.00	5850.00
J40_33	4800.00	5850.00
J40_34	4950.00	5850.00
J40_35	5100.00	5850.00
J40_36	5250.00	5850.00
J40_37	5400.00	5850.00
J40_38	5550.00	5850.00
J40_39	5700.00	5850.00
J40_40	5850.00	5850.00
J40_41	6000.00	5850.00
J40_42	6150.00	5850.00
J40_43	6300.00	5850.00
J40_44	6450.00	5850.00
J40_45	6600.00	5850.00
J40_46	6750.00	5850.00
J40_47	6900.00	5850.00
J40_48	7050.00	5850.00
J40_49	7200.00	5850.00
J40_50	7350.00	5850.00
J40_51	7500.00	5850.00
J40_52	7650.00	5850.00
J41_1	0.00	6000.00
J41_2	150.00	6000.00
J41_3	300.00	6000.00
J41_4	450.00	6000.00
J41_5	600.00	6000.00
J41_6	750.00	6000.00
J41_7	900.00	6000.00
J41_8	1050.00	6000.00
J41_9	1200.00	6000.00
J41_10	1350.00	6000.00
J41_11	1500.00	6000.00
J41_12	1650.00	6000.00
J41_13	1800.00	6000.00
J41_14	1950.00	6000.00
J41_15	2100.00	6000.00
J41_16	2250.00	6000.00
J41_17	2400.00	6000.00
J41_18	2550.00	6000.00
J41_19	2700.00	6000.00
J41_20	2850.00	6000.00
J41_21	3000.00	6000.00
J41_22	3150.00	6000.00
J41_23	3300.00	6000.00
J41_24	3450.00	6000.00
J41_25	3600.00	6000.00
J41_26	3750.00	6000.00
J41_27	3900.00	6000.00
J41_28	4050.00	6000.00
J41_29	4200.00	6000.00
J41_30	4350.00	6000.00
J41_31	4500.00	6000.00
J41_32	4650.00	6000.00
J41_33	4800.00	6000.00
J41_34	4950.00	6000.00
J41_35	5100.00	6000.00
J41_36	5250.00	6000.00
J41_37	5400.00	6000.00
J41_38	5550.00	6000.00
J41_39	5700.00	6000.00
J41_40	5850.00	6000.00
J41_41	6000.00	6000.00
J41_42	6150.00	6000.00
J41_43	6300.00	6000.00
J41_44	6450.00	6000.00
J41_45	6600.00	6000.00
J41_46	6750.00	6000.00
J41_47	6900.00	6000.00
J41_48	7050.00	6000.00
J41_49	7200.00	6000.00
J41_50	7350.00	6000.00
J41_51	7500.00	6000.00
J41_52	7650.00	6000.00
J42_1	0.00	6150.00
J42_2	150.00	6150.00
J42_3	300.00	6150.00
J42_4	450.00	6150.00
J42_5	600.00	6150.00
J42_6	750.00	6150.00
J42_7	900.00	6150.00
J42_8	1050.00	6150.00
J42_9	1200.00	6150.00
J42_10	1350.00	6150.00
J42_11	1500.00	6150.00
J42_12	1650.00	6150.00
J42_13	1800.00	6150.00
J42_14	1950.00	6150.00
J42_15	2100.00	6150.00
J42_16	2250.00	6150.00
J42_17	2400.00	6150.00
J42_18	2550.00	6150.00
J42_19	2700.00	6150.00
J42_20	2850.00	6150.00
J42_21	3000.00	6150.00
J42_22	3150.00	6150.00
J42_23	3300.00	6150.00
J42_24	3450.00	6150.00
J42_25	3600.00	6150.00
J42_26	3750.00	6150.00
J42_27	3900.00	6150.00
J42_28	4050.00	6150.00
J42_29	4200.00	6150.00
J42_30	4350.00	6150.00
J42_31	4500.00	6150.00
J42_32	4650.00	6150.00
J42_33	4800.00	6150.00
J42_34	4950.00	6150.00
J42_35	5100.00	6150.00
J42_36	5250.00	6150.00
J42_37	5400.00	6150.00
J42_38	5550.00	6150.00
J42_39	5700.00	6150.00
J42_40	5850.00	6150.00
J42_41	6000.00	6150.00
J42_42	6150.00	6150.00
J42_43	6300.00	6150.00
J42_44	6450.00	6150.00
J42_45	6600.00	6150.00
J42_46	6750.00	6150.00
J42_47	6900.00	6150.00
J42_48	7050.00	6150.00
J42_49	7200.00	6150.00
J42_50	7350.00	6150.00
J42_51	7500.00	6150.00
J42_52	7650.00	6150.00
J43_1	0.00	6300.00
J43_2	150.00	6300.00
J43_3	300.00	6300.00
J43_4	450.00	6300.00
J43_5	600.00	6300.00
J43_6	750.00	6300.00
J43_7	900.00	6300.00
J43_8	1050.00	6300.00
J43_9	1200.00	6300.00
J43_10	1350.00	6300.00
J43_11	1500.00	6300.00
J43_12	1650.00	6300.00
J43_13	1800.00	6300.00
J43_14	1950.00	6300.00
J43_15	2100.00	6300.00
J43_16	2250.00	6300.00
J43_17	2400.00	6300.00
J43_18	2550.00	6300.00
J43_19	2700.00	6300.00
J43_20	2850.00	6300.00
J43_21	3000.00	6300.00
J43_22	3150.00	6300.00
J43_23	3300.00	6300.00
J43_24	3450.00	6300.00
J43_25	3600.00	6300.00
J43_26	3750.00	6300.00
J43_27	3900.00	6300.00
J43_28	4050.00	6300.00
J43_29	4200.00	6300.00
J43_30	4350.00	6300.00
J43_31	4500.00	6300.00
J43_32	4650.00	6300.00
J43_33	4800.00	6300.00
J43_34	4950.00	6300.00
J43_35	5100.00	6300.00
J43_36	5250.00	6300.00
J43_37	5400.00	6300.00
J43_38	5550.00	6300.00
J43_39	5700.00	6300.00
J43_40	5850.00	6300.00
J43_41	6000.00	6300.00
J43_42	6150.00	6300.00
J43_43	6300.00	6300.00
J43_44	6450.00	6300.00
J43_45	6600.00	6300.00
J43_46	6750.00	6300.00
J43_47	6900.00	6300.00
J43_48	7050.00	6300.00
J43_49	7200.00	6300.00
J43_50	7350.00	6300.00
J43_51	7500.00	6300.00
J43_52	7650.00	6300.00
J44_1	0.00	6450.00
J44_2	150.00	6450.00
J44_3	300.00	6450.00
J44_4	450.00	6450.00
J44_5	600.00	6450.00
J44_6	750.00	6450.00
J44_7	900.00	6450.00
J44_8	1050.00	6450.00
J44_9	1200.00	6450.00
J44_10	1350.00	6450.00
J44_11	1500.00	6450.00
J44_12	1650.00	6450.00
J44_13	1800.00	6450.00
J44_14	1950.00	6450.00
J44_15	2100.00	6450.00
J44_16	2250.00	6450.00
J44_17	2400.00	6450.00
J44_18	2550.00	6450.00
J44_19	2700.00	6450.00
J44_20	2850.00	6450.00
J44_21	3000.00	6450.00
J44_22	3150.00	6450.00
J44_23	3300.00	6450.00
J44_24	3450.00	6450.00
J44_25	3600.00	6450.00
J44_26	3750.00	6450.00
J44_27	3900.00	6450.00
J44_28	4050.00	6450.00
J44_29	4200.00	6450.00
J44_30	4350.00	6450.00
J44_31	4500.00	6450.00
J44_32	4650.00	6450.00
J44_33	4800.00	6450.00
J44_34	4950.00	6450.00
J44_35	5100.00	6450.00
J44_36	5250.00	6450.00
J44_37	5400.00	6450.00
J44_38	5550.00	6450.00
J44_39	5700.00	6450.00
J44_40	5850.00	6450.00
J44_41	6000.00	6450.00
J44_42	6150.00	6450.00
J44_43	6300.00	6450.00
J44_44	6450.00	6450.00
J44_45	6600.00	6450.00
J44_46	6750.00	6450.00
J44_47	6900.00	6450.00
J44_48	7050.00	6450.00
J44_49	7200.00	6450.00
J44_50	7350.00	6450.00
J44_51	7500.00	6450.00
J44_52	7650.00	6450.00
J45_1	0.00	6600.00
J45_2	150.00	6600.00
J45_3	300.00	6600.00
J45_4	450.00	6600.00
J45_5	600.00	6600.00
J45_6	750.00	6600.00
J45_7	900.00	6600.00
J45_8	1050.00	6600.00
J45_9	1200.00	6600.00
J45_10	1350.00	6600.00
J45_11	1500.00	6600.00
J45_12	1650.00	6600.00
J45_13	1800.00	6600.00
J45_14	1950.00	6600.00
J45_15	2100.00	6600.00
J45_16	2250.00	6600.00
J45_17	2400.00	6600.00
J45_18	2550.00	6600.00
J45_19	2700.00	6600.00
J45_20	2850.00	6600.00
J45_21	3000.00	6600.00
J45_22	3150.00	6600.00
J45_23	3300.00	6600.00
J45_24	3450.00	6600.00
J45_25	3600.00	6600.00
J45_26	3750.00	6600.00
J45_27	3900.00	6600.00
J45_28	4050.00	6600.00
J45_29	4200.00	6600.00
J45_30	4350.00	6600.00
J45_31	4500.00	6600.00
J45_32	4650.00	6600.00
J45_33	4800.00	6600.00
J45_34	4950.00	6600.00
J45_35	5100.00	6600.00
J45_36	5250.00	6600.00
J45_37	5400.00	6600.00
J45_38	5550.00	6600.00
J45_39	5700.00	6600.00
J45_40	5850.00	6600.00
J45_41	6000.00	6600.00
J45_42	6150.00	6600.00
J45_43	6300.00	6600.00
J45_44	6450.00	6600.00
J45_45	6600.00	6600.00
J45_46	6750.00	6600.00
J45_47	6900.00	6600.00
J45_48	7050.00	6600.00
J45_49	7200.00	6600.00
J45_50	7350.00	6600.00
J45_51	7500.00	6600.00
J45_52	7650.00	6600.00
J46_1	0.00	6750.00
J46_2	150.00	6750.00
J46_3	300.00	6750.00
J46_4	450.00	6750.00
J46_5	600.00	6750.00
J46_6	750.00	6750.00
J46_7	900.00	6750.00
J46_8	1050.00	6750.00
J46_9	1200.00	6750.00
J46_10	1350.00	6750.00
J46_11	1500.00	6750.00
J46_12	1650.00	6750.00
J46_13	1800.00	6750.00
J46_14	1950.00	6750.00
J46_15	2100.00	6750.00
J46_16	2250.00	6750.00
J46_17	2400.00	6750.00
J46_18	2550.00	6750.00
J46_19	2700.00	6750.00
J46_20	2850.00	6750.00
J46_21	3000.00	6750.00
J46_22	3150.00	6750.00
J46_23	3300.00	6750.00
J46_24	3450.00	6750.00
J46_25	3600.00	6750.00
J46_26	3750.00	6750.00
J46_27	3900.00	6750.00
J46_28	4050.00	6750.00
J46_29	4200.00	6750.00
J46_30	4350.00	6750.00
J46_31	4500.00	6750.00
J46_32	4650.00	6750.00
J46_33	4800.00	6750.00
J46_34	4950.00	6750.00
J46_35	5100.00	6750.00
J46_36	5250.00	6750.00
J46_37	5400.00	6750.00
J46_38	5550.00	6750.00
J46_39	5700.00	6750.00
J46_40	5850.00	6750.00
J46_41	6000.00	6750.00
J46_42	6150.00	6750.00
J46_43	6300.00	6750.00
J46_44	6450.00	6750.00
J46_45	6600.00	6750.00
J46_46	6750.00	6750.00
J46_47	6900.00	6750.00
J46_48	7050.00	6750.00
J46_49	7200.00	6750.00
J46_50	7350.00	6750.00
J46_51	7500.00	6750.00
J46_52	7650.00	6750.00
J47_1	0.00	6900.00
J47_2	150.00	6900.00
J47_3	300.00	6900.00
J47_4	450.00	6900.00
J47_5	600.00	6900.00
J47_6	750.00	6900.00
J47_7	900.00	6900.00
J47_8	1050.00	6900.00
J47_9	1200.00	6900.00
J47_10	1350.00	6900.00
J47_11	1500.00	6900.00
J47_12	1650.00	6900.00
J47_13	1800.00	6900.00
J47_14	1950.00	6900.00
J47_15	2100.00	6900.00
J47_16	2250.00	6900.00
J47_17	2400.00	6900.00
J47_18	2550.00	6900.00
J47_19	2700.00	6900.00
J47_20	2850.00	6900.00
J47_21	3000.00	6900.00
J47_22	3150.00	6900.00
J47_23	3300.00	6900.00
J47_24	3450.00	6900.00
J47_25	3600.00	6900.00
J47_26	3750.00	6900.00
J47_27	3900.00	6900.00
J47_28	4050.00	6900.00
J47_29	4200.00	6900.00
J47_30	4350.00	6900.00
J47_31	4500.00	6900.00
J47_32	4650.00	6900.00
J47_33	4800.00	6900.00
J47_34	4950.00	6900.00
J47_35	5100.00	6900.00
J47_36	5250.00	6900.00
J47_37	5400.00	6900.00
J47_38	5550.00	6900.00
J47_39	5700.00	6900.00
J47_40	5850.00	6900.00
J47_41	6000.00	6900.00
J47_42	6150.00	6900.00
J47_43	6300.00	6900.00
J47_44	6450.00	6900.00
J47_45	6600.00	6900.00
J47_46	6750.00	6900.00
J47_47	6900.00	6900.00
J47_48	7050.00	6900.00
J47_49	7200.00	6900.00
J47_50	7350.00	6900.00
J47_51	7500.00	6900.00
J47_52	7650.00	6900.00
J48_1	0.00	7050.00
J48_2	150.00	7050.00
J48_3	300.00	7050.00
J48_4	450.00	7050.00
J48_5	600.00	7050.00
J48_6	750.00	7050.00
J48_7	900.00	7050.00
J48_8	1050.00	7050.00
J48_9	1200.00	7050.00
J48_10	1350.00	7050.00
J48_11	1500.00	7050.00
J48_12	1650.00	7050.00
J48_13	1800.00	7050.00
J48_14	1950.00	7050.00
J48_15	2100.00	7050.00
J48_16	2250.00	7050.00
J48_17	2400.00	7050.00
J48_18	2550.00	7050.00
J48_19	2700.00	7050.00
J48_20	2850.00	7050.00
J48_21	3000.00	7050.00
J48_22	3150.00	7050.00
J48_23	3300.00	7050.00
J48_24	3450.00	7050.00
J48_25	3600.00	7050.00
J48_26	3750.00	7050.00
J48_27	3900.00	7050.00
J48_28	4050.00	7050.00
J48_29	4200.00	7050.00
J48_30	4350.00	7050.00
J48_31	4500.00	7050.00
J48_32	4650.00	7050.00
J48_33	4800.00	7050.00
J48_34	4950.00	7050.00
J48_35	5100.00	7050.00
J48_36	5250.00	7050.00
J48_37	5400.00	7050.00
J48_38	5550.00	7050.00
J48_39	5700.00	7050.00
J48_40	5850.00	7050.00
J48_41	6000.00	7050.00
J48_42	6150.00	7050.00
J48_43	6300.00	7050.00
J48_44	6450.00	7050.00
J48_45	6600.00	7050.00
J48_46	6750.00	7050.00
J48_47	6900.00	7050.00
J48_48	7050.00	7050.00
J48_49	7200.00	7050.00
J48_50	7350.00	7050.00
J48_51	7500.00	7050.00
J48_52	7650.00	7050.00
J49_1	0.00	7200.00
J49_2	150.00	7200.00
J49_3	300.00	7200.00
J49_4	450.00	7200.00
J49_5	600.00	7200.00
J49_6	750.00	7200.00
J49_7	900.00	7200.00
J49_8	1050.00	7200.00
J49_9	1200.00	7200.00
J49_10	1350.00	7200.00
J49_11	1500.00	7200.00
J49_12	1650.00	7200.00
J49_13	1800.00	7200.00
J49_14	1950.00	7200.00
J49_15	2100.00	7200.00
J49_16	2250.00	7200.00
J49_17	2400.00	7200.00
J49_18	2550.00	7200.00
J49_19	2700.00	7200.00
J49_20	2850.00	7200.00
J49_21	3000.00	7200.00
J49_22	3150.00	7200.00
J49_23	3300.00	7200.00
J49_24	3450.00	7200.00
J49_25	3600.00	7200.00
J49_26	3750.00	7200.00
J49_27	3900.00	7200.00
J49_28	4050.00	7200.00
J49_29	4200.00	7200.00
J49_30	4350.00	7200.00
J49_31	4500.00	7200.00
J49_32	4650.00	7200.00
J49_33	4800.00	7200.00
J49_34	4950.00	7200.00
J49_35	5100.00	7200.00
J49_36	5250.00	7200.00
J49_37	5400.00	7200.00
J49_38	5550.00	7200.00
J49_39	5700.00	7200.00
J49_40	5850.00	7200.00
J49_41	6000.00	7200.00
J49_42	6150.00	7200.00
J49_43	6300.00	7200.00
J49_44	6450.00	7200.00
J49_45	6600.00	7200.00
J49_46	6750.00	7200.00
J49_47	6900.00	7200.00
J49_48	7050.00	7200.00
J49_49	7200.00	7200.00
J49_50	7350.00	7200.00
J49_51	7500.00	7200.00
J49_52	7650.00	7200.00
J50_1	0.00	7350.00
J50_2	150.00	7350.00
J50_3	300.00	7350.00
J50_4	450.00	7350.00
J50_5	600.00	7350.00
J50_6	750.00	7350.00
J50_7	900.00	7350.00
J50_8	1050.00	7350.00
J50_9	1200.00	7350.00
J50_10	1350.00	7350.00
J50_11	1500.00	7350.00
J50_12	1650.00	7350.00
J50_13	1800.00	7350.00
J50_14	1950.00	7350.00
J50_15	2100.00	7350.00
J50_16	2250.00	7350.00
J50_17	2400.00	7350.00
J50_18	2550.00	7350.00
J50_19	2700.00	7350.00
J50_20	2850.00	7350.00
J50_21	3000.00	7350.00
J50_22	3150.00	7350.00
J50_23	3300.00	7350.00
J50_24	3450.00	7350.00
J50_25	3600.00	7350.00
J50_26	3750.00	7350.00
J50_27	3900.00	7350.00
J50_28	4050.00	7350.00
J50_29	4200.00	7350.00
J50_30	4350.00	7350.00
J50_31	4500.00	7350.00
J50_32	4650.00	7350.00
J50_33	4800.00	7350.00
J50_34	4950.00	7350.00
J50_35	5100.00	7350.00
J50_36	5250.00	7350.00
J50_37	5400.00	7350.00
J50_38	5550.00	7350.00
J50_39	5700.00	7350.00
J50_40	5850.00	7350.00
J50_41	6000.00	7350.00
J50_42	6150.00	7350.00
J50_43	6300.00	7350.00
J50_44	6450.00	7350.00
J50_45	6600.00	7350.00
J50_46	6750.00	7350.00
J50_47	6900.00	7350.00
J50_48	7050.00	7350.00
J50_49	7200.00	7350.00
J50_50	7350.00	7350.00
J50_51	7500.00	7350.00
J50_52	7650.00	7350.00
J51_1	0.00	7500.00
J51_2	150.00	7500.00
J51_3	300.00	7500.00
J51_4	450.00	7500.00
J51_5	600.00	7500.00
J51_6	750.00	7500.00
J51_7	900.00	7500.00
J51_8	1050.00	7500.00
J51_9	1200.00	7500.00
J51_10	1350.00	7500.00
J51_11	1500.00	7500.00
J51_12	1650.00	7500.00
J51_13	1800.00	7500.00
J51_14	1950.00	7500.00
J51_15	2100.00	7500.00
J51_16	2250.00	7500.00
J51_17	2400.00	7500.00
J51_18	2550.00	7500.00
J51_19	2700.00	7500.00
J51_20	2850.00	7500.00
J51_21	3000.00	7500.00
J51_22	3150.00	7500.00
J51_23	3300.00	7500.00
J51_24	3450.00	7500.00
J51_25	3600.00	7500.00
J51_26	3750.00	7500.00
J51_27	3900.00	7500.00
J51_28	4050.00	7500.00
J51_29	4200.00	7500.00
J51_30	4350.00	7500.00
J51_31	4500.00	7500.00
J51_32	4650.00	7500.00
J51_33	4800.00	7500.00
J51_34	4950.00	7500.00
J51_35	5100.00	7500.00
J51_36	5250.00	7500.00
J51_37	5400.00	7500.00
J51_38	5550.00	7500.00
J51_39	5700.00	7500.00
J51_40	5850.00	7500.00
J51_41	6000.00	7500.00
J51_42	6150.00	7500.00
J51_43	6300.00	7500.00
J51_44	6450.00	7500.00
J51_45	6600.00	7500.00
J51_46	6750.00	7500.00
J51_47	6900.00	7500.00
J51_48	7050.00	7500.00
J51_49	7200.00	7500.00
J51_50	7350.00	7500.00
J51_51	7500.00	7500.00
J51_52	7650.00	7500.00
J52_1	0.00	7650.00
J52_2	150.00	7650.00
J52_3	300.00	7650.00
J52_4	450.00	7650.00
J52_5	600.00	7650.00
J52_6	750.00	7650.00
J52_7	900.00	7650.00
J52_8	1050.00	7650.00
J52_9	1200.00	7650.00
J52_10	1350.00	7650.00
J52_11	1500.00	7650.00
J52_12	1650.00	7650.00
J52_13	1800.00	7650.00
J52_14	1950.00	7650.00
J52_15	2100.00	7650.00
J52_16	2250.00	7650.00
J52_17	2400.00	7650.00
J52_18	2550.00	7650.00
J52_19	2700.00	7650.00
J52_20	2850.00	7650.00
J52_21	3000.00	7650.00
J52_22	3150.00	7650.00
J52_23	3300.00	7650.00
J52_24	3450.00	7650.00
J52_25	3600.00	7650.00
J52_26	3750.00	7650.00
J52_27	3900.00	7650.00
J52_28	4050.00	7650.00
J52_29	4200.00	7650.00
J52_30	4350.00	7650.00
J52_31	4500.00	7650.00
J52_32	4650.00	7650.00
J52_33	4800.00	7650.00
J52_34	4950.00	7650.00
J52_35	5100.00	7650.00
J52_36	5250.00	7650.00
J52_37	5400.00	7650.00
J52_38	5550.00	7650.00
J52_39	5700.00	7650.00
J52_40	5850.00	7650.00
J52_41	6000.00	7650.00
J52_42	6150.00	7650.00
J52_43	6300.00	7650.00
J52_44	6450.00	7650.00
J52_45	6600.00	7650.00
J52_46	6750.00	7650.00
J52_47	6900.00	7650.00
J52_48	7050.00	7650.00
J52_49	7200.00	7650.00
J52_50	7350.00	7650.00
J52_51	7500.00	7650.00
J52_52	7650.00	7650.00
J53_1	0.00	7800.00
J53_2	150.00	7800.00
J53_3	300.00	7800.00
J53_4	450.00	7800.00
J53_5	600.00	7800.00
J53_6	750.00	7800.00
J53_7	900.00	7800.00
J53_8	1050.00	7800.00
J53_9	1200.00	7800.00
J53_10	1350.00	7800.00
J53_11	1500.00	7800.00
J53_12	1650.00	7800.00
J53_13	1800.00	7800.00
J53_14	1950.00	7800.00
J53_15	2100.00	7800.00
J53_16	2250.00	7800.00
J53_17	2400.00	7800.00
J53_18	2550.00	7800.00
J53_19	2700.00	7800.00
J53_20	2850.00	7800.00
J53_21	3000.00	7800.00
J53_22	3150.00	7800.00
J53_23	3300.00	7800.00
J53_24	3450.00	7800.00
J53_25	3600.00	7800.00
J53_26	3750.00	7800.00
J53_27	3900.00	7800.00
J53_28	4050.00	7800.00
J53_29	4200.00	7800.00
J53_30	4350.00	7800.00
J53_31	4500.00	7800.00
J53_32	4650.00	7800.00
J53_33	4800.00	7800.00
J53_34	4950.00	7800.00
J53_35	5100.00	7800.00
J53_36	5250.00	7800.00
J53_37	5400.00	7800.00
J53_38	5550.00	7800.00
J53_39	5700.00	7800.00
J53_40	5850.00	7800.00
J53_41	6000.00	7800.00
J53_42	6150.00	7800.00
J53_43	6300.00	7800.00
J53_44	6450.00	7800.00
J53_45	6600.00	7800.00
J53_46	6750.00	7800.00
J53_47	6900.00	7800.00
J53_48	7050.00	7800.00
J53_49	7200.00	7800.00
J53_50	7350.00	7800.00
J53_51	7500.00	7800.00
J53_52	7650.00	7800.00
J54_1	0.00	7950.00
J54_2	150.00	7950.00
J54_3	300.00	7950.00
J54_4	450.00	7950.00
J54_5	600.00	7950.00
J54_6	750.00	7950.00
J54_7	900.00	7950.00
J54_8	1050.00	7950.00
J54_9	1200.00	7950.00
J54_10	1350.00	7950.00
J54_11	1500.00	7950.00
J54_12	1650.00	7950.00
J54_13	1800.00	7950.00
J54_14	1950.00	7950.00
J54_15	2100.00	7950.00
J54_16	2250.00	7950.00
J54_17	2400.00	7950.00
J54_18	2550.00	7950.00
J54_19	2700.00	7950.00
J54_20	2850.00	7950.00
J54_21	3000.00	7950.00
J54_22	3150.00	7950.00
J54_23	3300.00	7950.00
J54_24	3450.00	7950.00
J54_25	3600.00	7950.00
J54_26	3750.00	7950.00
J54_27	3900.00	7950.00
J54_28	4050.00	7950.00
J54_29	4200.00	7950.00
J54_30	4350.00	7950.00
J54_31	4500.00	7950.00
J54_32	4650.00	7950.00
J54_33	4800.00	7950.00
J54_34	4950.00	7950.00
J54_35	5100.00	7950.00
J54_36	5250.00	7950.00
J54_37	5400.00	7950.00
J54_38	5550.00	7950.00
J54_39	5700.00	7950.00
J54_40	5850.00	7950.00
J54_41	6000.00	7950.00
J54_42	6150.00	7950.00
J54_43	6300.00	7950.00
J54_44	6450.00	7950.00
J54_45	6600.00	7950.00
J54_46	6750.00	7950.00
J54_47	6900.00	7950.00
J54_48	7050.00	7950.00
J54_49	7200.00	7950.00
J54_50	7350.00	7950.00
J54_51	7500.00	7950.00
J54_52	7650.00	7950.00
J55_1	0.00	8100.00
J55_2	150.00	8100.00
J55_3	300.00	8100.00
J55_4	450.00	8100.00
J55_5	600.00	8100.00
J55_6	750.00	8100.00
J55_7	900.00	8100.00
J55_8	1050.00	8100.00
J55_9	1200.00	8100.00
J55_10	1350.00	8100.00
J55_11	1500.00	8100.00
J55_12	1650.00	8100.00
J55_13	1800.00	8100.00
J55_14	1950.00	8100.00
J55_15	2100.00	8100.00
J55_16	2250.00	8100.00
J55_17	2400.00	8100.00
J55_18	2550.00	8100.00
J55_19	2700.00	8100.00
J55_20	2850.00	8100.00
J55_21	3000.00	8100.00
J55_22	3150.00	8100.00
J55_23	3300.00	8100.00
J55_24	3450.00	8100.00
J55_25	3600.00	8100.00
J55_26	3750.00	8100.00
J55_27	3900.00	8100.00
J55_28	4050.00	8100.00
J55_29	4200.00	8100.00
J55_30	4350.00	8100.00
J55_31	4500.00	8100.00
J55_32	4650.00	8100.00
J55_33	4800.00	8100.00
J55_34	4950.00	8100.00
J55_35	5100.00	8100.00
J55_36	5250.00	8100.00
J55_37	5400.00	8100.00
J55_38	5550.00	8100.00
J55_39	5700.00	8100.00
J55_40	5850.00	8100.00
J55_41	6000.00	8100.00
J55_42	6150.00	8100.00
J55_43	6300.00	8100.00
J55_44	6450.00	8100.00
J55_45	6600.00	8100.00
J55_46	6750.00	8100.00
J55_47	6900.00	8100.00
J55_48	7050.00	8100.00
J55_49	7200.00	8100.00
J55_50	7350.00	8100.00
J55_51	7500.00	8100.00
J55_52	7650.00	8100.00
J56_1	0.00	8250.00
J56_2	150.00	8250.00
J56_3	300.00	8250.00
J56_4	450.00	8250.00
J56_5	600.00	8250.00
J56_6	750.00	8250.00
J56_7	900.00	8250.00
J56_8	1050.00	8250.00
J56_9	1200.00	8250.00
J56_10	1350.00	8250.00
J56_11	1500.00	8250.00
J56_12	1650.00	8250.00
J56_13	1800.00	8250.00
J56_14	1950.00	8250.00
J56_15	2100.00	8250.00
J56_16	2250.00	8250.00
J56_17	2400.00	8250.00
J56_18	2550.00	8250.00
J56_19	2700.00	8250.00
J56_20	2850.00	8250.00
J56_21	3000.00	8250.00
J56_22	3150.00	8250.00
J56_23	3300.00	8250.00
J56_24	3450.00	8250.00
J56_25	3600.00	8250.00
J56_26	3750.00	8250.00
J56_27	3900.00	8250.00
J56_28	4050.00	8250.00
J56_29	4200.00	8250.00
J56_30	4350.00	8250.00
J56_31	4500.00	8250.00
J56_32	4650.00	8250.00
J56_33	4800.00	8250.00
J56_34	4950.00	8250.00
J56_35	5100.00	8250.00
J56_36	5250.00	8250.00
J56_37	5400.00	8250.00
J56_38	5550.00	8250.00
J56_39	5700.00	8250.00
J56_40	5850.00	8250.00
J56_41	6000.00	8250.00
J56_42	6150.00	8250.00
J56_43	6300.00	8250.00
J56_44	6450.00	8250.00
J56_45	6600.00	8250.00
J56_46	6750.00	8250.00
J56_47	6900.00	8250.00
J56_48	7050.00	8250.00
J56_49	7200.00	8250.00
J56_50	7350.00	8250.00
J56_51	7500.00	8250.00
J56_52	7650.00	8250.00
J57_1	0.00	8400.00
J57_2	150.00	8400.00
J57_3	300.00	8400.00
J57_4	450.00	8400.00
J57_5	600.00	8400.00
J57_6	750.00	8400.00
J57_7	900.00	8400.00
J57_8	1050.00	8400.00
J57_9	1200.00	8400.00
J57_10	1350.00	8400.00
J57_11	1500.00	8400.00
J57_12	1650.00	8400.00
J57_13	1800.00	8400.00
J57_14	1950.00	8400.00
J57_15	2100.00	8400.00
J57_16	2250.00	8400.00
J57_17	2400.00	8400.00
J57_18	2550.00	8400.00
J57_19	2700.00	8400.00
J57_20	2850.00	8400.00
J57_21	3000.00	8400.00
J57_22	3150.00	8400.00
J57_23	3300.00	8400.00
J57_24	3450.00	8400.00
J57_25	3600.00	8400.00
J57_26	3750.00	8400.00
J57_27	3900.00	8400.00
J57_28	4050.00	8400.00
J57_29	4200.00	8400.00
J57_30	4350.00	8400.00
J57_31	4500.00	8400.00
J57_32	4650.00	8400.00
J57_33	4800.00	8400.00
J57_34	4950.00	8400.00
J57_35	5100.00	8400.00
J57_36	5250.00	8400.00
J57_37	5400.00	8400.00
J57_38	5550.00	8400.00
J57_39	5700.00	8400.00
J57_40	5850.00	8400.00
J57_41	6000.00	8400.00
J57_42	6150.00	8400.00
J57_43	6300.00	8400.00
J57_44	6450.00	8400.00
J57_45	6600.00	8400.00
J57_46	6750.00	8400.00
J57_47	6900.00	8400.00
J57_48	7050.00	8400.00
J57_49	7200.00	8400.00
J57_50	7350.00	8400.00
J57_51	7500.00	8400.00
J57_52	7650.00	8400.00
J58_1	0.00	8550.00
J58_2	150.00	8550.00
J58_3	300.00	8550.00
J58_4	450.00	8550.00
J58_5	600.00	8550.00
J58_6	750.00	8550.00
J58_7	900.00	8550.00
J58_8	1050.00	8550.00
J58_9	1200.00	8550.00
J58_10	1350.00	8550.00
J58_11	1500.00	8550.00
J58_12	1650.00	8550.00
J58_13	1800.00	8550.00
J58_14	1950.00	8550.00
J58_15	2100.00	8550.00
J58_16	2250.00	8550.00
J58_17	2400.00	8550.00
J58_18	2550.00	8550.00
J58_19	2700.00	8550.00
J58_20	2850.00	8550.00
J58_21	3000.00	8550.00
J58_22	3150.00	8550.00
J58_23	3300.00	8550.00
J58_24	3450.00	8550.00
J58_25	3600.00	8550.00
J58_26	3750.00	8550.00
J58_27	3900.00	8550.00
J58_28	4050.00	8550.00
J58_29	4200.00	8550.00
J58_30	4350.00	8550.00
J58_31	4500.00	8550.00
J58_32	4650.00	8550.00
J58_33	4800.00	8550.00
J58_34	4950.00	8550.00
J58_35	5100.00	8550.00
J58_36	5250.00	8550.00
J58_37	5400.00	8550.00
J58_38	5550.00	8550.00
J58_39	5700.00	8550.00
J58_40	5850.00	8550.00
J58_41	6000.00	8550.00
J58_42	6150.00	8550.00
J58_43	6300.00	8550.00
J58_44	6450.00	8550.00
J58_45	6600.00	8550.00
J58_46	6750.00	8550.00
J58_47	6900.00	8550.00
J58_48	7050.00	8550.00
J58_49	7200.00	8550.00
J58_50	7350.00	8550.00
J58_51	7500.00	8550.00
J58_52	7650.00	8550.00
J59_1	0.00	8700.00
J59_2	150.00	8700.00
J59_3	300.00	8700.00
J59_4	450.00	8700.00
J59_5	600.00	8700.00
J59_6	750.00	8700.00
J59_7	900.00	8700.00
J59_8	1050.00	8700.00
J59_9	1200.00	8700.00
J59_10	1350.00	8700.00
J59_11	1500.00	8700.00
J59_12	1650.00	8700.00
J59_13	1800.00	8700.00
J59_14	1950.00	8700.00
J59_15	2100.00	8700.00
J59_16	2250.00	8700.00
J59_17	2400.00	8700.00
J59_18	2550.00	8700.00
J59_19	2700.00	8700.00
J59_20	2850.00	8700.00
J59_21	3000.00	8700.00
J59_22	3150.00	8700.00
J59_23	3300.00	8700.00
J59_24	3450.00	8700.00
J59_25	3600.00	8700.00
J59_26	3750.00	8700.00
J59_27	3900.00	8700.00
J59_28	4050.00	8700.00
J59_29	4200.00	8700.00
J59_30	4350.00	8700.00
J59_31	4500.00	8700.00
J59_32	4650.00	8700.00
J59_33	4800.00	8700.00
J59_34	4950.00	8700.00
J59_35	5100.00	8700.00
J59_36	5250.00	8700.00
J59_37	5400.00	8700.00
J59_38	5550.00	8700.00
J59_39	5700.00	8700.00
J59_40	5850.00	8700.00
J59_41	6000.00	8700.00
J59_42	6150.00	8700.00
J59_43	6300.00	8700.00
J59_44	6450.00	8700.00
J59_45	6600.00	8700.00
J59_46	6750.00	8700.00
J59_47	6900.00	8700.00
J59_48	7050.00	8700.00
J59_49	7200.00	8700.00
J59_50	7350.00	8700.00
J59_51	7500.00	8700.00
J59_52	7650.00	8700.00
J60_1	0.00	8850.00
J60_2	150.00	8850.00
J60_3	300.00	8850.00
J60_4	450.00	8850.00
J60_5	600.00	8850.00
J60_6	750.00	8850.00
J60_7	900.00	8850.00
J60_8	1050.00	8850.00
J60_9	1200.00	8850.00
J60_10	1350.00	8850.00
J60_11	1500.00	8850.00
J60_12	1650.00	8850.00
J60_13	1800.00	8850.00
J60_14	1950.00	8850.00
J60_15	2100.00	8850.00
J60_16	2250.00	8850.00
J60_17	2400.00	8850.00
J60_18	2550.00	8850.00
J60_19	2700.00	8850.00
J60_20	2850.00	8850.00
J60_21	3000.00	8850.00
J60_22	3150.00	8850.00
J60_23	3300.00	8850.00
J60_24	3450.00	8850.00
J60_25	3600.00	8850.00
J60_26	3750.00	8850.00
J60_27	3900.00	8850.00
J60_28	4050.00	8850.00
J60_29	4200.00	8850.00
J60_30	4350.00	8850.00
J60_31	4500.00	8850.00
J60_32	4650.00	8850.00
J60_33	4800.00	8850.00
J60_34	4950.00	8850.00
J60_35	5100.00	8850.00
J60_36	5250.00	8850.00
J60_37	5400.00	8850.00
J60_38	5550.00	8850.00
J60_39	5700.00	8850.00
J60_40	5850.00	8850.00
J60_41	6000.00	8850.00
J60_42	6150.00	8850.00
J60_43	6300.00	8850.00
J60_44	6450.00	8850.00
J60_45	6600.00	8850.00
J60_46	6750.00	8850.00
J60_47	6900.00	8850.00
J60_48	7050.00	8850.00
J60_49	7200.00	8850.00
J60_50	7350.00	8850.00
J60_51	7500.00	8850.00
J60_52	7650.00	8850.00
J61_1	0.00	9000.00
J61_2	150.00	9000.00
J61_3	300.00	9000.00
J61_4	450.00	9000.00
J61_5	600.00	9000.00
J61_6	750.00	9000.00
J61_7	900.00	9000.00
J61_8	1050.00	9000.00
J61_9	1200.00	9000.00
J61_10	1350.00	9000.00
J61_11	1500.00	9000.00
J61_12	1650.00	9000.00
J61_13	1800.00	9000.00
J61_14	1950.00	9000.00
J61_15	2100.00	9000.00
J61_16	2250.00	9000.00
J61_17	2400.00	9000.00
J61_18	2550.00	9000.00
J61_19	2700.00	9000.00
J61_20	2850.00	9000.00
J61_21	3000.00	9000.00
J61_22	3150.00	9000.00
J61_23	3300.00	9000.00
J61_24	3450.00	9000.00
J61_25	3600.00	9000.00
J61_26	3750.00	9000.00
J61_27	3900.00	9000.00
J61_28	4050.00	9000.00
J61_29	4200.00	9000.00
J61_30	4350.00	9000.00
J61_31	4500.00	9000.00
J61_32	4650.00	9000.00
J61_33	4800.00	9000.00
J61_34	4950.00	9000.00
J61_35	5100.00	9000.00
J61_36	5250.00	9000.00
J61_37	5400.00	9000.00
J61_38	5550.00	9000.00
J61_39	5700.00	9000.00
J61_40	5850.00	9000.00
J61_41	6000.00	9000.00
J61_42	6150.00	9000.00
J61_43	6300.00	9000.00
J61_44	6450.00	9000.00
J61_45	6600.00	9000.00
J61_46	6750.00	9000.00
J61_47	6900.00	9000.00
J61_48	7050.00	9000.00
J61_49	7200.00	9000.00
J61_50	7350.00	9000.00
J61_51	7500.00	9000.00
J61_52	7650.00	9000.00
J62_1	0.00	9150.00
J62_2	150.00	9150.00
J62_3	300.00	9150.00
J62_4	450.00	9150.00
J62_5	600.00	9150.00
J62_6	750.00	9150.00
J62_7	900.00	9150.00
J62_8	1050.00	9150.00
J62_9	1200.00	9150.00
J62_10	1350.00	9150.00
J62_11	1500.00	9150.00
J62_12	1650.00	9150.00
J62_13	1800.00	9150.00
J62_14	1950.00	9150.00
J62_15	2100.00	9150.00
J62_16	2250.00	9150.00
J62_17	2400.00	9150.00
J62_18	2550.00	9150.00
J62_19	2700.00	9150.00
J62_20	2850.00	9150.00
J62_21	3000.00	9150.00
J62_22	3150.00	9150.00
J62_23	3300.00	9150.00
J62_24	3450.00	9150.00
J62_25	3600.00	9150.00
J62_26	3750.00	9150.00
J62_27	3900.00	9150.00
J62_28	4050.00	9150.00
J62_29	4200.00	9150.00
J62_30	4350.00	9150.00
J62_31	4500.00	9150.00
J62_32	4650.00	9150.00
J62_33	4800.00	9150.00
J62_34	4950.00	9150.00
J62_35	5100.00	9150.00
J62_36	5250.00	9150.00
J62_37	5400.00	9150.00
J62_38	5550.00	9150.00
J62_39	5700.00	9150.00
J62_40	5850.00	9150.00
J62_41	6000.00	9150.00
J62_42	6150.00	9150.00
J62_43	6300.00	9150.00
J62_44	6450.00	9150.00
J62_45	6600.00	9150.00
J62_46	6750.00	9150.00
J62_47	6900.00	9150.00
J62_48	7050.00	9150.00
J62_49	7200.00	9150.00
J62_50	7350.00	9150.00
J62_51	7500.00	9150.00
J62_52	7650.00	9150.00
J63_1	0.00	9300.00
J63_2	150.00	9300.00
J63_3	300.00	9300.00
J63_4	450.00	9300.00
J63_5	600.00	9300.00
J63_6	750.00	9300.00
J63_7	900.00	9300.00
J63_8	1050.00	9300.00
J63_9	1200.00	9300.00
J63_10	1350.00	9300.00
J63_11	1500.00	9300.00
J63_12	1650.00	9300.00
J63_13	1800.00	9300.00
J63_14	1950.00	9300.00
J63_15	2100.00	9300.00
J63_16	2250.00	9300.00
J63_17	2400.00	9300.00
J63_18	2550.00	9300.00
J63_19	2700.00	9300.00
J63_20	2850.00	9300.00
J63_21	3000.00	9300.00
J63_22	3150.00	9300.00
J63_23	3300.00	9300.00
J63_24	3450.00	9300.00
J63_25	3600.00	9300.00
J63_26	3750.00	9300.00
J63_27	3900.00	9300.00
J63_28	4050.00	9300.00
J63_29	4200.00	9300.00
J63_30	4350.00	9300.00
J63_31	4500.00	9300.00
J63_32	4650.00	9300.00
J63_33	4800.00	9300.00
J63_34	4950.00	9300.00
J63_35	5100.00	9300.00
J63_36	5250.00	9300.00
J63_37	5400.00	9300.00
J63_38	5550.00	9300.00
J63_39	5700.00	9300.00
J63_40	5850.00	9300.00
J63_41	6000.00	9300.00
J63_42	6150.00	9300.00
J63_43	6300.00	9300.00
J63_44	6450.00	9300.00
J63_45	6600.00	9300.00
J63_46	6750.00	9300.00
J63_47	6900.00	9300.00
J63_48	7050.00	9300.00
J63_49	7200.00	9300.00
J63_50	7350.00	9300.00
J63_51	7500.00	9300.00
J63_52	7650.00	9300.00
J64_1	0.00	9450.00
J64_2	150.00	9450.00
J64_3	300.00	9450.00
J64_4	450.00	9450.00
J64_5	600.00	9450.00
J64_6	750.00	9450.00
J64_7	900.00	9450.00
J64_8	1050.00	9450.00
J64_9	1200.00	9450.00
J64_10	1350.00	9450.00
J64_11	1500.00	9450.00
J64_12	1650.00	9450.00
J64_13	1800.00	9450.00
J64_14	1950.00	9450.00
J64_15	2100.00	9450.00
J64_16	2250.00	9450.00
J64_17	2400.00	9450.00
J64_18	2550.00	9450.00
J64_19	2700.00	9450.00
J64_20	2850.00	9450.00
J64_21	3000.00	9450.00
J64_22	3150.00	9450.00
J64_23	3300.00	9450.00
J64_24	3450.00	9450.00
J64_25	3600.00	9450.00
J64_26	3750.00	9450.00
J64_27	3900.00	9450.00
J64_28	4050.00	9450.00
J64_29	4200.00	9450.00
J64_30	4350.00	9450.00
J64_31	4500.00	9450.00
J64_32	4650.00	9450.00
J64_33	4800.00	9450.00
J64_34	4950.00	9450.00
J64_35	5100.00	9450.00
J64_36	5250.00	9450.00
J64_37	5400.00	9450.00
J64_38	5550.00	9450.00
J64_39	5700.00	9450.00
J64_40	5850.00	9450.00
J64_41	6000.00	9450.00
J64_42	6150.00	9450.00
J64_43	6300.00	9450.00
J64_44	6450.00	9450.00
J64_45	6600.00	9450.00
J64_46	6750.00	9450.00
J64_47	6900.00	9450.00
J64_48	7050.00	9450.00
J64_49	7200.00	9450.00
J64_50	7350.00	9450.00
J64_51	7500.00	9450.00
J64_52	7650.00	9450.00
J65_1	0.00	9600.00
J65_2	150.00	9600.00
J65_3	300.00	9600.00
J65_4	450.00	9600.00
J65_5	600.00	9600.00
J65_6	750.00	9600.00
J65_7	900.00	9600.00
J65_8	1050.00	9600.00
J65_9	1200.00	9600.00
J65_10	1350.00	9600.00
J65_11	1500.00	9600.00
J65_12	1650.00	9600.00
J65_13	1800.00	9600.00
J65_14	1950.00	9600.00
J65_15	2100.00	9600.00
J65_16	2250.00	9600.00
J65_17	2400.00	9600.00
J65_18	2550.00	9600.00
J65_19	2700.00	9600.00
J65_20	2850.00	9600.00
J65_21	3000.00	9600.00
J65_22	3150.00	9600.00
J65_23	3300.00	9600.00
J65_24	3450.00	9600.00
J65_25	3600.00	9600.00
J65_26	3750.00	9600.00
J65_27	3900.00	9600.00
J65_28	4050.00	9600.00
J65_29	4200.00	9600.00
J65_30	4350.00	9600.00
J65_31	4500.00	9600.00
J65_32	4650.00	9600.00
J65_33	4800.00	9600.00
J65_34	4950.00	9600.00
J65_35	5100.00	9600.00
J65_36	5250.00	9600.00
J65_37	5400.00	9600.00
J65_38	5550.00	9600.00
J65_39	5700.00	9600.00
J65_40	5850.00	9600.00
J65_41	6000.00	9600.00
J65_42	6150.00	9600.00
J65_43	6300.00	9600.00
J65_44	6450.00	9600.00
J65_45	6600.00	9600.00
J65_46	6750.00	9600.00
J65_47	6900.00	9600.00
J65_48	7050.00	9600.00
J65_49	7200.00	9600.00
J65_50	7350.00	9600.00
J65_51	7500.00	9600.00
J65_52	7650.00	9600.00
J66_1	0.00	9750.00
J66_2	150.00	9750.00
J66_3	300.00	9750.00
J66_4	450.00	9750.00
J66_5	600.00	9750.00
J66_6	750.00	9750.00
J66_7	900.00	9750.00
J66_8	1050.00	9750.00
J66_9	1200.00	9750.00
J66_10	1350.00	9750.00
J66_11	1500.00	9750.00
J66_12	1650.00	9750.00
J66_13	1800.00	9750.00
J66_14	1950.00	9750.00
J66_15	2100.00	9750.00
J66_16	2250.00	9750.00
J66_17	2400.00	9750.00
J66_18	2550.00	9750.00
J66_19	2700.00	9750.00
J66_20	2850.00	9750.00
J66_21	3000.00	9750.00
J66_22	3150.00	9750.00
J66_23	3300.00	9750.00
J66_24	3450.00	9750.00
J66_25	3600.00	9750.00
J66_26	3750.00	9750.00
J66_27	3900.00	9750.00
J66_28	4050.00	9750.00
J66_29	4200.00	9750.00
J66_30	4350.00	9750.00
J66_31	4500.00	9750.00
J66_32	4650.00	9750.00
J66_33	4800.00	9750.00
J66_34	4950.00	9750.00
J66_35	5100.00	9750.00
J66_36	5250.00	9750.00
J66_37	5400.00	9750.00
J66_38	5550.00	9750.00
J66_39	5700.00	9750.00
J66_40	5850.00	9750.00
J66_41	6000.00	9750.00
J66_42	6150.00	9750.00
J66_43	6300.00	9750.00
J66_44	6450.00	9750.00
J66_45	6600.00	9750.00
J66_46	6750.00	9750.00
J66_47	6900.00	9750.00
J66_48	7050.00	9750.00
J66_49	7200.00	9750.00
J66_50	7350.00	9750.00
J66_51	7500.00	9750.00
J66_52	7650.00	9750.00
J67_1	0.00	9900.00
J67_2	150.00	9900.00
J67_3	300.00	9900.00
J67_4	450.00	9900.00
J67_5	600.00	9900.00
J67_6	750.00	9900.00
J67_7	900.00	9900.00
J67_8	1050.00	9900.00
J67_9	1200.00	9900.00
J67_10	1350.00	9900.00
J67_11	1500.00	9900.00
J67_12	1650.00	9900.00
J67_13	1800.00	9900.00
J67_14	1950.00	9900.00
J67_15	2100.00	9900.00
J67_16	2250.00	9900.00
J67_17	2400.00	9900.00
J67_18	2550.00	9900.00
J67_19	2700.00	9900.00
J67_20	2850.00	9900.00
J67_21	3000.00	9900.00
J67_22	3150.00	9900.00
J67_23	3300.00	9900.00
J67_24	3450.00	9900.00
J67_25	3600.00	9900.00
J67_26	3750.00	9900.00
J67_27	3900.00	9900.00
J67_28	4050.00	9900.00
J67_29	4200.00	9900.00
J67_30	4350.00	9900.00
J67_31	4500.00	9900.00
J67_32	4650.00	9900.00
J67_33	4800.00	9900.00
J67_34	4950.00	9900.00
J67_35	5100.00	9900.00
J67_36	5250.00	9900.00
J67_37	5400.00	9900.00
J67_38	5550.00	9900.00
J67_39	5700.00	9900.00
J67_40	5850.00	9900.00
J67_41	6000.00	9900.00
J67_42	6150.00	9900.00
J67_43	6300.00	9900.00
J67_44	6450.00	9900.00
J67_45	6600.00	9900.00
J67_46	6750.00	9900.00
J67_47	6900.00	9900.00
J67_48	7050.00	9900.00
J67_49	7200.00	9900.00
J67_50	7350.00	9900.00
J67_51	7500.00	9900.00
J67_52	7650.00	9900.00
J68_1	0.00	10050.00
J68_2	150.00	10050.00
J68_3	300.00	10050.00
J68_4	450.00	10050.00
J68_5	600.00	10050.00
J68_6	750.00	10050.00
J68_7	900.00	10050.00
J68_8	1050.00	10050.00
J68_9	1200.00	10050.00
J68_10	1350.00	10050.00
J68_11	1500.00	10050.00
J68_12	1650.00	10050.00
J68_13	1800.00	10050.00
J68_14	1950.00	10050.00
J68_15	2100.00	10050.00
J68_16	2250.00	10050.00
J68_17	2400.00	10050.00
J68_18	2550.00	10050.00
J68_19	2700.00	10050.00
J68_20	2850.00	10050.00
J68_21	3000.00	10050.00
J68_22	3150.00	10050.00
J68_23	3300.00	10050.00
J68_24	3450.00	10050.00
J68_25	3600.00	10050.00
J68_26	3750.00	10050.00
J68_27	3900.00	10050.00
J68_28	4050.00	10050.00
J68_29	4200.00	10050.00
J68_30	4350.00	10050.00
J68_31	4500.00	10050.00
J68_32	4650.00	10050.00
J68_33	4800.00	10050.00
J68_34	4950.00	10050.00
J68_35	5100.00	10050.00
J68_36	5250.00	10050.00
J68_37	5400.00	10050.00
J68_38	5550.00	10050.00
J68_39	5700.00	10050.00
J68_40	5850.00	10050.00
J68_41	6000.00	10050.00
J68_42	6150.00	10050.00
J68_43	6300.00	10050.00
J68_44	6450.00	10050.00
J68_45	6600.00	10050.00
J68_46	6750.00	10050.00
J68_47	6900.00	10050.00
J68_48	7050.00	10050.00
J68_49	7200.00	10050.00
J68_50	7350.00	10050.00
J68_51	7500.00	10050.00
J68_52	7650.00	10050.00
J69_1	0.00	10200.00
J69_2	150.00	10200.00
J69_3	300.00	10200.00
J69_4	450.00	10200.00
J69_5	600.00	10200.00
J69_6	750.00	10200.00
J69_7	900.00	10200.00
J69_8	1050.00	10200.00
J69_9	1200.00	10200.00
J69_10	1350.00	10200.00
J69_11	1500.00	10200.00
J69_12	1650.00	10200.00
J69_13	1800.00	10200.00
J69_14	1950.00	10200.00
J69_15	2100.00	10200.00
J69_16	2250.00	10200.00
J69_17	2400.00	10200.00
J69_18	2550.00	10200.00
J69_19	2700.00	10200.00
J69_20	2850.00	10200.00
J69_21	3000.00	10200.00
J69_22	3150.00	10200.00
J69_23	3300.00	10200.00
J69_24	3450.00	10200.00
J69_25	3600.00	10200.00
J69_26	3750.00	10200.00
J69_27	3900.00	10200.00
J69_28	4050.00	10200.00
J69_29	4200.00	10200.00
J69_30	4350.00	10200.00
J69_31	4500.00	10200.00
J69_32	4650.00	10200.00
J69_33	4800.00	10200.00
J69_34	4950.00	10200.00
J69_35	5100.00	10200.00
J69_36	5250.00	10200.00
J69_37	5400.00	10200.00
J69_38	5550.00	10200.00
J69_39	5700.00	10200.00
J69_40	5850.00	10200.00
J69_41	6000.00	10200.00
J69_42	6150.00	10200.00
J69_43	6300.00	10200.00
J69_44	6450.00	10200.00
J69_45	6600.00	10200.00
J69_46	6750.00	10200.00
J69_47	6900.00	10200.00
J69_48	7050.00	10200.00
J69_49	7200.00	10200.00
J69_50	7350.00	10200.00
J69_51	7500.00	10200.00
J69_52	7650.00	10200.00
J70_1	0.00	10350.00
J70_2	150.00	10350.00
J70_3	300.00	10350.00
J70_4	450.00	10350.00
J70_5	600.00	10350.00
J70_6	750.00	10350.00
J70_7	900.00	10350.00
J70_8	1050.00	10350.00
J70_9	1200.00	10350.00
J70_10	1350.00	10350.00
J70_11	1500.00	10350.00
J70_12	1650.00	10350.00
J70_13	1800.00	10350.00
J70_14	1950.00	10350.00
J70_15	2100.00	10350.00
J70_16	2250.00	10350.00
J70_17	2400.00	10350.00
J70_18	2550.00	10350.00
J70_19	2700.00	10350.00
J70_20	2850.00	10350.00
J70_21	3000.00	10350.00
J70_22	3150.00	10350.00
J70_23	3300.00	10350.00
J70_24	3450.00	10350.00
J70_25	3600.00	10350.00
J70_26	3750.00	10350.00
J70_27	3900.00	10350.00
J70_28	4050.00	10350.00
J70_29	4200.00	10350.00
J70_30	4350.00	10350.00
J70_31	4500.00	10350.00
J70_32	4650.00	10350.00
J70_33	4800.00	10350.00
J70_34	4950.00	10350.00
J70_35	5100.00	10350.00
J70_36	5250.00	10350.00
J70_37	5400.00	10350.00
J70_38	5550.00	10350.00
J70_39	5700.00	10350.00
J70_40	5850.00	10350.00
J70_41	6000.00	10350.00
J70_42	6150.00	10350.00
J70_43	6300.00	10350.00
J70_44	6450.00	10350.00
J70_45	6600.00	10350.00
J70_46	6750.00	10350.00
J70_47	6900.00	10350.00
J70_48	7050.00	10350.00
J70_49	7200.00	10350.00
J70_50	7350.00	10350.00
J70_51	7500.00	10350.00
J70_52	7650.00	10350.00
J71_1	0.00	10500.00
J71_2	150.00	10500.00
J71_3	300.00	10500.00
J71_4	450.00	10500.00
J71_5	600.00	10500.00
J71_6	750.00	10500.00
J71_7	900.00	10500.00
J71_8	1050.00	10500.00
J71_9	1200.00	10500.00
J71_10	1350.00	10500.00
J71_11	1500.00	10500.00
J71_12	1650.00	10500.00
J71_13	1800.00	10500.00
J71_14	1950.00	10500.00
J71_15	2100.00	10500.00
J71_16	2250.00	10500.00
J71_17	2400.00	10500.00
J71_18	2550.00	10500.00
J71_19	2700.00	10500.00
J71_20	2850.00	10500.00
J71_21	3000.00	10500.00
J71_22	3150.00	10500.00
J71_23	3300.00	10500.00
J71_24	3450.00	10500.00
J71_25	3600.00	10500.00
J71_26	3750.00	10500.00
J71_27	3900.00	10500.00
J71_28	4050.00	10500.00
J71_29	4200.00	10500.00
J71_30	4350.00	10500.00
J71_31	4500.00	10500.00
J71_32	4650.00	10500.00
J71_33	4800.00	10500.00
J71_34	4950.00	10500.00
J71_35	5100.00	10500.00
J71_36	5250.00	10500.00
J71_37	5400.00	10500.00
J71_38	5550.00	10500.00
J71_39	5700.00	10500.00
J71_40	5850.00	10500.00
J71_41	6000.00	10500.00
J71_42	6150.00	10500.00
J71_43	6300.00	10500.00
J71_44	6450.00	10500.00
J71_45	6600.00	10500.00
J71_46	6750.00	10500.00
J71_47	6900.00	10500.00
J71_48	7050.00	10500.00
J71_49	7200.00	10500.00
J71_50	7350.00	10500.00
J71_51	7500.00	10500.00
J71_52	7650.00	10500.00
J72_1	0.00	10650.00
J72_2	150.00	10650.00
J72_3	300.00	10650.00
J72_4	450.00	10650.00
J72_5	600.00	10650.00
J72_6	750.00	10650.00
J72_7	900.00	10650.00
J72_8	1050.00	10650.00
J72_9	1200.00	10650.00
J72_10	1350.00	10650.00
J72_11	1500.00	10650.00
J72_12	1650.00	10650.00
J72_13	1800.00	10650.00
J72_14	1950.00	10650.00
J72_15	2100.00	10650.00
J72_16	2250.00	10650.00
J72_17	2400.00	10650.00
J72_18	2550.00	10650.00
J72_19	2700.00	10650.00
J72_20	2850.00	10650.00
J72_21	3000.00	10650.00
J72_22	3150.00	10650.00
J72_23	3300.00	10650.00
J72_24	3450.00	10650.00
J72_25	3600.00	10650.00
J72_26	3750.00	10650.00
J72_27	3900.00	10650.00
J72_28	4050.00	10650.00
J72_29	4200.00	10650.00
J72_30	4350.00	10650.00
J72_31	4500.00	10650.00
J72_32	4650.00	10650.00
J72_33	4800.00	10650.00
J72_34	4950.00	10650.00
J72_35	5100.00	10650.00
J72_36	5250.00	10650.00
J72_37	5400.00	10650.00
J72_38	5550.00	10650.00
J72_39	5700.00	10650.00
J72_40	5850.00	10650.00
J72_41	6000.00	10650.00
J72_42	6150.00	10650.00
J72_43	6300.00	10650.00
J72_44	6450.00	10650.00
J72_45	6600.00	10650.00
J72_46	6750.00	10650.00
J72_47	6900.00	10650.00
J72_48	7050.00	10650.00
J72_49	7200.00	10650.00
J72_50	7350.00	10650.00
J72_51	7500.00	10650.00
J72_52	7650.00	10650.00
J73_1	0.00	10800.00
J73_2	150.00	10800.00
J73_3	300.00	10800.00
J73_4	450.00	10800.00
J73_5	600.00	10800.00
J73_6	750.00	10800.00
J73_7	900.00	10800.00
J73_8	1050.00	10800.00
J73_9	1200.00	10800.00
J73_10	1350.00	10800.00
J73_11	1500.00	10800.00
J73_12	1650.00	10800.00
J73_13	1800.00	10800.00
J73_14	1950.00	10800.00
J73_15	2100.00	10800.00
J73_16	2250.00	10800.00
J73_17	2400.00	10800.00
J73_18	2550.00	10800.00
J73_19	2700.00	10800.00
J73_20	2850.00	10800.00
J73_21	3000.00	10800.00
J73_22	3150.00	10800.00
J73_23	3300.00	10800.00
J73_24	3450.00	10800.00
J73_25	3600.00	10800.00
J73_26	3750.00	10800.00
J73_27	3900.00	10800.00
J73_28	4050.00	10800.00
J73_29	4200.00	10800.00
J73_30	4350.00	10800.00
J73_31	4500.00	10800.00
J73_32	4650.00	10800.00
J73_33	4800.00	10800.00
J73_34	4950.00	10800.00
J73_35	5100.00	10800.00
J73_36	5250.00	10800.00
J73_37	5400.00	10800.00
J73_38	5550.00	10800.00
J73_39	5700.00	10800.00
J73_40	5850.00	10800.00
J73_41	6000.00	10800.00
J73_42	6150.00	10800.00
J73_43	6300.00	10800.00
J73_44	6450.00	10800.00
J73_45	6600.00	10800.00
J73_46	6750.00	10800.00
J73_47	6900.00	10800.00
J73_48	7050.00	10800.00
J73_49	7200.00	10800.00
J73_50	7350.00	10800.00
J73_51	7500.00	10800.00
J73_52	7650.00	10800.00
J74_1	0.00	10950.00
J74_2	150.00	10950.00
J74_3	300.00	10950.00
J74_4	450.00	10950.00
J74_5	600.00	10950.00
J74_6	750.00	10950.00
J74_7	900.00	10950.00
J74_8	1050.00	10950.00
J74_9	1200.00	10950.00
J74_10	1350.00	10950.00
J74_11	1500.00	10950.00
J74_12	1650.00	10950.00
J74_13	1800.00	10950.00
J74_14	1950.00	10950.00
J74_15	2100.00	10950.00
J74_16	2250.00	10950.00
J74_17	2400.00	10950.00
J74_18	2550.00	10950.00
J74_19	2700.00	10950.00
J74_20	2850.00	10950.00
J74_21	3000.00	10950.00
J74_22	3150.00	10950.00
J74_23	3300.00	10950.00
J74_24	3450.00	10950.00
J74_25	3600.00	10950.00
J74_26	3750.00	10950.00
J74_27	3900.00	10950.00
J74_28	4050.00	10950.00
J74_29	4200.00	10950.00
J74_30	4350.00	10950.00
J74_31	4500.00	10950.00
J74_32	4650.00	10950.00
J74_33	4800.00	10950.00
J74_34	4950.00	10950.00
J74_35	5100.00	10950.00
J74_36	5250.00	10950.00
J74_37	5400.00	10950.00
J74_38	5550.00	10950.00
J74_39	5700.00	10950.00
J74_40	5850.00	10950.00
J74_41	6000.00	10950.00
J74_42	6150.00	10950.00
J74_43	6300.00	10950.00
J74_44	6450.00	10950.00
J74_45	6600.00	10950.00
J74_46	6750.00	10950.00
J74_47	6900.00	10950.00
J74_48	7050.00	10950.00
J74_49	7200.00	10950.00
J74_50	7350.00	10950.00
J74_51	7500.00	10950.00
J74_52	7650.00	10950.00
J75_1	0.00	11100.00
J75_2	150.00	11100.00
J75_3	300.00	11100.00
J75_4	450.00	11100.00
J75_5	600.00	11100.00
J75_6	750.00	11100.00
J75_7	900.00	11100.00
J75_8	1050.00	11100.00
J75_9	1200.00	11100.00
J75_10	1350.00	11100.00
J75_11	1500.00	11100.00
J75_12	1650.00	11100.00
J75_13	1800.00	11100.00
J75_14	1950.00	11100.00
J75_15	2100.00	11100.00
J75_16	2250.00	11100.00
J75_17	2400.00	11100.00
J75_18	2550.00	11100.00
J75_19	2700.00	11100.00
J75_20	2850.00	11100.00
J75_21	3000.00	11100.00
J75_22	3150.00	11100.00
J75_23	3300.00	11100.00
J75_24	3450.00	11100.00
J75_25	3600.00	11100.00
J75_26	3750.00	11100.00
J75_27	3900.00	11100.00
J75_28	4050.00	11100.00
J75_29	4200.00	11100.00
J75_30	4350.00	11100.00
J75_31	4500.00	11100.00
J75_32	4650.00	11100.00
J75_33	4800.00	11100.00
J75_34	4950.00	11100.00
J75_35	5100.00	11100.00
J75_36	5250.00	11100.00
J75_37	5400.00	11100.00
J75_38	5550.00	11100.00
J75_39	5700.00	11100.00
J75_40	5850.00	11100.00
J75_41	6000.00	11100.00
J75_42	6150.00	11100.00
J75_43	6300.00	11100.00
J75_44	6450.00	11100.00
J75_45	6600.00	11100.00
J75_46	6750.00	11100.00
J75_47	6900.00	11100.00
J75_48	7050.00	11100.00
J75_49	7200.00	11100.00
J75_50	7350.00	11100.00
J75_51	7500.00	11100.00
J75_52	7650.00	11100.00
J76_1	0.00	11250.00
J76_2	150.00	11250.00
J76_3	300.00	11250.00
J76_4	450.00	11250.00
J76_5	600.00	11250.00
J76_6	750.00	11250.00
J76_7	900.00	11250.00
J76_8	1050.00	11250.00
J76_9	1200.00	11250.00
J76_10	1350.00	11250.00
J76_11	1500.00	11250.00
J76_12	1650.00	11250.00
J76_13	1800.00	11250.00
J76_14	1950.00	11250.00
J76_15	2100.00	11250.00
J76_16	2250.00	11250.00
J76_17	2400.00	11250.00
J76_18	2550.00	11250.00
J76_19	2700.00	11250.00
J76_20	2850.00	11250.00
J76_21	3000.00	11250.00
J76_22	3150.00	11250.00
J76_23	3300.00	11250.00
J76_24	3450.00	11250.00
J76_25	3600.00	11250.00
J76_26	3750.00	11250.00
J76_27	3900.00	11250.00
J76_28	4050.00	11250.00
J76_29	4200.00	11250.00
J76_30	4350.00	11250.00
J76_31	4500.00	11250.00
J76_32	4650.00	11250.00
J76_33	4800.00	11250.00
J76_34	4950.00	11250.00
J76_35	5100.00	11250.00
J76_36	5250.00	11250.00
J76_37	5400.00	11250.00
J76_38	5550.00	11250.00
J76_39	5700.00	11250.00
J76_40	5850.00	11250.00
J76_41	6000.00	11250.00
J76_42	6150.00	11250.00
J76_43	6300.00	11250.00
J76_44	6450.00	11250.00
J76_45	6600.00	11250.00
J76_46	6750.00	11250.00
J76_47	6900.00	11250.00
J76_48	7050.00	11250.00
J76_49	7200.00	11250.00
J76_50	7350.00	11250.00
J76_51	7500.00	11250.00
J76_52	7650.00	11250.00
J77_1	0.00	11400.00
J77_2	150.00	11400.00
J77_3	300.00	11400.00
J77_4	450.00	11400.00
J77_5	600.00	11400.00
J77_6	750.00	11400.00
J77_7	900.00	11400.00
J77_8	1050.00	11400.00
J77_9	1200.00	11400.00
J77_10	1350.00	11400.00
J77_11	1500.00	11400.00
J77_12	1650.00	11400.00
J77_13	1800.00	11400.00
J77_14	1950.00	11400.00
J77_15	2100.00	11400.00
J77_16	2250.00	11400.00
J77_17	2400.00	11400.00
J77_18	2550.00	11400.00
J77_19	2700.00	11400.00
J77_20	2850.00	11400.00
J77_21	3000.00	11400.00
J77_22	3150.00	11400.00
J77_23	3300.00	11400.00
J77_24	3450.00	11400.00
J77_25	3600.00	11400.00
J77_26	3750.00	11400.00
J77_27	3900.00	11400.00
J77_28	4050.00	11400.00
J77_29	4200.00	11400.00
J77_30	4350.00	11400.00
J77_31	4500.00	11400.00
J77_32	4650.00	11400.00
J77_33	4800.00	11400.00
J77_34	4950.00	11400.00
J77_35	5100.00	11400.00
J77_36	5250.00	11400.00
J77_37	5400.00	11400.00
J77_38	5550.00	11400.00
J77_39	5700.00	11400.00
J77_40	5850.00	11400.00
J77_41	6000.00	11400.00
J77_42	6150.00	11400.00
J77_43	6300.00	11400.00
J77_44	6450.00	11400.00
J77_45	6600.00	11400.00
J77_46	6750.00	11400.00
J77_47	6900.00	11400.00
J77_48	7050.00	11400.00
J77_49	7200.00	11400.00
J77_50	7350.00	11400.00
J77_51	7500.00	11400.00
J77_52	7650.00	11400.00
J78_1	0.00	11550.00
J78_2	150.00	11550.00
J78_3	300.00	11550.00
J78_4	450.00	11550.00
J78_5	600.00	11550.00
J78_6	750.00	11550.00
J78_7	900.00	11550.00
J78_8	1050.00	11550.00
J78_9	1200.00	11550.00
J78_10	1350.00	11550.00
J78_11	1500.00	11550.00
J78_12	1650.00	11550.00
J78_13	1800.00	11550.00
J78_14	1950.00	11550.00
J78_15	2100.00	11550.00
J78_16	2250.00	11550.00
J78_17	2400.00	11550.00
J78_18	2550.00	11550.00
J78_19	2700.00	11550.00
J78_20	2850.00	11550.00
J78_21	3000.00	11550.00
J78_22	3150.00	11550.00
J78_23	3300.00	11550.00
J78_24	3450.00	11550.00
J78_25	3600.00	11550.00
J78_26	3750.00	11550.00
J78_27	3900.00	11550.00
J78_28	4050.00	11550.00
J78_29	4200.00	11550.00
J78_30	4350.00	11550.00
J78_31	4500.00	11550.00
J78_32	4650.00	11550.00
J78_33	4800.00	11550.00
J78_34	4950.00	11550.00
J78_35	5100.00	11550.00
J78_36	5250.00	11550.00
J78_37	5400.00	11550.00
J78_38	5550.00	11550.00
J78_39	5700.00	11550.00
J78_40	5850.00	11550.00
J78_41	6000.00	11550.00
J78_42	6150.00	11550.00
J78_43	6300.00	11550.00
J78_44	6450.00	11550.00
J78_45	6600.00	11550.00
J78_46	6750.00	11550.00
J78_47	6900.00	11550.00
J78_48	7050.00	11550.00
J78_49	7200.00	11550.00
J78_50	7350.00	11550.00
J78_51	7500.00	11550.00
J78_52	7650.00	11550.00
T1	1395.49	6996.19
T2	3840.24	5825.17
T3	6241.04	4502.66


[END]
