[TITLE]
Complex Suite Scenario: huge_dw_gpm_trace_160x120
seed=808 districts=2x2 size=32

[JUNCTIONS]
;ID	Elev	Demand	Pattern
J1_1	184.675	0.0017625	P_RES
J1_2	192.434	0.0010387	P_RES
J1_3	197.154	0.0020114	P_RES
J1_4	203.602	0.0005859	P_RES
J1_5	211.650	0.0037514	P_RES
J1_6	217.421	0.0014081	P_RES
J1_7	223.935	0.0021777	P_COM
J1_8	229.021	0.0045312	P_IND
J1_9	237.011	0.0033129	P_IND
J1_10	241.455	0.0011027	P_RES
J1_11	247.892	0.0012086	P_RES
J1_12	255.142	0.0013694	P_RES
J1_13	261.581	0.0029384	P_IND
J1_14	268.378	0.0006406	P_RES
J1_15	274.598	0.0014980	P_RES
J1_16	281.262	0.0012157	P_RES
J1_17	286.779	0.0040132	P_IND
J1_18	292.945	0.0010029	P_RES
J1_19	300.309	0.0031552	P_COM
J1_20	306.260	0.0006881	P_RES
J1_21	312.320	0.0018187	P_RES
J1_22	319.335	0.0007621	P_RES
J1_23	325.783	0.0014723	P_RES
J1_24	329.769	0.0010459	P_RES
J1_25	337.933	0.0011344	P_RES
J1_26	342.520	0.0014320	P_COM
J1_27	349.465	0.0014405	P_COM
J1_28	356.675	0.0012753	P_RES
J1_29	361.933	0.0022274	P_RES
J1_30	367.602	0.0010703	P_RES
J1_31	374.799	0.0029214	P_RES
J1_32	380.207	0.0005198	P_RES
J1_33	387.364	0.0004835	P_RES
J1_34	394.178	0.0031823	P_IND
J1_35	400.176	0.0018042	P_RES
J1_36	404.867	0.0017500	P_RES
J1_37	411.703	0.0022525	P_RES
J1_38	417.656	0.0010255	P_RES
J1_39	422.830	0.0010649	P_RES
J1_40	430.255	0.0018657	P_RES
J1_41	436.690	0.0033778	P_COM
J1_42	442.898	0.0010886	P_COM
J1_43	447.510	0.0020892	P_IND
J1_44	455.262	0.0008179	P_RES
J1_45	460.515	0.0014386	P_COM
J1_46	465.835	0.0029624	P_COM
J1_47	472.039	0.0014192	P_RES
J1_48	477.329	0.0009034	P_RES
J1_49	484.500	0.0016757	P_RES
J1_50	490.118	0.0013057	P_RES
J1_51	496.239	0.0016104	P_RES
J1_52	501.874	0.0014396	P_RES
J1_53	507.189	0.0023495	P_RES
J1_54	513.190	0.0043360	P_COM
J1_55	519.649	0.0005190	P_RES
J1_56	525.938	0.0017221	P_COM
J1_57	532.732	0.0009373	P_RES
J1_58	537.425	0.0025388	P_COM
J1_59	542.918	0.0026715	P_COM
J1_60	549.016	0.0010061	P_RES
J1_61	555.363	0.0012499	P_COM
J1_62	560.529	0.0006486	P_RES
J1_63	568.163	0.0008209	P_RES
J1_64	571.849	0.0012730	P_RES
J2_1	182.651	0.0015925	P_RES
J2_2	190.125	0.0005310	P_RES
J2_3	197.170	0.0012566	P_RES
J2_4	201.402	0.0023628	P_COM
J2_5	208.243	0.0013932	P_COM
J2_6	216.199	0.0023644	P_RES
J2_7	222.775	0.0014825	P_RES
J2_8	228.761	0.0008927	P_RES
J2_9	234.458	0.0011465	P_RES
J2_10	240.581	0.0018042	P_RES
J2_11	246.368	0.0011886	P_RES
J2_12	252.913	0.0027357	P_IND
J2_13	258.773	0.0028386	P_COM
J2_14	266.059	0.0038172	P_COM
J2_15	271.381	0.0015368	P_RES
J2_16	279.386	0.0009755	P_RES
J2_17	285.466	0.0019840	P_IND
J2_18	292.171	0.0039878	P_IND
J2_19	297.417	0.0013805	P_RES
J2_20	303.663	0.0023065	P_RES
J2_21	310.671	0.0026533	P_COM
J2_22	317.649	0.0024020	P_COM
J2_23	322.954	0.0008664	P_RES
J2_24	328.526	0.0007386	P_RES
J2_25	336.202	0.0024154	P_COM
J2_26	342.781	0.0011207	P_RES
J2_27	346.875	0.0016120	P_RES
J2_28	353.520	0.0018431	P_RES
J2_29	361.426	0.0007939	P_RES
J2_30	366.044	0.0031863	P_IND
J2_31	372.609	0.0036694	P_IND
J2_32	378.817	0.0017594	P_IND
J2_33	384.159	0.0016237	P_COM
J2_34	390.504	0.0017764	P_RES
J2_35	398.068	0.0025815	P_RES
J2_36	402.612	0.0010859	P_COM
J2_37	410.813	0.0005058	P_RES
J2_38	414.930	0.0034760	P_RES
J2_39	422.824	0.0013057	P_RES
J2_40	427.492	0.0029221	P_RES
J2_41	434.045	0.0014106	P_RES
J2_42	439.557	0.0019474	P_COM
J2_43	445.755	0.0023614	P_RES
J2_44	451.405	0.0012600	P_RES
J2_45	457.690	0.0011065	P_RES
J2_46	464.006	0.0017720	P_RES
J2_47	470.787	0.0016675	P_COM
J2_48	476.058	0.0023120	P_COM
J2_49	482.119	0.0029120	P_RES
J2_50	489.576	0.0012255	P_RES
J2_51	494.386	0.0005609	P_RES
J2_52	500.506	0.0036766	P_IND
J2_53	505.592	0.0016359	P_COM
J2_54	513.611	0.0005762	P_RES
J2_55	517.946	0.0019221	P_COM
J2_56	525.148	0.0013497	P_RES
J2_57	529.916	0.0023473	P_RES
J2_58	535.034	0.0009862	P_RES
J2_59	542.641	0.0018382	P_RES
J2_60	548.027	0.0039559	P_COM
J2_61	553.159	0.0009749	P_RES
J2_62	559.000	0.0023449	P_RES
J2_63	565.127	0.0009231	P_RES
J2_64	571.763	0.0016732	P_RES
J3_1	181.183	0.0014130	P_RES
J3_2	187.622	0.0022746	P_RES
J3_3	194.425	0.0003480	P_RES
J3_4	200.464	0.0015793	P_RES
J3_5	206.140	0.0014732	P_COM
J3_6	214.144	0.0009951	P_RES
J3_7	219.996	0.0016027	P_RES
J3_8	225.434	0.0028830	P_RES
J3_9	231.898	0.0004227	P_RES
J3_10	238.701	0.0015445	P_RES
J3_11	246.114	0.0016320	P_RES
J3_12	252.153	0.0016156	P_RES
J3_13	259.162	0.0013419	P_RES
J3_14	264.295	0.0017235	P_RES
J3_15	269.856	0.0003473	P_RES
J3_16	277.158	0.0012039	P_RES
J3_17	283.817	0.0003489	P_RES
J3_18	290.580	0.0013778	P_RES
J3_19	295.809	0.0033489	P_COM
J3_20	301.428	0.0014293	P_COM
J3_21	308.375	0.0007125	P_RES
J3_22	314.882	0.0011291	P_RES
J3_23	321.638	0.0013500	P_RES
J3_24	327.687	0.0041994	P_IND
J3_25	333.614	0.0006310	P_RES
J3_26	341.111	0.0014925	P_RES
J3_27	347.247	0.0009710	P_RES
J3_28	353.705	0.0030848	P_COM
J3_29	358.488	0.0027632	P_RES
J3_30	365.863	0.0026969	P_COM
J3_31	372.062	0.0032224	P_COM
J3_32	376.916	0.0031874	P_IND
J3_33	382.595	0.0004582	P_RES
J3_34	389.016	0.0011389	P_RES
J3_35	395.111	0.0006381	P_RES
J3_36	402.530	0.0014961	P_RES
J3_37	408.570	0.0019483	P_IND
J3_38	413.943	0.0014345	P_RES
J3_39	420.139	0.0013649	P_RES
J3_40	427.304	0.0022486	P_COM
J3_41	431.659	0.0013813	P_RES
J3_42	438.077	0.0019329	P_RES
J3_43	445.005	0.0033208	P_RES
J3_44	450.547	0.0010537	P_RES
J3_45	456.181	0.0015819	P_RES
J3_46	462.374	0.0010169	P_RES
J3_47	468.587	0.0020378	P_COM
J3_48	474.171	0.0023563	P_RES
J3_49	480.846	0.0010881	P_RES
J3_50	486.255	0.0042413	P_COM
J3_51	493.368	0.0008609	P_RES
J3_52	498.901	0.0019396	P_RES
J3_53	504.470	0.0017607	P_RES
J3_54	510.377	0.0005837	P_RES
J3_55	516.628	0.0011634	P_RES
J3_56	523.015	0.0019304	P_RES
J3_57	528.279	0.0010779	P_RES
J3_58	535.160	0.0018679	P_RES
J3_59	539.980	0.0015131	P_RES
J3_60	546.794	0.0023156	P_COM
J3_61	553.010	0.0009390	P_RES
J3_62	557.537	0.0009098	P_COM
J3_63	563.206	0.0029992	P_RES
J3_64	568.829	0.0033462	P_IND
J4_1	179.742	0.0032576	P_IND
J4_2	186.423	0.0022239	P_COM
J4_3	193.401	0.0013392	P_RES
J4_4	198.918	0.0024249	P_RES
J4_5	205.391	0.0011592	P_RES
J4_6	210.960	0.0011652	P_RES
J4_7	217.881	0.0013385	P_RES
J4_8	224.586	0.0007840	P_RES
J4_9	231.634	0.0004433	P_RES
J4_10	237.679	0.0010693	P_COM
J4_11	245.050	0.0025217	P_IND
J4_12	250.865	0.0033042	P_COM
J4_13	257.634	0.0017604	P_COM
J4_14	261.880	0.0021953	P_COM
J4_15	269.368	0.0030359	P_IND
J4_16	276.254	0.0011929	P_RES
J4_17	281.431	0.0032498	P_COM
J4_18	289.198	0.0006403	P_RES
J4_19	294.862	0.0008789	P_RES
J4_20	299.727	0.0011395	P_RES
J4_21	307.226	0.0012169	P_RES
J4_22	314.630	0.0013980	P_RES
J4_23	319.942	0.0007455	P_RES
J4_24	327.017	0.0014035	P_RES
J4_25	331.184	0.0019201	P_COM
J4_26	338.008	0.0008298	P_RES
J4_27	343.646	0.0016107	P_RES
J4_28	351.497	0.0007641	P_RES
J4_29	358.194	0.0004244	P_RES
J4_30	363.423	0.0028144	P_COM
J4_31	369.290	0.0024862	P_RES
J4_32	375.817	0.0030241	P_IND
J4_33	381.913	0.0025386	P_COM
J4_34	388.024	0.0015097	P_RES
J4_35	394.265	0.0018392	P_IND
J4_36	401.177	0.0031212	P_IND
J4_37	407.067	0.0006652	P_RES
J4_38	412.852	0.0015630	P_RES
J4_39	417.823	0.0010971	P_RES
J4_40	424.214	0.0030432	P_RES
J4_41	431.366	0.0014216	P_RES
J4_42	436.858	0.0039137	P_RES
J4_43	442.074	0.0012349	P_RES
J4_44	448.247	0.0011050	P_RES
J4_45	454.190	0.0040594	P_COM
J4_46	461.685	0.0024217	P_IND
J4_47	466.606	0.0031922	P_COM
J4_48	474.391	0.0009176	P_RES
J4_49	479.701	0.0025967	P_IND
J4_50	484.166	0.0047233	P_IND
J4_51	492.018	0.0011789	P_COM
J4_52	496.559	0.0007059	P_RES
J4_53	503.283	0.0015317	P_RES
J4_54	508.544	0.0009275	P_RES
J4_55	514.885	0.0024506	P_RES
J4_56	520.047	0.0018986	P_COM
J4_57	527.420	0.0024467	P_RES
J4_58	533.847	0.0009303	P_RES
J4_59	539.618	0.0005123	P_RES
J4_60	544.267	0.0027441	P_COM
J4_61	549.785	0.0031653	P_RES
J4_62	557.345	0.0032868	P_RES
J4_63	561.680	0.0008525	P_RES
J4_64	567.680	0.0008140	P_RES
J5_1	178.689	0.0014622	P_RES
J5_2	185.162	0.0022245	P_RES
J5_3	190.161	0.0008101	P_RES
J5_4	196.540	0.0006814	P_RES
J5_5	202.787	0.0010597	P_RES
J5_6	209.433	0.0026361	P_COM
J5_7	216.097	0.0007835	P_RES
J5_8	223.043	0.0008457	P_RES
J5_9	229.443	0.0020487	P_COM
J5_10	236.749	0.0022374	P_IND
J5_11	243.128	0.0014254	P_RES
J5_12	248.980	0.0020262	P_COM
J5_13	255.358	0.0006309	P_RES
J5_14	262.450	0.0013190	P_RES
J5_15	267.864	0.0008976	P_RES
J5_16	272.734	0.0015823	P_RES
J5_17	280.931	0.0017881	P_RES
J5_18	286.912	0.0035978	P_IND
J5_19	293.683	0.0019371	P_RES
J5_20	298.747	0.0004456	P_RES
J5_21	306.269	0.0021789	P_IND
J5_22	312.124	0.0016380	P_RES
J5_23	317.828	0.0002903	P_RES
J5_24	323.659	0.0009818	P_RES
J5_25	329.658	0.0028529	P_IND
J5_26	338.025	0.0016704	P_RES
J5_27	342.805	0.0009511	P_RES
J5_28	349.340	0.0006976	P_RES
J5_29	355.855	0.0018521	P_IND
J5_30	362.803	0.0020354	P_RES
J5_31	367.813	0.0010533	P_RES
J5_32	375.386	0.0017445	P_COM
J5_33	379.214	0.0009398	P_RES
J5_34	385.493	0.0022663	P_IND
J5_35	393.533	0.0027326	P_RES
J5_36	397.736	0.0015388	P_RES
J5_37	405.958	0.0011798	P_RES
J5_38	412.323	0.0009064	P_RES
J5_39	416.261	0.0013443	P_RES
J5_40	422.235	0.0009713	P_RES
J5_41	428.331	0.0016883	P_RES
J5_42	435.330	0.0022232	P_RES
J5_43	440.942	0.0019140	P_RES
J5_44	448.764	0.0022246	P_COM
J5_45	454.200	0.0015191	P_COM
J5_46	460.816	0.0014719	P_RES
J5_47	465.172	0.0035307	P_COM
J5_48	472.167	0.0010616	P_RES
J5_49	476.955	0.0019899	P_RES
J5_50	482.686	0.0014078	P_RES
J5_51	490.123	0.0005085	P_RES
J5_52	494.885	0.0044987	P_IND
J5_53	502.704	0.0020945	P_RES
J5_54	507.940	0.0014337	P_COM
J5_55	513.449	0.0023880	P_RES
J5_56	519.141	0.0013151	P_RES
J5_57	524.240	0.0029284	P_RES
J5_58	531.561	0.0008101	P_RES
J5_59	536.171	0.0017184	P_COM
J5_60	543.015	0.0058420	P_IND
J5_61	549.035	0.0022518	P_COM
J5_62	555.051	0.0011926	P_RES
J5_63	561.696	0.0025265	P_IND
J5_64	565.876	0.0027462	P_RES
J6_1	177.368	0.0015919	P_COM
J6_2	183.583	0.0022427	P_RES
J6_3	189.638	0.0047385	P_IND
J6_4	196.166	0.0003773	P_RES
J6_5	201.389	0.0018526	P_RES
J6_6	207.696	0.0009831	P_RES
J6_7	214.882	0.0027146	P_RES
J6_8	220.720	0.0022528	P_IND
J6_9	228.730	0.0019578	P_RES
J6_10	233.404	0.0014676	P_RES
J6_11	239.870	0.0017841	P_RES
J6_12	246.000	0.0009298	P_RES
J6_13	253.082	0.0026803	P_COM
J6_14	260.078	0.0034484	P_IND
J6_15	265.299	0.0012733	P_RES
J6_16	273.179	0.0022653	P_RES
J6_17	277.412	0.0027832	P_COM
J6_18	284.274	0.0014055	P_RES
J6_19	291.405	0.0017216	P_RES
J6_20	297.008	0.0017738	P_RES
J6_21	303.684	0.0007931	P_RES
J6_22	311.172	0.0012383	P_RES
J6_23	315.449	0.0010803	P_RES
J6_24	323.324	0.0013694	P_RES
J6_25	328.039	0.0009208	P_RES
J6_26	335.929	0.0021639	P_COM
J6_27	341.699	0.0006391	P_RES
J6_28	348.677	0.0012285	P_RES
J6_29	353.069	0.0011707	P_RES
J6_30	360.380	0.0045782	P_IND
J6_31	367.219	0.0007515	P_RES
J6_32	372.951	0.0017852	P_RES
J6_33	379.529	0.0009178	P_RES
J6_34	385.111	0.0007974	P_RES
J6_35	391.548	0.0011864	P_RES
J6_36	397.574	0.0013231	P_RES
J6_37	402.902	0.0015190	P_RES
J6_38	409.698	0.0013359	P_RES
J6_39	415.889	0.0016721	P_RES
J6_40	421.223	0.0004711	P_RES
J6_41	427.782	0.0030277	P_COM
J6_42	432.991	0.0021624	P_RES
J6_43	440.245	0.0022598	P_RES
J6_44	446.918	0.0013876	P_RES
J6_45	452.189	0.0012774	P_RES
J6_46	459.144	0.0006796	P_RES
J6_47	463.976	0.0015780	P_COM
J6_48	471.212	0.0015562	P_RES
J6_49	475.873	0.0014813	P_COM
J6_50	481.001	0.0022007	P_RES
J6_51	487.725	0.0006991	P_RES
J6_52	494.747	0.0009981	P_RES
J6_53	499.093	0.0013206	P_RES
J6_54	505.333	0.0026036	P_COM
J6_55	512.120	0.0007226	P_RES
J6_56	518.809	0.0018854	P_COM
J6_57	522.541	0.0011765	P_COM
J6_58	529.954	0.0022855	P_COM
J6_59	536.381	0.0019035	P_RES
J6_60	540.898	0.0006770	P_RES
J6_61	547.055	0.0030695	P_RES
J6_62	553.912	0.0017613	P_RES
J6_63	558.041	0.0012857	P_RES
J6_64	564.362	0.0021532	P_COM
J7_1	175.088	0.0021227	P_COM
J7_2	181.908	0.0020596	P_RES
J7_3	188.794	0.0030106	P_COM
J7_4	193.847	0.0010372	P_RES
J7_5	199.446	0.0004446	P_RES
J7_6	207.720	0.0018573	P_RES
J7_7	214.414	0.0042022	P_COM
J7_8	220.317	0.0023992	P_COM
J7_9	225.408	0.0025368	P_RES
J7_10	231.339	0.0008869	P_RES
J7_11	238.527	0.0012250	P_RES
J7_12	246.183	0.0012007	P_RES
J7_13	251.365	0.0020108	P_COM
J7_14	256.770	0.0009835	P_RES
J7_15	264.072	0.0032199	P_RES
J7_16	270.972	0.0005894	P_RES
J7_17	275.787	0.0010092	P_RES
J7_18	284.101	0.0014041	P_RES
J7_19	289.472	0.0011409	P_COM
J7_20	295.560	0.0008386	P_RES
J7_21	301.939	0.0010294	P_RES
J7_22	307.817	0.0009154	P_RES
J7_23	314.244	0.0026543	P_RES
J7_24	321.806	0.0014712	P_RES
J7_25	326.346	0.0009745	P_RES
J7_26	332.898	0.0014381	P_RES
J7_27	339.346	0.0014690	P_RES
J7_28	346.686	0.0010123	P_RES
J7_29	353.429	0.0015557	P_RES
J7_30	358.794	0.0025453	P_RES
J7_31	365.268	0.0024621	P_COM
J7_32	370.924	0.0009238	P_RES
J7_33	376.886	0.0012666	P_RES
J7_34	383.998	0.0005619	P_RES
J7_35	389.167	0.0036632	P_COM
J7_36	395.022	0.0019434	P_RES
J7_37	400.599	0.0021744	P_COM
J7_38	408.006	0.0030276	P_COM
J7_39	413.025	0.0016153	P_IND
J7_40	420.470	0.0039926	P_RES
J7_41	426.880	0.0025452	P_RES
J7_42	432.704	0.0013308	P_RES
J7_43	437.637	0.0011097	P_RES
J7_44	443.832	0.0015486	P_RES
J7_45	449.509	0.0018021	P_RES
J7_46	456.621	0.0012523	P_RES
J7_47	462.755	0.0005751	P_RES
J7_48	469.467	0.0012741	P_RES
J7_49	474.916	0.0007219	P_RES
J7_50	480.907	0.0015179	P_RES
J7_51	486.492	0.0016928	P_RES
J7_52	492.233	0.0014835	P_RES
J7_53	498.351	0.0020439	P_RES
J7_54	504.277	0.0007075	P_RES
J7_55	510.947	0.0018285	P_RES
J7_56	515.949	0.0045538	P_IND
J7_57	522.707	0.0016523	P_RES
J7_58	527.133	0.0013878	P_RES
J7_59	534.701	0.0013578	P_RES
J7_60	539.932	0.0023932	P_COM
J7_61	544.509	0.0011401	P_RES
J7_62	552.436	0.0013392	P_COM
J7_63	556.462	0.0028968	P_COM
J7_64	562.158	0.0014937	P_COM
J8_1	173.063	0.0014962	P_COM
J8_2	180.468	0.0009246	P_RES
J8_3	185.278	0.0028697	P_RES
J8_4	192.732	0.0005584	P_RES
J8_5	198.109	0.0011648	P_COM
J8_6	206.288	0.0008413	P_RES
J8_7	211.814	0.0005310	P_RES
J8_8	218.328	0.0024915	P_IND
J8_9	224.959	0.0023091	P_RES
J8_10	229.706	0.0023918	P_RES
J8_11	237.670	0.0017425	P_RES
J8_12	242.916	0.0011454	P_RES
J8_13	250.378	0.0020511	P_RES
J8_14	256.974	0.0006372	P_RES
J8_15	262.125	0.0012502	P_COM
J8_16	269.370	0.0012639	P_RES
J8_17	275.650	0.0024948	P_RES
J8_18	281.507	0.0038297	P_IND
J8_19	288.801	0.0013940	P_RES
J8_20	294.520	0.0020011	P_COM
J8_21	300.983	0.0005591	P_RES
J8_22	305.765	0.0019380	P_IND
J8_23	312.502	0.0025384	P_COM
J8_24	320.386	0.0043867	P_IND
J8_25	326.676	0.0011495	P_RES
J8_26	331.332	0.0020594	P_RES
J8_27	339.008	0.0026827	P_IND
J8_28	344.504	0.0048095	P_COM
J8_29	349.675	0.0019957	P_RES
J8_30	356.320	0.0032250	P_COM
J8_31	362.735	0.0009121	P_RES
J8_32	370.143	0.0006689	P_RES
J8_33	375.068	0.0017167	P_RES
J8_34	382.646	0.0015139	P_COM
J8_35	388.099	0.0012705	P_RES
J8_36	394.374	0.0017873	P_RES
J8_37	400.460	0.0046935	P_COM
J8_38	405.956	0.0029587	P_COM
J8_39	412.069	0.0023053	P_COM
J8_40	418.604	0.0023816	P_RES
J8_41	424.765	0.0013273	P_RES
J8_42	431.522	0.0019910	P_COM
J8_43	436.947	0.0019550	P_RES
J8_44	443.533	0.0012419	P_RES
J8_45	449.133	0.0021552	P_RES
J8_46	453.875	0.0019076	P_RES
J8_47	461.841	0.0028404	P_IND
J8_48	465.626	0.0017340	P_RES
J8_49	472.250	0.0011030	P_RES
J8_50	477.501	0.0036318	P_COM
J8_51	485.527	0.0032151	P_IND
J8_52	490.468	0.0010926	P_COM
J8_53	497.270	0.0031602	P_IND
J8_54	503.649	0.0012760	P_RES
J8_55	508.049	0.0012533	P_RES
J8_56	515.049	0.0034028	P_IND
J8_57	519.614	0.0012117	P_RES
J8_58	525.541	0.0007649	P_RES
J8_59	530.891	0.0010434	P_COM
J8_60	537.236	0.0022265	P_RES
J8_61	543.405	0.0008410	P_RES
J8_62	549.186	0.0008073	P_RES
J8_63	556.099	0.0027353	P_COM
J8_64	562.010	0.0009491	P_RES
J9_1	171.262	0.0005846	P_RES
J9_2	178.222	0.0038582	P_RES
J9_3	184.818	0.0020929	P_RES
J9_4	190.486	0.0041267	P_IND
J9_5	196.638	0.0017252	P_RES
J9_6	202.854	0.0013614	P_RES
J9_7	209.637	0.0011384	P_RES
J9_8	216.827	0.0016315	P_RES
J9_9	223.322	0.0010155	P_RES
J9_10	228.257	0.0008114	P_RES
J9_11	234.582	0.0019718	P_RES
J9_12	242.264	0.0037363	P_IND
J9_13	248.793	0.0037867	P_COM
J9_14	253.981	0.0017410	P_COM
J9_15	259.826	0.0014316	P_COM
J9_16	268.178	0.0026489	P_RES
J9_17	273.934	0.0014617	P_RES
J9_18	280.800	0.0014631	P_RES
J9_19	286.231	0.0014523	P_RES
J9_20	292.652	0.0007505	P_RES
J9_21	298.203	0.0016669	P_RES
J9_22	306.046	0.0017608	P_RES
J9_23	311.229	0.0035703	P_RES
J9_24	317.653	0.0019562	P_RES
J9_25	323.515	0.0008237	P_RES
J9_26	329.849	0.0006307	P_RES
J9_27	336.243	0.0030961	P_IND
J9_28	343.459	0.0013506	P_RES
J9_29	348.671	0.0020115	P_RES
J9_30	354.014	0.0004950	P_RES
J9_31	361.663	0.0010906	P_RES
J9_32	368.177	0.0010215	P_RES
J9_33	373.148	0.0004732	P_RES
J9_34	380.745	0.0023954	P_RES
J9_35	386.630	0.0013065	P_RES
J9_36	392.308	0.0015020	P_RES
J9_37	398.123	0.0023789	P_RES
J9_38	403.996	0.0018198	P_RES
J9_39	410.889	0.0022705	P_RES
J9_40	416.744	0.0006600	P_RES
J9_41	423.528	0.0011151	P_COM
J9_42	429.069	0.0013409	P_RES
J9_43	433.954	0.0019280	P_RES
J9_44	439.756	0.0028945	P_IND
J9_45	446.242	0.0009860	P_RES
J9_46	452.274	0.0037582	P_IND
J9_47	458.948	0.0042995	P_COM
J9_48	464.890	0.0010344	P_RES
J9_49	471.063	0.0013395	P_RES
J9_50	476.012	0.0012133	P_RES
J9_51	482.639	0.0017129	P_RES
J9_52	488.451	0.0018756	P_RES
J9_53	493.876	0.0015007	P_COM
J9_54	500.559	0.0012955	P_RES
J9_55	506.594	0.0019451	P_RES
J9_56	512.516	0.0021917	P_RES
J9_57	517.668	0.0021104	P_RES
J9_58	523.899	0.0019576	P_COM
J9_59	530.982	0.0014115	P_RES
J9_60	535.493	0.0005863	P_RES
J9_61	541.678	0.0013999	P_RES
J9_62	548.745	0.0017150	P_RES
J9_63	552.971	0.0019402	P_COM
J9_64	558.928	0.0014104	P_RES
J10_1	168.814	0.0005681	P_RES
J10_2	175.888	0.0009151	P_RES
J10_3	182.938	0.0023396	P_COM
J10_4	189.023	0.0016396	P_RES
J10_5	195.789	0.0021236	P_RES
J10_6	202.663	0.0005565	P_RES
J10_7	207.590	0.0010969	P_RES
J10_8	214.541	0.0008414	P_RES
J10_9	221.950	0.0010750	P_RES
J10_10	227.130	0.0024054	P_RES
J10_11	233.056	0.0017012	P_RES
J10_12	239.915	0.0008176	P_RES
J10_13	245.753	0.0019391	P_COM
J10_14	252.877	0.0019420	P_RES
J10_15	258.424	0.0031542	P_RES
J10_16	265.896	0.0014183	P_RES
J10_17	272.706	0.0015794	P_RES
J10_18	276.956	0.0013451	P_COM
J10_19	285.120	0.0012859	P_RES
J10_20	291.222	0.0024183	P_RES
J10_21	296.257	0.0020433	P_RES
J10_22	302.421	0.0015591	P_RES
J10_23	308.877	0.0020011	P_RES
J10_24	316.871	0.0044181	P_COM
J10_25	321.967	0.0008603	P_COM
J10_26	328.509	0.0013435	P_COM
J10_27	334.903	0.0048924	P_IND
J10_28	341.473	0.0006624	P_RES
J10_29	345.959	0.0017995	P_RES
J10_30	353.830	0.0012057	P_RES
J10_31	358.914	0.0039719	P_COM
J10_32	365.663	0.0024118	P_COM
J10_33	372.671	0.0027467	P_RES
J10_34	378.642	0.0014941	P_RES
J10_35	383.645	0.0048037	P_IND
J10_36	391.002	0.0021511	P_COM
J10_37	397.346	0.0013804	P_RES
J10_38	403.743	0.0016884	P_COM
J10_39	408.328	0.0010086	P_RES
J10_40	414.748	0.0013006	P_COM
J10_41	419.941	0.0022013	P_COM
J10_42	427.385	0.0033561	P_IND
J10_43	434.033	0.0019426	P_RES
J10_44	438.749	0.0008913	P_RES
J10_45	444.385	0.0011087	P_COM
J10_46	451.087	0.0007756	P_RES
J10_47	457.209	0.0012692	P_RES
J10_48	464.151	0.0024423	P_COM
J10_49	468.544	0.0006494	P_RES
J10_50	475.183	0.0016876	P_RES
J10_51	480.951	0.0015566	P_RES
J10_52	487.017	0.0026915	P_IND
J10_53	492.549	0.0023109	P_COM
J10_54	499.394	0.0033719	P_IND
J10_55	504.554	0.0018530	P_COM
J10_56	511.398	0.0010614	P_RES
J10_57	516.728	0.0019481	P_RES
J10_58	522.805	0.0006019	P_RES
J10_59	529.805	0.0004706	P_RES
J10_60	535.122	0.0024596	P_RES
J10_61	540.110	0.0006989	P_RES
J10_62	545.395	0.0039657	P_IND
J10_63	553.077	0.0008291	P_RES
J10_64	557.931	0.0007429	P_RES
J11_1	168.214	0.0012146	P_RES
J11_2	175.332	0.0011729	P_RES
J11_3	180.358	0.0025903	P_COM
J11_4	186.924	0.0020085	P_RES
J11_5	194.000	0.0013982	P_COM
J11_6	199.878	0.0071939	P_IND
J11_7	205.562	0.0014155	P_RES
J11_8	213.949	0.0011971	P_RES
J11_9	218.292	0.0005521	P_RES
J11_10	225.426	0.0019495	P_COM
J11_11	231.525	0.0011972	P_RES
J11_12	237.399	0.0019490	P_RES
J11_13	244.539	0.0019601	P_RES
J11_14	250.349	0.0004624	P_RES
J11_15	256.468	0.0012366	P_RES
J11_16	264.108	0.0016287	P_RES
J11_17	270.269	0.0034047	P_IND
J11_18	276.675	0.0026125	P_RES
J11_19	282.670	0.0009008	P_RES
J11_20	289.852	0.0030948	P_COM
J11_21	296.345	0.0027884	P_COM
J11_22	301.248	0.0013299	P_RES
J11_23	306.727	0.0018531	P_COM
J11_24	313.047	0.0010621	P_RES
J11_25	321.633	0.0013262	P_RES
J11_26	326.418	0.0020390	P_COM
J11_27	333.860	0.0009020	P_RES
J11_28	340.209	0.0022650	P_COM
J11_29	344.419	0.0006293	P_RES
J11_30	352.751	0.0014105	P_RES
J11_31	358.583	0.0012803	P_RES
J11_32	364.682	0.0008634	P_RES
J11_33	369.665	0.0025871	P_IND
J11_34	375.632	0.0032038	P_COM
J11_35	381.430	0.0038646	P_IND
J11_36	389.852	0.0017361	P_COM
J11_37	395.270	0.0024599	P_COM
J11_38	402.124	0.0035799	P_IND
J11_39	406.312	0.0041356	P_COM
J11_40	414.345	0.0016768	P_COM
J11_41	420.376	0.0019465	P_RES
J11_42	424.739	0.0015505	P_RES
J11_43	431.761	0.0006888	P_RES
J11_44	438.411	0.0022832	P_COM
J11_45	444.587	0.0016697	P_COM
J11_46	449.288	0.0012489	P_RES
J11_47	456.277	0.0013755	P_RES
J11_48	460.690	0.0015519	P_COM
J11_49	467.215	0.0015103	P_RES
J11_50	474.217	0.0017273	P_RES
J11_51	479.097	0.0023555	P_COM
J11_52	485.382	0.0011567	P_RES
J11_53	491.141	0.0014273	P_COM
J11_54	497.276	0.0021238	P_COM
J11_55	502.599	0.0016943	P_RES
J11_56	509.150	0.0028657	P_COM
J11_57	515.367	0.0058090	P_IND
J11_58	520.373	0.0022550	P_COM
J11_59	525.840	0.0017900	P_RES
J11_60	532.557	0.0012892	P_RES
J11_61	538.645	0.0014295	P_IND
J11_62	543.984	0.0017540	P_RES
J11_63	550.214	0.0019607	P_COM
J11_64	555.064	0.0013984	P_RES
J12_1	166.710	0.0019471	P_RES
J12_2	171.832	0.0028085	P_COM
J12_3	178.961	0.0027763	P_COM
J12_4	185.425	0.0016850	P_RES
J12_5	192.824	0.0009287	P_RES
J12_6	197.707	0.0011893	P_RES
J12_7	203.791	0.0010526	P_RES
J12_8	210.591	0.0011949	P_RES
J12_9	218.276	0.0011905	P_RES
J12_10	223.906	0.0006382	P_RES
J12_11	229.528	0.0021401	P_COM
J12_12	235.529	0.0011405	P_RES
J12_13	243.889	0.0009849	P_RES
J12_14	249.598	0.0015550	P_RES
J12_15	256.901	0.0025795	P_COM
J12_16	261.031	0.0007995	P_RES
J12_17	269.371	0.0025362	P_IND
J12_18	275.418	0.0006027	P_RES
J12_19	281.724	0.0034660	P_RES
J12_20	286.519	0.0013845	P_RES
J12_21	292.625	0.0009422	P_RES
J12_22	299.189	0.0011204	P_RES
J12_23	307.043	0.0019380	P_IND
J12_24	312.938	0.0018234	P_COM
J12_25	319.030	0.0017976	P_RES
J12_26	326.148	0.0016067	P_RES
J12_27	331.371	0.0019151	P_IND
J12_28	336.605	0.0017154	P_RES
J12_29	344.261	0.0011885	P_RES
J12_30	350.699	0.0008656	P_RES
J12_31	356.480	0.0020134	P_RES
J12_32	362.346	0.0009041	P_RES
J12_33	369.152	0.0027529	P_COM
J12_34	374.907	0.0034919	P_COM
J12_35	379.644	0.0027339	P_COM
J12_36	386.611	0.0026556	P_IND
J12_37	393.537	0.0028590	P_RES
J12_38	398.175	0.0049471	P_IND
J12_39	405.912	0.0007245	P_RES
J12_40	411.636	0.0012271	P_RES
J12_41	416.952	0.0032272	P_COM
J12_42	424.088	0.0032623	P_IND
J12_43	429.418	0.0024415	P_COM
J12_44	436.504	0.0013729	P_COM
J12_45	441.040	0.0010579	P_RES
J12_46	448.689	0.0006731	P_RES
J12_47	453.898	0.0014185	P_RES
J12_48	458.873	0.0014342	P_RES
J12_49	465.543	0.0039713	P_COM
J12_50	471.714	0.0017361	P_RES
J12_51	477.193	0.0007974	P_RES
J12_52	483.750	0.0007663	P_RES
J12_53	489.099	0.0020583	P_RES
J12_54	496.799	0.0008577	P_RES
J12_55	500.414	0.0006741	P_RES
J12_56	506.708	0.0011143	P_RES
J12_57	514.131	0.0011865	P_RES
J12_58	519.185	0.0007366	P_RES
J12_59	524.637	0.0012700	P_RES
J12_60	529.895	0.0020085	P_COM
J12_61	537.643	0.0012413	P_RES
J12_62	542.214	0.0005458	P_RES
J12_63	548.533	0.0009702	P_RES
J12_64	554.840	0.0025107	P_COM
J13_1	164.902	0.0027562	P_COM
J13_2	171.768	0.0011728	P_RES
J13_3	176.401	0.0010877	P_RES
J13_4	184.332	0.0023492	P_RES
J13_5	189.279	0.0016560	P_RES
J13_6	196.958	0.0028168	P_RES
J13_7	204.072	0.0015641	P_RES
J13_8	210.384	0.0010003	P_COM
J13_9	215.872	0.0012989	P_RES
J13_10	222.311	0.0009817	P_RES
J13_11	228.708	0.0017717	P_RES
J13_12	235.363	0.0009325	P_RES
J13_13	240.498	0.0016096	P_RES
J13_14	248.164	0.0016138	P_COM
J13_15	252.851	0.0009060	P_RES
J13_16	261.087	0.0028998	P_IND
J13_17	265.536	0.0012142	P_RES
J13_18	272.044	0.0019012	P_COM
J13_19	279.040	0.0025891	P_COM
J13_20	284.576	0.0012627	P_COM
J13_21	291.239	0.0025582	P_RES
J13_22	299.084	0.0012275	P_RES
J13_23	303.501	0.0027392	P_COM
J13_24	310.639	0.0015561	P_RES
J13_25	316.914	0.0033062	P_COM
J13_26	323.192	0.0010582	P_RES
J13_27	328.490	0.0018702	P_RES
J13_28	336.789	0.0016044	P_RES
J13_29	341.898	0.0010876	P_RES
J13_30	347.620	0.0007721	P_RES
J13_31	353.737	0.0012838	P_RES
J13_32	359.820	0.0014917	P_RES
J13_33	366.682	0.0012982	P_RES
J13_34	372.907	0.0035388	P_IND
J13_35	379.477	0.0018275	P_RES
J13_36	384.859	0.0025153	P_COM
J13_37	390.912	0.0008074	P_RES
J13_38	397.192	0.0008609	P_RES
J13_39	404.109	0.0021989	P_RES
J13_40	408.686	0.0020025	P_RES
J13_41	414.639	0.0029373	P_COM
J13_42	422.261	0.0013067	P_IND
J13_43	428.312	0.0016179	P_RES
J13_44	434.569	0.0030721	P_COM
J13_45	440.203	0.0010969	P_RES
J13_46	446.611	0.0014949	P_RES
J13_47	451.636	0.0015612	P_COM
J13_48	458.427	0.0012040	P_RES
J13_49	464.850	0.0009640	P_RES
J13_50	470.598	0.0015043	P_RES
J13_51	476.577	0.0010234	P_RES
J13_52	481.497	0.0009171	P_RES
J13_53	487.959	0.0012993	P_RES
J13_54	494.361	0.0017566	P_RES
J13_55	500.586	0.0014903	P_RES
J13_56	506.854	0.0011775	P_RES
J13_57	511.992	0.0026530	P_COM
J13_58	518.693	0.0015493	P_RES
J13_59	523.393	0.0013541	P_RES
J13_60	528.555	0.0020975	P_RES
J13_61	534.568	0.0022981	P_COM
J13_62	540.890	0.0028223	P_RES
J13_63	547.966	0.0010703	P_RES
J13_64	551.736	0.0033605	P_RES
J14_1	163.407	0.0015903	P_COM
J14_2	169.557	0.0029906	P_IND
J14_3	175.140	0.0014280	P_RES
J14_4	182.589	0.0012580	P_RES
J14_5	189.514	0.0020968	P_COM
J14_6	194.511	0.0008033	P_RES
J14_7	202.296	0.0019109	P_RES
J14_8	208.003	0.0032136	P_COM
J14_9	214.245	0.0013083	P_COM
J14_10	219.312	0.0011071	P_RES
J14_11	227.665	0.0026647	P_COM
J14_12	233.433	0.0033050	P_RES
J14_13	239.751	0.0016373	P_RES
J14_14	245.440	0.0019017	P_COM
J14_15	251.541	0.0023211	P_COM
J14_16	259.192	0.0025877	P_RES
J14_17	264.800	0.0012643	P_RES
J14_18	270.075	0.0014454	P_RES
J14_19	277.462	0.0008323	P_COM
J14_20	284.169	0.0012941	P_RES
J14_21	290.872	0.0017303	P_COM
J14_22	295.969	0.0015087	P_RES
J14_23	303.162	0.0010024	P_RES
J14_24	308.924	0.0023008	P_RES
J14_25	314.175	0.0014897	P_RES
J14_26	321.574	0.0038674	P_COM
J14_27	328.406	0.0021448	P_RES
J14_28	332.853	0.0007091	P_RES
J14_29	340.995	0.0004732	P_RES
J14_30	347.027	0.0016399	P_RES
J14_31	352.162	0.0004941	P_RES
J14_32	359.740	0.0008578	P_RES
J14_33	366.159	0.0014125	P_RES
J14_34	371.042	0.0032799	P_IND
J14_35	378.188	0.0017666	P_RES
J14_36	383.267	0.0007022	P_RES
J14_37	389.697	0.0010108	P_RES
J14_38	395.125	0.0013545	P_RES
J14_39	401.443	0.0011571	P_RES
J14_40	407.284	0.0006666	P_RES
J14_41	413.451	0.0015723	P_RES
J14_42	421.056	0.0013237	P_RES
J14_43	425.608	0.0026929	P_RES
J14_44	432.537	0.0005357	P_RES
J14_45	437.774	0.0021263	P_RES
J14_46	443.970	0.0008849	P_RES
J14_47	450.271	0.0031178	P_RES
J14_48	456.022	0.0010319	P_RES
J14_49	462.353	0.0017400	P_RES
J14_50	469.328	0.0017283	P_RES
J14_51	475.351	0.0009467	P_RES
J14_52	480.252	0.0013915	P_RES
J14_53	485.014	0.0015685	P_RES
J14_54	493.154	0.0005254	P_RES
J14_55	497.184	0.0009585	P_RES
J14_56	503.132	0.0017244	P_RES
J14_57	510.352	0.0020713	P_COM
J14_58	514.657	0.0021481	P_RES
J14_59	521.017	0.0028132	P_COM
J14_60	526.466	0.0009050	P_RES
J14_61	534.620	0.0013523	P_IND
J14_62	538.474	0.0006244	P_RES
J14_63	544.246	0.0020689	P_RES
J14_64	551.562	0.0010314	P_RES
J15_1	160.720	0.0004634	P_RES
J15_2	166.525	0.0009893	P_RES
J15_3	174.362	0.0024786	P_COM
J15_4	180.390	0.0012940	P_RES
J15_5	186.699	0.0011108	P_RES
J15_6	192.361	0.0020471	P_RES
J15_7	198.676	0.0031756	P_COM
J15_8	206.122	0.0009386	P_RES
J15_9	211.940	0.0043837	P_RES
J15_10	219.818	0.0049054	P_IND
J15_11	223.927	0.0027983	P_RES
J15_12	231.049	0.0015561	P_RES
J15_13	236.675	0.0010088	P_RES
J15_14	244.095	0.0018979	P_IND
J15_15	249.751	0.0022268	P_RES
J15_16	256.917	0.0023579	P_RES
J15_17	262.872	0.0015345	P_COM
J15_18	269.195	0.0066435	P_IND
J15_19	276.910	0.0005578	P_RES
J15_20	281.753	0.0008732	P_RES
J15_21	287.213	0.0016772	P_COM
J15_22	295.506	0.0008350	P_RES
J15_23	300.661	0.0011209	P_RES
J15_24	306.248	0.0030523	P_COM
J15_25	313.261	0.0009061	P_RES
J15_26	320.936	0.0015564	P_RES
J15_27	327.029	0.0016743	P_COM
J15_28	332.077	0.0040481	P_COM
J15_29	338.048	0.0018636	P_COM
J15_30	344.723	0.0008950	P_RES
J15_31	351.614	0.0032188	P_COM
J15_32	356.638	0.0031928	P_COM
J15_33	362.261	0.0009767	P_RES
J15_34	369.893	0.0009694	P_RES
J15_35	375.166	0.0046010	P_COM
J15_36	381.275	0.0015117	P_RES
J15_37	386.688	0.0011391	P_RES
J15_38	394.956	0.0016074	P_COM
J15_39	400.400	0.0012782	P_RES
J15_40	405.678	0.0016945	P_COM
J15_41	413.111	0.0018775	P_RES
J15_42	419.503	0.0008938	P_RES
J15_43	423.514	0.0016605	P_RES
J15_44	429.463	0.0018878	P_IND
J15_45	437.598	0.0022384	P_COM
J15_46	442.898	0.0028018	P_COM
J15_47	447.416	0.0030580	P_RES
J15_48	455.005	0.0018212	P_RES
J15_49	459.603	0.0010043	P_COM
J15_50	467.523	0.0031853	P_RES
J15_51	472.320	0.0006597	P_RES
J15_52	477.946	0.0021489	P_RES
J15_53	484.437	0.0016325	P_COM
J15_54	489.245	0.0008790	P_RES
J15_55	496.880	0.0015363	P_RES
J15_56	501.467	0.0012847	P_RES
J15_57	508.609	0.0024604	P_RES
J15_58	515.076	0.0016497	P_RES
J15_59	518.867	0.0028484	P_COM
J15_60	525.465	0.0010483	P_RES
J15_61	532.418	0.0023773	P_IND
J15_62	537.221	0.0013859	P_RES
J15_63	544.387	0.0023526	P_RES
J15_64	550.312	0.0023012	P_RES
J16_1	159.408	0.0039429	P_IND
J16_2	165.728	0.0031188	P_COM
J16_3	171.913	0.0010024	P_RES
J16_4	178.481	0.0031074	P_IND
J16_5	184.643	0.0020921	P_COM
J16_6	192.195	0.0016259	P_RES
J16_7	198.144	0.0022261	P_IND
J16_8	204.149	0.0011027	P_RES
J16_9	211.274	0.0012880	P_COM
J16_10	217.675	0.0016521	P_RES
J16_11	224.414	0.0025500	P_RES
J16_12	229.118	0.0016933	P_COM
J16_13	236.107	0.0017321	P_RES
J16_14	241.550	0.0015883	P_IND
J16_15	249.284	0.0030416	P_IND
J16_16	256.104	0.0003562	P_RES
J16_17	262.475	0.0051938	P_COM
J16_18	268.532	0.0008414	P_RES
J16_19	274.136	0.0025789	P_RES
J16_20	280.741	0.0013905	P_RES
J16_21	285.816	0.0024015	P_RES
J16_22	292.297	0.0024277	P_RES
J16_23	299.657	0.0021775	P_RES
J16_24	306.615	0.0009144	P_RES
J16_25	311.209	0.0030792	P_IND
J16_26	318.815	0.0016112	P_RES
J16_27	323.797	0.0015626	P_COM
J16_28	331.275	0.0013109	P_RES
J16_29	335.793	0.0027635	P_RES
J16_30	342.469	0.0024054	P_IND
J16_31	348.229	0.0013951	P_RES
J16_32	354.832	0.0008983	P_RES
J16_33	362.538	0.0030458	P_IND
J16_34	366.755	0.0011781	P_RES
J16_35	373.819	0.0012686	P_RES
J16_36	380.646	0.0014847	P_COM
J16_37	386.377	0.0009714	P_RES
J16_38	392.619	0.0028406	P_COM
J16_39	398.125	0.0024944	P_RES
J16_40	403.754	0.0004068	P_RES
J16_41	411.005	0.0015212	P_COM
J16_42	416.027	0.0010071	P_RES
J16_43	423.674	0.0043419	P_IND
J16_44	428.498	0.0040703	P_COM
J16_45	435.951	0.0009892	P_RES
J16_46	439.919	0.0013288	P_RES
J16_47	446.557	0.0027328	P_IND
J16_48	452.544	0.0003876	P_RES
J16_49	458.233	0.0031943	P_RES
J16_50	465.081	0.0015835	P_RES
J16_51	470.212	0.0032925	P_IND
J16_52	475.773	0.0013585	P_RES
J16_53	482.558	0.0017400	P_RES
J16_54	487.899	0.0034890	P_IND
J16_55	494.088	0.0010340	P_RES
J16_56	499.388	0.0007326	P_RES
J16_57	506.080	0.0012492	P_COM
J16_58	512.037	0.0010714	P_COM
J16_59	519.158	0.0013691	P_RES
J16_60	524.223	0.0008308	P_RES
J16_61	530.034	0.0026792	P_IND
J16_62	534.609	0.0020684	P_RES
J16_63	541.366	0.0028882	P_COM
J16_64	547.369	0.0012435	P_COM
J17_1	156.601	0.0014501	P_RES
J17_2	163.119	0.0010280	P_RES
J17_3	170.033	0.0011657	P_RES
J17_4	176.852	0.0010849	P_RES
J17_5	184.151	0.0018537	P_IND
J17_6	190.055	0.0012185	P_RES
J17_7	196.934	0.0011592	P_RES
J17_8	202.558	0.0016673	P_COM
J17_9	208.382	0.0014259	P_RES
J17_10	214.430	0.0011633	P_RES
J17_11	220.833	0.0034469	P_IND
J17_12	227.374	0.0015918	P_COM
J17_13	235.343	0.0017827	P_RES
J17_14	241.625	0.0017296	P_COM
J17_15	247.746	0.0009243	P_RES
J17_16	252.182	0.0005716	P_RES
J17_17	259.196	0.0013118	P_RES
J17_18	266.208	0.0012902	P_RES
J17_19	271.696	0.0021313	P_IND
J17_20	277.604	0.0017388	P_COM
J17_21	284.228	0.0006232	P_RES
J17_22	290.855	0.0008673	P_RES
J17_23	296.660	0.0015480	P_COM
J17_24	303.565	0.0023325	P_RES
J17_25	308.935	0.0009354	P_RES
J17_26	317.189	0.0012851	P_RES
J17_27	322.444	0.0026036	P_RES
J17_28	327.871	0.0006048	P_RES
J17_29	334.349	0.0007369	P_RES
J17_30	341.865	0.0018884	P_COM
J17_31	346.198	0.0038524	P_IND
J17_32	354.460	0.0014091	P_RES
J17_33	359.606	0.0012587	P_COM
J17_34	364.712	0.0014174	P_RES
J17_35	372.814	0.0019166	P_RES
J17_36	379.202	0.0010706	P_RES
J17_37	385.233	0.0006352	P_RES
J17_38	389.763	0.0018471	P_RES
J17_39	397.133	0.0013571	P_RES
J17_40	401.649	0.0012765	P_RES
J17_41	408.214	0.0027034	P_COM
J17_42	414.426	0.0012754	P_RES
J17_43	420.323	0.0025702	P_COM
J17_44	427.396	0.0015555	P_RES
J17_45	433.854	0.0010576	P_RES
J17_46	438.386	0.0024618	P_COM
J17_47	443.875	0.0032345	P_RES
J17_48	450.749	0.0015678	P_RES
J17_49	457.459	0.0012461	P_COM
J17_50	462.300	0.0016185	P_COM
J17_51	468.692	0.0019619	P_COM
J17_52	474.540	0.0028232	P_IND
J17_53	481.194	0.0017370	P_RES
J17_54	485.927	0.0025266	P_RES
J17_55	493.285	0.0021134	P_RES
J17_56	497.711	0.0009331	P_RES
J17_57	505.626	0.0010524	P_RES
J17_58	509.504	0.0008076	P_RES
J17_59	515.243	0.0010630	P_RES
J17_60	521.654	0.0012739	P_RES
J17_61	528.167	0.0009517	P_COM
J17_62	534.002	0.0010552	P_RES
J17_63	540.326	0.0018383	P_RES
J17_64	546.502	0.0008077	P_RES
J18_1	156.989	0.0009698	P_RES
J18_2	161.896	0.0011608	P_RES
J18_3	168.447	0.0030005	P_COM
J18_4	175.085	0.0008845	P_RES
J18_5	181.924	0.0014967	P_IND
J18_6	188.534	0.0008471	P_RES
J18_7	193.428	0.0039875	P_IND
J18_8	200.819	0.0011357	P_RES
J18_9	206.921	0.0009837	P_RES
J18_10	213.341	0.0038395	P_COM
J18_11	219.712	0.0015472	P_RES
J18_12	227.279	0.0010444	P_RES
J18_13	233.444	0.0010043	P_RES
J18_14	238.298	0.0010536	P_RES
J18_15	245.467	0.0024166	P_RES
J18_16	251.074	0.0012963	P_COM
J18_17	258.857	0.0021165	P_IND
J18_18	264.753	0.0026785	P_COM
J18_19	270.384	0.0015771	P_RES
J18_20	276.986	0.0009918	P_COM
J18_21	283.084	0.0009582	P_RES
J18_22	290.489	0.0017588	P_RES
J18_23	294.542	0.0008557	P_RES
J18_24	301.211	0.0015797	P_RES
J18_25	308.982	0.0008075	P_COM
J18_26	315.542	0.0011122	P_RES
J18_27	319.591	0.0006867	P_RES
J18_28	327.097	0.0024983	P_IND
J18_29	334.151	0.0015546	P_COM
J18_30	338.553	0.0022735	P_RES
J18_31	344.429	0.0014435	P_RES
J18_32	352.355	0.0026433	P_IND
J18_33	357.712	0.0012729	P_RES
J18_34	363.929	0.0015771	P_RES
J18_35	371.431	0.0026253	P_COM
J18_36	376.391	0.0024299	P_COM
J18_37	383.655	0.0011706	P_RES
J18_38	388.637	0.0025914	P_IND
J18_39	395.354	0.0011622	P_RES
J18_40	401.672	0.0014089	P_RES
J18_41	406.804	0.0009503	P_RES
J18_42	413.516	0.0027744	P_RES
J18_43	419.347	0.0006210	P_RES
J18_44	424.539	0.0012685	P_RES
J18_45	432.231	0.0013000	P_RES
J18_46	436.290	0.0011263	P_RES
J18_47	442.869	0.0017572	P_RES
J18_48	449.931	0.0008717	P_RES
J18_49	455.736	0.0024852	P_COM
J18_50	460.902	0.0006575	P_RES
J18_51	466.847	0.0013984	P_RES
J18_52	473.255	0.0012252	P_COM
J18_53	478.973	0.0024695	P_COM
J18_54	484.086	0.0034740	P_COM
J18_55	490.908	0.0015452	P_RES
J18_56	496.003	0.0018592	P_RES
J18_57	502.727	0.0026854	P_RES
J18_58	507.714	0.0011846	P_COM
J18_59	515.166	0.0015568	P_COM
J18_60	521.566	0.0008293	P_RES
J18_61	525.763	0.0020250	P_RES
J18_62	531.750	0.0017013	P_RES
J18_63	538.547	0.0016701	P_RES
J18_64	544.918	0.0019888	P_RES
J19_1	154.240	0.0010137	P_COM
J19_2	159.810	0.0013264	P_RES
J19_3	166.077	0.0009270	P_RES
J19_4	173.859	0.0012003	P_RES
J19_5	180.638	0.0008044	P_RES
J19_6	186.309	0.0032589	P_COM
J19_7	191.726	0.0011914	P_COM
J19_8	197.790	0.0031316	P_RES
J19_9	206.166	0.0016914	P_RES
J19_10	212.428	0.0019840	P_RES
J19_11	216.819	0.0008858	P_RES
J19_12	223.188	0.0011373	P_RES
J19_13	229.862	0.0040835	P_RES
J19_14	235.860	0.0013509	P_RES
J19_15	242.371	0.0024924	P_RES
J19_16	249.471	0.0043616	P_IND
J19_17	256.365	0.0054946	P_RES
J19_18	261.608	0.0004090	P_RES
J19_19	268.006	0.0017773	P_COM
J19_20	275.162	0.0017329	P_RES
J19_21	282.459	0.0017932	P_RES
J19_22	286.566	0.0026092	P_RES
J19_23	293.170	0.0025815	P_RES
J19_24	298.979	0.0018145	P_RES
J19_25	305.559	0.0022821	P_RES
J19_26	312.634	0.0019957	P_RES
J19_27	317.795	0.0036732	P_COM
J19_28	324.235	0.0006340	P_RES
J19_29	330.748	0.0023597	P_COM
J19_30	338.526	0.0006430	P_RES
J19_31	343.687	0.0012057	P_RES
J19_32	350.571	0.0041105	P_COM
J19_33	356.020	0.0050033	P_IND
J19_34	361.778	0.0010908	P_RES
J19_35	368.418	0.0014273	P_RES
J19_36	373.999	0.0026131	P_COM
J19_37	381.808	0.0044607	P_COM
J19_38	385.820	0.0018974	P_RES
J19_39	393.255	0.0008726	P_RES
J19_40	398.914	0.0019838	P_RES
J19_41	404.246	0.0035926	P_IND
J19_42	411.052	0.0005873	P_RES
J19_43	418.091	0.0028134	P_COM
J19_44	422.918	0.0006933	P_RES
J19_45	428.695	0.0018117	P_RES
J19_46	435.381	0.0027307	P_IND
J19_47	440.344	0.0023359	P_RES
J19_48	447.378	0.0020171	P_COM
J19_49	454.032	0.0011321	P_RES
J19_50	460.223	0.0016525	P_RES
J19_51	464.324	0.0012321	P_RES
J19_52	470.665	0.0014565	P_RES
J19_53	478.154	0.0006218	P_RES
J19_54	482.282	0.0009305	P_RES
J19_55	490.317	0.0008863	P_RES
J19_56	493.987	0.0024354	P_COM
J19_57	501.725	0.0009851	P_RES
J19_58	507.581	0.0011714	P_RES
J19_59	513.668	0.0044672	P_COM
J19_60	518.031	0.0009620	P_RES
J19_61	525.406	0.0025325	P_IND
J19_62	531.351	0.0015113	P_RES
J19_63	536.817	0.0007187	P_RES
J19_64	543.015	0.0015636	P_RES
J20_1	151.851	0.0009877	P_RES
J20_2	157.880	0.0036522	P_IND
J20_3	165.340	0.0010615	P_RES
J20_4	172.585	0.0018218	P_RES
J20_5	177.984	0.0017169	P_COM
J20_6	184.554	0.0013304	P_COM
J20_7	190.788	0.0020903	P_COM
J20_8	197.869	0.0019123	P_RES
J20_9	203.580	0.0019400	P_RES
J20_10	209.180	0.0049134	P_COM
J20_11	215.335	0.0009817	P_RES
J20_12	222.677	0.0005489	P_RES
J20_13	229.836	0.0013352	P_RES
J20_14	234.374	0.0011654	P_RES
J20_15	240.427	0.0017000	P_COM
J20_16	247.847	0.0028501	P_COM
J20_17	254.571	0.0014268	P_RES
J20_18	259.584	0.0023303	P_COM
J20_19	266.711	0.0013797	P_RES
J20_20	273.081	0.0005795	P_RES
J20_21	280.448	0.0037964	P_COM
J20_22	286.931	0.0013055	P_RES
J20_23	292.098	0.0009559	P_RES
J20_24	297.694	0.0022277	P_IND
J20_25	305.247	0.0007215	P_RES
J20_26	311.356	0.0015215	P_RES
J20_27	316.789	0.0012183	P_RES
J20_28	322.748	0.0005541	P_RES
J20_29	330.621	0.0011547	P_RES
J20_30	336.658	0.0030618	P_IND
J20_31	342.725	0.0012095	P_RES
J20_32	347.665	0.0008912	P_RES
J20_33	354.949	0.0038058	P_COM
J20_34	359.790	0.0013447	P_RES
J20_35	366.291	0.0006439	P_RES
J20_36	373.041	0.0011529	P_RES
J20_37	379.370	0.0058438	P_RES
J20_38	384.035	0.0008556	P_RES
J20_39	390.549	0.0011184	P_RES
J20_40	396.826	0.0018116	P_RES
J20_41	404.447	0.0005446	P_RES
J20_42	408.989	0.0018838	P_COM
J20_43	415.538	0.0012684	P_RES
J20_44	421.335	0.0010282	P_RES
J20_45	427.264	0.0012691	P_COM
J20_46	432.708	0.0021043	P_COM
J20_47	440.097	0.0009379	P_RES
J20_48	446.597	0.0014302	P_COM
J20_49	451.658	0.0015081	P_COM
J20_50	457.934	0.0070348	P_IND
J20_51	462.474	0.0008512	P_RES
J20_52	468.475	0.0011282	P_RES
J20_53	475.862	0.0025876	P_RES
J20_54	480.443	0.0011864	P_RES
J20_55	486.770	0.0023503	P_RES
J20_56	493.129	0.0015473	P_RES
J20_57	499.826	0.0011267	P_RES
J20_58	505.768	0.0012539	P_RES
J20_59	511.689	0.0018123	P_COM
J20_60	517.366	0.0017787	P_RES
J20_61	522.463	0.0017357	P_RES
J20_62	527.801	0.0008004	P_RES
J20_63	533.446	0.0011947	P_RES
J20_64	540.120	0.0031809	P_IND
J21_1	151.509	0.0027301	P_RES
J21_2	158.064	0.0021412	P_COM
J21_3	163.106	0.0021532	P_COM
J21_4	169.063	0.0006224	P_RES
J21_5	174.949	0.0008950	P_RES
J21_6	181.439	0.0008766	P_RES
J21_7	188.701	0.0008366	P_RES
J21_8	195.976	0.0025992	P_RES
J21_9	200.678	0.0008713	P_RES
J21_10	207.238	0.0008555	P_RES
J21_11	215.154	0.0013664	P_RES
J21_12	221.532	0.0021951	P_RES
J21_13	226.693	0.0019990	P_RES
J21_14	232.925	0.0012420	P_COM
J21_15	240.409	0.0006995	P_RES
J21_16	246.457	0.0025811	P_COM
J21_17	251.437	0.0016425	P_COM
J21_18	258.329	0.0043394	P_COM
J21_19	264.580	0.0010853	P_RES
J21_20	270.315	0.0007368	P_RES
J21_21	277.791	0.0031084	P_COM
J21_22	283.674	0.0022439	P_RES
J21_23	289.768	0.0024273	P_COM
J21_24	296.467	0.0010080	P_RES
J21_25	303.868	0.0008515	P_RES
J21_26	308.374	0.0022127	P_RES
J21_27	315.452	0.0022321	P_IND
J21_28	321.736	0.0068778	P_COM
J21_29	328.626	0.0006606	P_RES
J21_30	333.710	0.0035286	P_RES
J21_31	339.424	0.0018042	P_COM
J21_32	345.575	0.0019285	P_COM
J21_33	352.081	0.0033366	P_IND
J21_34	358.736	0.0013511	P_RES
J21_35	365.576	0.0018985	P_RES
J21_36	370.162	0.0014939	P_RES
J21_37	377.053	0.0012079	P_RES
J21_38	382.101	0.0009394	P_RES
J21_39	389.358	0.0008272	P_RES
J21_40	396.372	0.0018081	P_COM
J21_41	400.431	0.0017919	P_RES
J21_42	408.361	0.0010868	P_RES
J21_43	413.292	0.0036179	P_RES
J21_44	419.434	0.0007484	P_RES
J21_45	426.090	0.0006437	P_RES
J21_46	432.999	0.0018914	P_COM
J21_47	438.956	0.0041801	P_IND
J21_48	444.567	0.0017129	P_RES
J21_49	450.000	0.0012825	P_RES
J21_50	455.324	0.0012194	P_RES
J21_51	461.744	0.0032522	P_COM
J21_52	468.196	0.0048026	P_COM
J21_53	474.808	0.0007173	P_RES
J21_54	480.135	0.0020233	P_RES
J21_55	485.514	0.0007278	P_RES
J21_56	490.543	0.0009367	P_RES
J21_57	498.311	0.0017137	P_RES
J21_58	504.011	0.0008071	P_RES
J21_59	509.157	0.0023757	P_IND
J21_60	514.508	0.0032108	P_IND
J21_61	520.440	0.0015916	P_RES
J21_62	526.742	0.0015392	P_RES
J21_63	533.829	0.0019437	P_RES
J21_64	537.528	0.0016770	P_RES
J22_1	148.318	0.0020926	P_RES
J22_2	155.212	0.0016578	P_RES
J22_3	160.446	0.0006116	P_RES
J22_4	167.290	0.0007839	P_RES
J22_5	173.728	0.0024043	P_COM
J22_6	181.148	0.0023086	P_IND
J22_7	186.550	0.0012269	P_RES
J22_8	193.312	0.0019698	P_RES
J22_9	200.308	0.0011455	P_RES
J22_10	207.182	0.0015735	P_RES
J22_11	211.438	0.0018959	P_COM
J22_12	218.031	0.0010152	P_RES
J22_13	225.824	0.0007390	P_RES
J22_14	232.070	0.0010627	P_RES
J22_15	238.712	0.0018177	P_RES
J22_16	244.300	0.0027800	P_RES
J22_17	251.772	0.0016794	P_RES
J22_18	257.100	0.0014877	P_RES
J22_19	262.163	0.0014391	P_COM
J22_20	270.425	0.0021179	P_IND
J22_21	274.870	0.0020056	P_COM
J22_22	282.692	0.0034057	P_COM
J22_23	287.765	0.0009563	P_RES
J22_24	295.416	0.0047614	P_IND
J22_25	300.514	0.0009504	P_RES
J22_26	307.900	0.0009386	P_RES
J22_27	314.447	0.0021040	P_RES
J22_28	320.235	0.0011227	P_RES
J22_29	324.746	0.0005617	P_RES
J22_30	331.488	0.0018637	P_RES
J22_31	337.869	0.0019086	P_IND
J22_32	344.208	0.0037076	P_COM
J22_33	350.323	0.0017684	P_COM
J22_34	357.765	0.0035162	P_COM
J22_35	362.737	0.0023964	P_RES
J22_36	369.861	0.0023353	P_COM
J22_37	376.197	0.0020692	P_RES
J22_38	380.854	0.0009646	P_RES
J22_39	387.554	0.0023966	P_IND
J22_40	392.915	0.0022658	P_RES
J22_41	399.435	0.0009495	P_RES
J22_42	406.987	0.0006841	P_RES
J22_43	413.017	0.0025911	P_COM
J22_44	416.863	0.0020684	P_RES
J22_45	423.838	0.0009956	P_RES
J22_46	430.012	0.0010277	P_RES
J22_47	435.792	0.0022473	P_RES
J22_48	441.837	0.0011223	P_RES
J22_49	447.736	0.0030086	P_COM
J22_50	454.756	0.0012608	P_RES
J22_51	459.329	0.0007367	P_RES
J22_52	467.007	0.0018678	P_IND
J22_53	471.291	0.0014109	P_RES
J22_54	477.137	0.0015360	P_RES
J22_55	483.044	0.0008647	P_RES
J22_56	490.737	0.0014188	P_COM
J22_57	495.796	0.0022311	P_COM
J22_58	502.456	0.0014893	P_RES
J22_59	507.931	0.0024637	P_IND
J22_60	513.065	0.0023424	P_COM
J22_61	518.829	0.0023436	P_COM
J22_62	525.973	0.0004917	P_RES
J22_63	530.804	0.0032368	P_RES
J22_64	537.307	0.0009114	P_RES
J23_1	146.821	0.0008160	P_RES
J23_2	153.549	0.0018261	P_COM
J23_3	160.106	0.0022034	P_RES
J23_4	167.163	0.0036109	P_COM
J23_5	171.297	0.0010836	P_RES
J23_6	179.208	0.0017259	P_RES
J23_7	185.132	0.0023070	P_COM
J23_8	190.864	0.0011809	P_RES
J23_9	199.165	0.0009124	P_RES
J23_10	204.591	0.0010762	P_RES
J23_11	209.837	0.0029217	P_RES
J23_12	216.824	0.0016255	P_RES
J23_13	222.817	0.0004982	P_RES
J23_14	228.859	0.0032660	P_IND
J23_15	237.295	0.0012372	P_RES
J23_16	241.463	0.0022688	P_RES
J23_17	247.746	0.0005522	P_RES
J23_18	254.873	0.0021600	P_IND
J23_19	261.342	0.0029250	P_RES
J23_20	268.306	0.0035072	P_IND
J23_21	274.421	0.0009545	P_COM
J23_22	281.211	0.0012801	P_RES
J23_23	287.315	0.0028882	P_COM
J23_24	293.594	0.0009674	P_RES
J23_25	299.422	0.0016047	P_RES
J23_26	305.511	0.0018427	P_RES
J23_27	312.062	0.0016457	P_RES
J23_28	317.670	0.0011737	P_RES
J23_29	323.643	0.0020947	P_RES
J23_30	330.948	0.0031437	P_COM
J23_31	337.114	0.0008384	P_RES
J23_32	343.165	0.0017170	P_RES
J23_33	349.041	0.0018919	P_IND
J23_34	354.840	0.0007863	P_RES
J23_35	360.529	0.0008270	P_RES
J23_36	367.263	0.0009491	P_RES
J23_37	373.589	0.0018246	P_RES
J23_38	380.727	0.0009409	P_RES
J23_39	386.074	0.0035885	P_COM
J23_40	391.280	0.0025496	P_RES
J23_41	398.736	0.0039462	P_RES
J23_42	404.658	0.0027303	P_COM
J23_43	409.015	0.0010852	P_RES
J23_44	415.921	0.0009216	P_RES
J23_45	422.027	0.0007561	P_RES
J23_46	427.464	0.0041039	P_RES
J23_47	435.070	0.0018270	P_RES
J23_48	439.811	0.0015178	P_COM
J23_49	446.697	0.0012742	P_RES
J23_50	452.133	0.0027124	P_COM
J23_51	457.176	0.0014483	P_RES
J23_52	463.538	0.0007551	P_RES
J23_53	469.984	0.0015739	P_IND
J23_54	475.250	0.0007773	P_RES
J23_55	481.145	0.0029970	P_COM
J23_56	486.916	0.0030995	P_COM
J23_57	493.325	0.0016937	P_COM
J23_58	500.849	0.0029052	P_IND
J23_59	506.643	0.0006233	P_RES
J23_60	510.607	0.0004966	P_RES
J23_61	516.798	0.0021831	P_COM
J23_62	524.031	0.0015985	P_RES
J23_63	529.466	0.0012238	P_RES
J23_64	534.305	0.0012122	P_RES
J24_1	144.738	0.0013061	P_RES
J24_2	152.431	0.0023771	P_COM
J24_3	158.215	0.0019035	P_COM
J24_4	163.543	0.0012826	P_RES
J24_5	169.535	0.0016314	P_RES
J24_6	177.697	0.0012989	P_RES
J24_7	184.522	0.0018665	P_COM
J24_8	188.872	0.0024507	P_RES
J24_9	196.318	0.0031431	P_RES
J24_10	203.514	0.0016902	P_RES
J24_11	210.032	0.0019591	P_RES
J24_12	215.000	0.0029378	P_COM
J24_13	222.379	0.0019023	P_RES
J24_14	228.945	0.0011115	P_RES
J24_15	234.432	0.0012347	P_RES
J24_16	239.465	0.0012964	P_RES
J24_17	248.094	0.0033871	P_RES
J24_18	254.389	0.0024895	P_RES
J24_19	259.816	0.0009533	P_RES
J24_20	265.090	0.0015082	P_IND
J24_21	271.504	0.0053161	P_IND
J24_22	278.271	0.0020363	P_RES
J24_23	285.418	0.0011070	P_RES
J24_24	291.010	0.0033658	P_IND
J24_25	298.190	0.0032378	P_IND
J24_26	303.773	0.0010309	P_RES
J24_27	308.761	0.0019521	P_RES
J24_28	315.279	0.0027617	P_IND
J24_29	322.922	0.0024438	P_IND
J24_30	328.177	0.0023520	P_IND
J24_31	335.337	0.0011128	P_RES
J24_32	339.781	0.0013092	P_RES
J24_33	348.075	0.0022563	P_COM
J24_34	353.230	0.0010142	P_RES
J24_35	358.286	0.0027161	P_COM
J24_36	364.689	0.0012613	P_RES
J24_37	371.225	0.0023988	P_COM
J24_38	377.935	0.0033569	P_COM
J24_39	383.281	0.0042229	P_COM
J24_40	389.448	0.0016241	P_RES
J24_41	395.541	0.0009711	P_RES
J24_42	402.287	0.0008351	P_RES
J24_43	409.147	0.0017983	P_COM
J24_44	414.095	0.0010302	P_RES
J24_45	419.426	0.0013262	P_RES
J24_46	426.083	0.0016505	P_COM
J24_47	432.945	0.0019595	P_COM
J24_48	439.386	0.0011396	P_RES
J24_49	445.308	0.0031766	P_COM
J24_50	450.780	0.0015942	P_RES
J24_51	455.627	0.0012907	P_RES
J24_52	461.414	0.0016462	P_COM
J24_53	468.849	0.0016440	P_COM
J24_54	475.415	0.0017563	P_RES
J24_55	481.357	0.0009519	P_RES
J24_56	486.103	0.0007498	P_RES
J24_57	492.688	0.0049215	P_IND
J24_58	497.355	0.0022280	P_COM
J24_59	502.751	0.0005052	P_RES
J24_60	509.368	0.0021375	P_COM
J24_61	515.853	0.0061385	P_COM
J24_62	520.853	0.0015341	P_RES
J24_63	526.349	0.0018283	P_RES
J24_64	533.807	0.0010296	P_RES
J25_1	144.442	0.0026126	P_COM
J25_2	150.768	0.0017382	P_COM
J25_3	155.697	0.0011813	P_RES
J25_4	163.045	0.0020188	P_COM
J25_5	168.656	0.0011065	P_RES
J25_6	176.199	0.0019112	P_RES
J25_7	182.060	0.0022852	P_COM
J25_8	189.159	0.0009547	P_RES
J25_9	194.586	0.0003500	P_RES
J25_10	199.627	0.0015905	P_RES
J25_11	207.305	0.0020113	P_RES
J25_12	214.368	0.0040292	P_IND
J25_13	220.212	0.0017965	P_RES
J25_14	225.363	0.0021110	P_RES
J25_15	233.638	0.0032055	P_RES
J25_16	238.771	0.0019267	P_RES
J25_17	246.104	0.0015696	P_RES
J25_18	252.477	0.0027389	P_IND
J25_19	258.297	0.0010982	P_RES
J25_20	265.127	0.0009155	P_RES
J25_21	269.734	0.0037179	P_IND
J25_22	276.308	0.0015155	P_RES
J25_23	282.645	0.0029395	P_IND
J25_24	289.552	0.0021728	P_COM
J25_25	296.184	0.0010158	P_RES
J25_26	302.239	0.0009092	P_RES
J25_27	307.113	0.0012808	P_RES
J25_28	313.510	0.0058329	P_COM
J25_29	321.497	0.0018423	P_RES
J25_30	327.124	0.0013711	P_RES
J25_31	333.671	0.0008206	P_COM
J25_32	338.614	0.0015583	P_RES
J25_33	344.871	0.0003605	P_RES
J25_34	351.822	0.0023828	P_RES
J25_35	356.969	0.0023295	P_COM
J25_36	363.006	0.0022760	P_COM
J25_37	369.639	0.0013286	P_RES
J25_38	375.865	0.0014018	P_RES
J25_39	383.215	0.0015869	P_RES
J25_40	387.132	0.0011661	P_RES
J25_41	394.128	0.0026857	P_RES
J25_42	400.776	0.0020699	P_RES
J25_43	406.988	0.0016048	P_COM
J25_44	412.532	0.0018758	P_RES
J25_45	418.075	0.0065079	P_IND
J25_46	423.981	0.0009262	P_RES
J25_47	431.778	0.0021058	P_COM
J25_48	437.649	0.0025705	P_COM
J25_49	441.491	0.0034569	P_IND
J25_50	449.085	0.0016450	P_COM
J25_51	454.601	0.0033305	P_COM
J25_52	461.386	0.0041293	P_COM
J25_53	467.656	0.0009966	P_RES
J25_54	472.923	0.0014691	P_COM
J25_55	479.070	0.0006519	P_RES
J25_56	485.440	0.0010124	P_RES
J25_57	490.741	0.0026825	P_COM
J25_58	495.301	0.0018651	P_RES
J25_59	501.625	0.0006762	P_RES
J25_60	506.980	0.0012885	P_RES
J25_61	514.417	0.0014806	P_COM
J25_62	518.409	0.0011983	P_RES
J25_63	525.198	0.0009485	P_RES
J25_64	530.901	0.0040233	P_IND
J26_1	142.231	0.0010122	P_RES
J26_2	147.135	0.0020069	P_RES
J26_3	153.664	0.0021784	P_RES
J26_4	160.616	0.0009908	P_RES
J26_5	166.713	0.0013496	P_RES
J26_6	173.325	0.0011976	P_COM
J26_7	179.208	0.0020084	P_RES
J26_8	186.433	0.0018068	P_COM
J26_9	193.072	0.0019934	P_RES
J26_10	199.941	0.0011716	P_RES
J26_11	204.113	0.0016346	P_RES
J26_12	212.442	0.0033940	P_COM
J26_13	218.756	0.0009915	P_RES
J26_14	225.256	0.0013036	P_COM
J26_15	230.172	0.0012745	P_RES
J26_16	237.317	0.0013347	P_COM
J26_17	243.397	0.0025426	P_COM
J26_18	249.768	0.0013761	P_IND
J26_19	255.735	0.0035628	P_COM
J26_20	263.386	0.0015356	P_RES
J26_21	268.030	0.0033159	P_IND
J26_22	275.212	0.0034369	P_IND
J26_23	281.883	0.0019064	P_RES
J26_24	288.333	0.0010975	P_RES
J26_25	294.864	0.0012963	P_COM
J26_26	299.872	0.0016590	P_RES
J26_27	305.726	0.0017986	P_RES
J26_28	311.825	0.0040051	P_RES
J26_29	317.545	0.0016486	P_RES
J26_30	324.438	0.0010655	P_RES
J26_31	331.782	0.0010383	P_RES
J26_32	337.450	0.0059738	P_COM
J26_33	344.206	0.0013311	P_RES
J26_34	348.783	0.0017483	P_COM
J26_35	356.915	0.0013060	P_RES
J26_36	361.212	0.0033777	P_COM
J26_37	367.735	0.0028969	P_IND
J26_38	373.949	0.0007085	P_RES
J26_39	380.299	0.0005982	P_RES
J26_40	386.337	0.0011379	P_RES
J26_41	393.318	0.0027705	P_COM
J26_42	399.628	0.0031198	P_COM
J26_43	404.635	0.0089779	P_COM
J26_44	410.114	0.0020048	P_COM
J26_45	417.268	0.0046247	P_RES
J26_46	421.608	0.0017265	P_COM
J26_47	428.380	0.0037336	P_COM
J26_48	435.882	0.0008659	P_RES
J26_49	439.600	0.0024525	P_IND
J26_50	446.891	0.0015284	P_RES
J26_51	451.993	0.0023521	P_IND
J26_52	459.791	0.0021607	P_RES
J26_53	463.662	0.0006660	P_RES
J26_54	470.408	0.0019867	P_RES
J26_55	476.567	0.0016257	P_RES
J26_56	481.851	0.0011665	P_IND
J26_57	487.757	0.0012301	P_RES
J26_58	494.876	0.0018307	P_RES
J26_59	500.093	0.0012116	P_RES
J26_60	505.283	0.0006629	P_RES
J26_61	511.004	0.0012583	P_RES
J26_62	517.727	0.0028629	P_RES
J26_63	523.014	0.0006890	P_RES
J26_64	530.552	0.0015366	P_RES
J27_1	140.521	0.0005762	P_RES
J27_2	145.755	0.0010966	P_RES
J27_3	152.526	0.0013906	P_RES
J27_4	158.463	0.0017199	P_RES
J27_5	165.731	0.0011434	P_RES
J27_6	172.626	0.0058405	P_COM
J27_7	178.519	0.0007403	P_RES
J27_8	183.181	0.0008455	P_RES
J27_9	191.860	0.0015608	P_RES
J27_10	196.017	0.0014624	P_IND
J27_11	204.357	0.0015039	P_RES
J27_12	210.540	0.0011351	P_RES
J27_13	216.344	0.0010499	P_RES
J27_14	222.955	0.0008076	P_RES
J27_15	229.756	0.0007045	P_RES
J27_16	235.998	0.0009148	P_RES
J27_17	242.435	0.0008999	P_RES
J27_18	248.694	0.0015185	P_RES
J27_19	254.779	0.0004957	P_RES
J27_20	260.743	0.0006035	P_RES
J27_21	265.658	0.0008791	P_RES
J27_22	273.445	0.0007591	P_RES
J27_23	279.367	0.0054175	P_RES
J27_24	284.749	0.0005204	P_RES
J27_25	291.622	0.0013319	P_RES
J27_26	298.798	0.0028959	P_COM
J27_27	305.527	0.0016064	P_COM
J27_28	311.534	0.0006531	P_RES
J27_29	317.042	0.0010393	P_RES
J27_30	323.181	0.0008553	P_RES
J27_31	329.576	0.0011945	P_RES
J27_32	335.237	0.0007538	P_RES
J27_33	341.376	0.0016654	P_RES
J27_34	347.174	0.0010914	P_RES
J27_35	353.902	0.0015346	P_RES
J27_36	359.292	0.0010980	P_RES
J27_37	365.781	0.0022440	P_RES
J27_38	372.597	0.0010264	P_RES
J27_39	377.949	0.0018415	P_COM
J27_40	384.088	0.0010598	P_RES
J27_41	390.319	0.0009801	P_RES
J27_42	395.643	0.0010212	P_RES
J27_43	403.318	0.0009486	P_RES
J27_44	408.183	0.0012301	P_RES
J27_45	414.099	0.0022004	P_COM
J27_46	421.281	0.0033561	P_COM
J27_47	427.602	0.0038399	P_IND
J27_48	432.729	0.0017120	P_RES
J27_49	438.356	0.0004443	P_RES
J27_50	444.457	0.0019299	P_COM
J27_51	451.228	0.0014067	P_RES
J27_52	457.345	0.0014755	P_RES
J27_53	462.843	0.0012317	P_RES
J27_54	468.273	0.0013421	P_RES
J27_55	475.203	0.0034415	P_COM
J27_56	479.766	0.0010880	P_RES
J27_57	486.713	0.0017249	P_COM
J27_58	491.396	0.0024333	P_RES
J27_59	499.350	0.0012152	P_RES
J27_60	505.006	0.0019785	P_RES
J27_61	509.820	0.0021503	P_COM
J27_62	515.404	0.0016385	P_COM
J27_63	522.713	0.0010193	P_RES
J27_64	526.626	0.0027806	P_RES
J28_1	138.361	0.0019763	P_RES
J28_2	144.600	0.0008773	P_RES
J28_3	150.463	0.0007273	P_RES
J28_4	155.953	0.0031808	P_RES
J28_5	164.008	0.0013043	P_RES
J28_6	170.481	0.0006612	P_RES
J28_7	176.198	0.0025149	P_RES
J28_8	183.110	0.0013508	P_COM
J28_9	188.608	0.0016229	P_RES
J28_10	194.159	0.0020851	P_COM
J28_11	200.589	0.0020693	P_IND
J28_12	208.824	0.0021284	P_RES
J28_13	213.342	0.0033418	P_RES
J28_14	220.906	0.0021901	P_COM
J28_15	225.897	0.0012194	P_RES
J28_16	234.325	0.0022806	P_COM
J28_17	240.039	0.0011784	P_RES
J28_18	245.322	0.0007474	P_RES
J28_19	251.885	0.0012979	P_COM
J28_20	258.809	0.0008898	P_RES
J28_21	264.345	0.0005896	P_RES
J28_22	271.850	0.0015198	P_RES
J28_23	277.089	0.0031435	P_COM
J28_24	284.250	0.0021108	P_RES
J28_25	289.547	0.0032592	P_COM
J28_26	295.650	0.0009760	P_RES
J28_27	301.388	0.0017308	P_COM
J28_28	309.808	0.0011948	P_RES
J28_29	315.384	0.0005663	P_RES
J28_30	322.268	0.0052331	P_COM
J28_31	328.313	0.0005424	P_RES
J28_32	334.022	0.0027943	P_COM
J28_33	340.123	0.0016809	P_RES
J28_34	345.286	0.0016633	P_COM
J28_35	351.748	0.0006162	P_RES
J28_36	357.085	0.0017625	P_RES
J28_37	363.577	0.0025811	P_COM
J28_38	369.773	0.0007105	P_RES
J28_39	376.081	0.0030288	P_RES
J28_40	383.824	0.0012751	P_RES
J28_41	387.666	0.0007172	P_RES
J28_42	395.229	0.0013268	P_RES
J28_43	400.076	0.0006254	P_RES
J28_44	406.508	0.0013828	P_RES
J28_45	411.958	0.0015012	P_RES
J28_46	420.031	0.0011662	P_RES
J28_47	425.510	0.0016115	P_RES
J28_48	431.887	0.0009518	P_RES
J28_49	436.394	0.0023606	P_COM
J28_50	443.119	0.0012488	P_RES
J28_51	448.352	0.0008896	P_RES
J28_52	454.160	0.0027847	P_COM
J28_53	459.871	0.0013414	P_COM
J28_54	466.276	0.0013751	P_RES
J28_55	472.436	0.0020713	P_RES
J28_56	478.676	0.0009364	P_RES
J28_57	484.047	0.0013801	P_RES
J28_58	490.340	0.0043470	P_IND
J28_59	495.262	0.0013185	P_RES
J28_60	502.137	0.0011802	P_RES
J28_61	508.887	0.0010770	P_RES
J28_62	514.870	0.0011644	P_RES
J28_63	518.734	0.0018047	P_RES
J28_64	524.856	0.0020670	P_RES
J29_1	134.969	0.0026536	P_COM
J29_2	141.629	0.0022715	P_COM
J29_3	149.769	0.0012179	P_RES
J29_4	155.212	0.0007176	P_RES
J29_5	162.381	0.0021983	P_RES
J29_6	167.200	0.0020263	P_RES
J29_7	174.505	0.0027668	P_COM
J29_8	179.831	0.0017276	P_RES
J29_9	186.289	0.0016946	P_RES
J29_10	193.776	0.0015570	P_RES
J29_11	199.241	0.0024220	P_RES
J29_12	205.292	0.0013497	P_RES
J29_13	211.501	0.0010528	P_RES
J29_14	219.535	0.0017430	P_RES
J29_15	226.244	0.0008128	P_RES
J29_16	230.312	0.0032666	P_COM
J29_17	238.479	0.0009299	P_RES
J29_18	244.366	0.0006957	P_RES
J29_19	251.593	0.0016251	P_RES
J29_20	256.630	0.0041785	P_COM
J29_21	262.114	0.0016927	P_RES
J29_22	269.247	0.0018793	P_COM
J29_23	274.434	0.0023067	P_IND
J29_24	282.625	0.0007292	P_RES
J29_25	288.935	0.0020604	P_COM
J29_26	295.564	0.0022203	P_COM
J29_27	299.595	0.0025823	P_COM
J29_28	306.010	0.0016574	P_RES
J29_29	312.436	0.0010070	P_RES
J29_30	319.231	0.0014373	P_RES
J29_31	325.685	0.0012887	P_RES
J29_32	330.961	0.0010094	P_RES
J29_33	339.077	0.0044270	P_IND
J29_34	344.497	0.0028579	P_COM
J29_35	349.838	0.0012350	P_RES
J29_36	355.979	0.0025761	P_RES
J29_37	362.607	0.0016828	P_RES
J29_38	369.422	0.0024826	P_COM
J29_39	374.985	0.0010171	P_RES
J29_40	380.170	0.0035305	P_COM
J29_41	386.764	0.0028487	P_RES
J29_42	393.165	0.0037435	P_RES
J29_43	397.925	0.0019399	P_RES
J29_44	404.947	0.0040356	P_IND
J29_45	410.478	0.0005174	P_RES
J29_46	418.117	0.0007830	P_RES
J29_47	423.038	0.0021833	P_RES
J29_48	430.280	0.0013354	P_RES
J29_49	434.648	0.0020062	P_RES
J29_50	441.754	0.0013152	P_RES
J29_51	446.560	0.0027635	P_COM
J29_52	453.265	0.0020708	P_COM
J29_53	458.352	0.0009228	P_RES
J29_54	465.176	0.0016413	P_RES
J29_55	472.155	0.0010181	P_RES
J29_56	477.057	0.0005619	P_RES
J29_57	482.011	0.0024803	P_RES
J29_58	487.570	0.0030561	P_COM
J29_59	494.111	0.0006504	P_RES
J29_60	501.454	0.0021567	P_RES
J29_61	505.786	0.0012213	P_RES
J29_62	511.551	0.0015204	P_RES
J29_63	517.605	0.0011885	P_RES
J29_64	524.350	0.0036919	P_COM
J30_1	134.486	0.0021756	P_IND
J30_2	140.744	0.0027197	P_COM
J30_3	147.161	0.0039399	P_COM
J30_4	152.489	0.0011985	P_RES
J30_5	160.512	0.0012153	P_RES
J30_6	166.197	0.0006905	P_RES
J30_7	171.452	0.0016297	P_RES
J30_8	178.205	0.0012683	P_RES
J30_9	185.950	0.0019492	P_RES
J30_10	190.930	0.0025226	P_RES
J30_11	197.361	0.0015814	P_COM
J30_12	205.061	0.0017895	P_RES
J30_13	209.461	0.0005907	P_RES
J30_14	217.188	0.0013328	P_COM
J30_15	223.149	0.0037592	P_IND
J30_16	229.831	0.0016458	P_RES
J30_17	235.477	0.0027396	P_COM
J30_18	242.826	0.0037621	P_COM
J30_19	248.047	0.0019835	P_IND
J30_20	253.811	0.0009923	P_RES
J30_21	261.747	0.0018701	P_RES
J30_22	266.375	0.0033035	P_COM
J30_23	274.278	0.0008133	P_RES
J30_24	279.378	0.0014501	P_COM
J30_25	287.274	0.0010769	P_RES
J30_26	293.702	0.0023665	P_RES
J30_27	299.970	0.0020282	P_COM
J30_28	304.585	0.0022285	P_RES
J30_29	310.089	0.0011807	P_RES
J30_30	318.019	0.0009735	P_RES
J30_31	324.623	0.0028567	P_COM
J30_32	330.510	0.0018352	P_COM
J30_33	336.585	0.0011493	P_COM
J30_34	341.400	0.0007736	P_RES
J30_35	349.084	0.0016305	P_RES
J30_36	353.896	0.0026452	P_IND
J30_37	360.444	0.0014743	P_RES
J30_38	366.557	0.0009062	P_RES
J30_39	371.803	0.0035952	P_RES
J30_40	380.026	0.0026094	P_COM
J30_41	384.734	0.0013063	P_RES
J30_42	390.383	0.0016437	P_COM
J30_43	397.852	0.0043929	P_COM
J30_44	403.298	0.0062483	P_COM
J30_45	410.534	0.0021018	P_COM
J30_46	414.587	0.0028584	P_COM
J30_47	421.093	0.0014052	P_COM
J30_48	427.624	0.0036733	P_IND
J30_49	432.899	0.0014925	P_RES
J30_50	438.642	0.0025747	P_RES
J30_51	445.356	0.0005839	P_RES
J30_52	450.595	0.0016392	P_RES
J30_53	456.354	0.0005882	P_RES
J30_54	462.311	0.0025668	P_COM
J30_55	468.343	0.0006340	P_RES
J30_56	475.896	0.0010596	P_RES
J30_57	480.809	0.0019703	P_COM
J30_58	487.234	0.0032109	P_RES
J30_59	492.938	0.0012529	P_RES
J30_60	498.666	0.0009998	P_RES
J30_61	504.728	0.0012993	P_COM
J30_62	510.374	0.0011455	P_RES
J30_63	515.033	0.0014655	P_RES
J30_64	521.056	0.0013724	P_RES
J31_1	132.561	0.0013201	P_RES
J31_2	137.858	0.0019683	P_COM
J31_3	145.505	0.0026433	P_IND
J31_4	151.857	0.0021100	P_RES
J31_5	156.799	0.0019649	P_COM
J31_6	163.400	0.0019779	P_RES
J31_7	170.128	0.0030386	P_COM
J31_8	176.911	0.0009770	P_RES
J31_9	182.639	0.0038830	P_RES
J31_10	189.445	0.0009199	P_RES
J31_11	196.633	0.0017157	P_COM
J31_12	202.204	0.0018300	P_COM
J31_13	208.153	0.0068806	P_COM
J31_14	215.107	0.0016163	P_IND
J31_15	221.123	0.0009763	P_RES
J31_16	226.663	0.0041565	P_IND
J31_17	233.604	0.0015954	P_COM
J31_18	241.356	0.0015215	P_RES
J31_19	246.036	0.0007001	P_RES
J31_20	253.526	0.0019275	P_RES
J31_21	260.403	0.0014866	P_RES
J31_22	265.289	0.0005814	P_RES
J31_23	270.788	0.0036364	P_IND
J31_24	278.308	0.0036367	P_COM
J31_25	284.181	0.0019061	P_RES
J31_26	290.967	0.0020216	P_RES
J31_27	296.503	0.0052531	P_IND
J31_28	302.494	0.0014320	P_RES
J31_29	310.218	0.0006955	P_RES
J31_30	316.537	0.0015792	P_RES
J31_31	322.177	0.0016509	P_RES
J31_32	328.408	0.0012317	P_RES
J31_33	334.171	0.0020512	P_RES
J31_34	340.530	0.0017884	P_RES
J31_35	346.428	0.0007077	P_RES
J31_36	353.294	0.0022102	P_RES
J31_37	358.304	0.0014573	P_RES
J31_38	366.065	0.0019468	P_COM
J31_39	372.000	0.0018478	P_RES
J31_40	376.067	0.0029408	P_COM
J31_41	383.853	0.0014136	P_RES
J31_42	389.376	0.0018412	P_RES
J31_43	396.125	0.0039446	P_IND
J31_44	400.617	0.0007148	P_RES
J31_45	407.593	0.0037108	P_COM
J31_46	414.175	0.0038365	P_IND
J31_47	418.807	0.0025675	P_IND
J31_48	426.078	0.0014779	P_COM
J31_49	432.415	0.0013436	P_RES
J31_50	437.758	0.0026527	P_RES
J31_51	444.224	0.0022101	P_COM
J31_52	449.058	0.0010151	P_RES
J31_53	455.553	0.0033101	P_RES
J31_54	460.308	0.0016425	P_RES
J31_55	467.728	0.0019734	P_RES
J31_56	472.782	0.0054929	P_IND
J31_57	479.491	0.0012614	P_RES
J31_58	484.736	0.0028702	P_COM
J31_59	489.809	0.0011995	P_RES
J31_60	496.417	0.0022109	P_RES
J31_61	503.822	0.0013176	P_COM
J31_62	508.916	0.0019089	P_RES
J31_63	513.492	0.0018364	P_RES
J31_64	521.183	0.0007848	P_RES
J32_1	130.957	0.0020717	P_RES
J32_2	137.245	0.0023284	P_RES
J32_3	143.590	0.0009294	P_RES
J32_4	150.073	0.0024466	P_COM
J32_5	155.542	0.0016231	P_RES
J32_6	161.939	0.0013548	P_RES
J32_7	168.503	0.0008169	P_RES
J32_8	175.881	0.0006021	P_RES
J32_9	181.231	0.0007636	P_RES
J32_10	188.518	0.0018180	P_COM
J32_11	195.237	0.0016134	P_RES
J32_12	200.343	0.0014891	P_COM
J32_13	206.453	0.0014314	P_COM
J32_14	212.220	0.0016431	P_IND
J32_15	218.429	0.0013268	P_RES
J32_16	225.818	0.0012822	P_RES
J32_17	232.103	0.0028002	P_COM
J32_18	239.460	0.0006398	P_RES
J32_19	244.883	0.0028159	P_COM
J32_20	251.562	0.0043321	P_COM
J32_21	257.077	0.0033746	P_RES
J32_22	264.585	0.0034433	P_COM
J32_23	268.991	0.0006092	P_RES
J32_24	275.830	0.0013043	P_COM
J32_25	282.804	0.0016803	P_RES
J32_26	289.393	0.0030672	P_COM
J32_27	294.727	0.0029478	P_COM
J32_28	301.296	0.0021442	P_COM
J32_29	307.818	0.0019981	P_COM
J32_30	314.640	0.0016385	P_RES
J32_31	319.550	0.0037777	P_COM
J32_32	327.032	0.0016363	P_IND
J32_33	332.219	0.0010024	P_RES
J32_34	337.810	0.0015806	P_RES
J32_35	343.621	0.0012931	P_RES
J32_36	350.872	0.0005490	P_RES
J32_37	356.776	0.0020776	P_RES
J32_38	363.709	0.0014033	P_COM
J32_39	368.924	0.0009937	P_RES
J32_40	375.626	0.0017030	P_RES
J32_41	380.814	0.0018359	P_RES
J32_42	386.973	0.0035263	P_IND
J32_43	393.936	0.0011154	P_RES
J32_44	398.753	0.0013033	P_RES
J32_45	405.987	0.0032631	P_IND
J32_46	410.929	0.0014549	P_RES
J32_47	418.867	0.0053929	P_COM
J32_48	423.661	0.0009959	P_RES
J32_49	428.559	0.0007440	P_RES
J32_50	435.325	0.0011345	P_RES
J32_51	440.773	0.0007308	P_RES
J32_52	448.632	0.0012700	P_RES
J32_53	454.404	0.0035810	P_COM
J32_54	459.468	0.0009075	P_RES
J32_55	465.633	0.0026865	P_IND
J32_56	472.185	0.0008637	P_RES
J32_57	476.870	0.0008613	P_RES
J32_58	483.516	0.0012002	P_RES
J32_59	489.445	0.0006696	P_RES
J32_60	495.385	0.0019841	P_RES
J32_61	500.264	0.0011537	P_RES
J32_62	507.439	0.0017390	P_RES
J32_63	512.933	0.0024075	P_RES
J32_64	519.332	0.0009734	P_RES
J33_1	129.505	0.0009489	P_RES
J33_2	135.988	0.0025135	P_IND
J33_3	142.146	0.0019051	P_RES
J33_4	147.930	0.0016061	P_RES
J33_5	154.754	0.0021239	P_RES
J33_6	160.279	0.0011622	P_RES
J33_7	166.544	0.0013707	P_RES
J33_8	174.038	0.0023383	P_RES
J33_9	180.157	0.0009370	P_RES
J33_10	186.635	0.0018508	P_RES
J33_11	191.226	0.0005697	P_RES
J33_12	199.096	0.0012735	P_RES
J33_13	205.874	0.0009953	P_RES
J33_14	211.818	0.0012888	P_RES
J33_15	216.783	0.0014283	P_RES
J33_16	223.692	0.0009003	P_RES
J33_17	229.564	0.0038502	P_COM
J33_18	237.278	0.0011136	P_RES
J33_19	243.635	0.0006111	P_RES
J33_20	249.078	0.0015216	P_RES
J33_21	255.914	0.0018201	P_COM
J33_22	261.062	0.0012051	P_RES
J33_23	267.308	0.0008068	P_RES
J33_24	273.613	0.0028545	P_COM
J33_25	281.182	0.0014235	P_RES
J33_26	286.491	0.0028971	P_COM
J33_27	292.466	0.0016836	P_RES
J33_28	300.495	0.0013635	P_RES
J33_29	305.007	0.0022935	P_RES
J33_30	312.134	0.0046808	P_IND
J33_31	318.253	0.0017636	P_IND
J33_32	323.499	0.0014394	P_RES
J33_33	331.439	0.0008446	P_RES
J33_34	336.451	0.0026164	P_IND
J33_35	342.025	0.0011235	P_RES
J33_36	347.951	0.0020305	P_RES
J33_37	354.561	0.0016854	P_RES
J33_38	360.989	0.0022521	P_RES
J33_39	367.477	0.0011526	P_COM
J33_40	372.683	0.0005000	P_RES
J33_41	379.475	0.0026080	P_COM
J33_42	386.559	0.0005815	P_RES
J33_43	391.662	0.0033877	P_COM
J33_44	396.617	0.0029741	P_COM
J33_45	404.162	0.0017282	P_COM
J33_46	410.987	0.0020645	P_RES
J33_47	416.755	0.0043714	P_COM
J33_48	422.474	0.0010082	P_RES
J33_49	427.988	0.0025818	P_RES
J33_50	434.350	0.0012184	P_RES
J33_51	440.180	0.0019337	P_RES
J33_52	445.634	0.0020935	P_COM
J33_53	452.747	0.0010487	P_RES
J33_54	458.135	0.0006314	P_RES
J33_55	463.914	0.0020700	P_RES
J33_56	470.335	0.0014573	P_RES
J33_57	475.702	0.0008594	P_RES
J33_58	481.703	0.0018050	P_COM
J33_59	487.791	0.0025402	P_COM
J33_60	493.543	0.0007512	P_RES
J33_61	498.337	0.0012693	P_RES
J33_62	505.997	0.0023456	P_COM
J33_63	511.678	0.0016528	P_RES
J33_64	517.533	0.0016323	P_COM
J34_1	127.454	0.0013666	P_RES
J34_2	132.831	0.0015869	P_RES
J34_3	140.231	0.0009406	P_RES
J34_4	145.411	0.0009686	P_RES
J34_5	152.049	0.0021356	P_RES
J34_6	158.594	0.0009127	P_RES
J34_7	165.961	0.0013322	P_RES
J34_8	170.716	0.0011119	P_RES
J34_9	178.707	0.0030236	P_COM
J34_10	183.444	0.0017878	P_RES
J34_11	190.661	0.0021347	P_IND
J34_12	196.436	0.0015409	P_RES
J34_13	203.856	0.0008027	P_RES
J34_14	209.208	0.0013263	P_RES
J34_15	216.014	0.0018086	P_RES
J34_16	222.233	0.0017481	P_RES
J34_17	227.505	0.0004305	P_RES
J34_18	233.870	0.0014643	P_COM
J34_19	240.400	0.0025074	P_COM
J34_20	246.401	0.0006226	P_RES
J34_21	254.958	0.0010555	P_RES
J34_22	259.289	0.0023700	P_RES
J34_23	266.261	0.0021209	P_RES
J34_24	272.605	0.0002075	P_RES
J34_25	279.011	0.0010401	P_RES
J34_26	284.943	0.0006259	P_RES
J34_27	290.446	0.0014843	P_RES
J34_28	297.224	0.0018518	P_RES
J34_29	303.215	0.0012979	P_COM
J34_30	310.319	0.0023606	P_IND
J34_31	317.347	0.0020970	P_RES
J34_32	321.524	0.0029014	P_COM
J34_33	327.824	0.0013759	P_RES
J34_34	334.000	0.0007446	P_RES
J34_35	340.256	0.0032630	P_RES
J34_36	346.001	0.0029974	P_IND
J34_37	352.601	0.0020434	P_COM
J34_38	358.679	0.0012611	P_RES
J34_39	365.324	0.0006169	P_RES
J34_40	370.801	0.0025423	P_COM
J34_41	378.215	0.0015948	P_RES
J34_42	382.602	0.0010323	P_RES
J34_43	388.683	0.0024132	P_RES
J34_44	394.850	0.0023788	P_RES
J34_45	401.787	0.0018091	P_RES
J34_46	409.082	0.0011063	P_RES
J34_47	414.520	0.0006277	P_RES
J34_48	421.021	0.0019623	P_RES
J34_49	426.599	0.0013440	P_RES
J34_50	432.543	0.0012075	P_RES
J34_51	438.180	0.0010170	P_RES
J34_52	444.582	0.0014869	P_RES
J34_53	450.001	0.0017097	P_COM
J34_54	454.693	0.0010482	P_RES
J34_55	460.951	0.0015211	P_RES
J34_56	467.821	0.0017177	P_RES
J34_57	472.598	0.0029107	P_RES
J34_58	480.388	0.0019064	P_COM
J34_59	486.245	0.0014707	P_RES
J34_60	490.927	0.0007543	P_RES
J34_61	496.939	0.0053059	P_IND
J34_62	502.262	0.0028954	P_COM
J34_63	509.332	0.0020382	P_RES
J34_64	514.596	0.0011430	P_RES
J35_1	124.611	0.0047473	P_COM
J35_2	132.228	0.0030032	P_COM
J35_3	137.037	0.0010796	P_RES
J35_4	143.552	0.0014558	P_RES
J35_5	149.714	0.0038598	P_COM
J35_6	156.445	0.0023036	P_RES
J35_7	162.984	0.0006107	P_RES
J35_8	168.897	0.0021723	P_RES
J35_9	176.578	0.0011400	P_RES
J35_10	181.223	0.0028575	P_COM
J35_11	189.256	0.0011125	P_RES
J35_12	195.853	0.0019531	P_RES
J35_13	202.075	0.0010436	P_RES
J35_14	206.962	0.0014313	P_RES
J35_15	213.379	0.0016459	P_COM
J35_16	221.446	0.0029236	P_COM
J35_17	225.512	0.0018204	P_COM
J35_18	232.724	0.0015909	P_RES
J35_19	240.520	0.0011035	P_RES
J35_20	244.767	0.0037860	P_COM
J35_21	251.845	0.0021277	P_RES
J35_22	257.086	0.0017857	P_RES
J35_23	264.180	0.0022040	P_IND
J35_24	270.843	0.0009741	P_RES
J35_25	277.109	0.0019368	P_RES
J35_26	283.379	0.0018356	P_COM
J35_27	289.200	0.0026500	P_COM
J35_28	296.806	0.0025755	P_COM
J35_29	301.115	0.0037826	P_IND
J35_30	307.726	0.0008533	P_RES
J35_31	313.567	0.0018844	P_RES
J35_32	320.399	0.0023851	P_RES
J35_33	326.923	0.0016459	P_RES
J35_34	332.093	0.0018999	P_COM
J35_35	340.141	0.0019619	P_RES
J35_36	344.326	0.0038666	P_COM
J35_37	352.361	0.0015051	P_RES
J35_38	357.057	0.0009555	P_RES
J35_39	364.183	0.0017673	P_COM
J35_40	370.937	0.0029958	P_COM
J35_41	376.873	0.0008418	P_RES
J35_42	380.780	0.0026286	P_IND
J35_43	387.812	0.0027284	P_IND
J35_44	394.672	0.0006244	P_RES
J35_45	400.655	0.0009234	P_RES
J35_46	405.927	0.0011432	P_RES
J35_47	412.795	0.0030310	P_COM
J35_48	418.089	0.0008577	P_RES
J35_49	424.106	0.0027040	P_RES
J35_50	430.025	0.0041974	P_IND
J35_51	437.226	0.0025674	P_RES
J35_52	441.232	0.0015948	P_COM
J35_53	447.368	0.0014374	P_RES
J35_54	454.225	0.0004699	P_RES
J35_55	459.033	0.0022625	P_RES
J35_56	465.535	0.0005108	P_RES
J35_57	471.181	0.0017687	P_COM
J35_58	477.438	0.0045795	P_COM
J35_59	484.600	0.0024196	P_COM
J35_60	488.204	0.0012936	P_COM
J35_61	496.448	0.0026315	P_IND
J35_62	499.916	0.0009639	P_COM
J35_63	507.306	0.0011291	P_RES
J35_64	513.244	0.0008080	P_RES
J36_1	122.872	0.0005369	P_RES
J36_2	130.033	0.0022696	P_RES
J36_3	136.090	0.0027031	P_COM
J36_4	141.811	0.0006571	P_RES
J36_5	147.583	0.0017504	P_RES
J36_6	153.890	0.0005099	P_RES
J36_7	160.404	0.0013844	P_RES
J36_8	167.391	0.0022493	P_COM
J36_9	174.906	0.0009881	P_RES
J36_10	181.519	0.0010568	P_RES
J36_11	185.830	0.0010758	P_COM
J36_12	191.997	0.0020739	P_COM
J36_13	200.389	0.0029768	P_RES
J36_14	204.759	0.0014117	P_RES
J36_15	212.299	0.0013518	P_RES
J36_16	218.660	0.0014991	P_RES
J36_17	225.367	0.0061071	P_IND
J36_18	231.629	0.0011809	P_RES
J36_19	237.483	0.0013189	P_RES
J36_20	243.688	0.0014333	P_RES
J36_21	249.119	0.0016700	P_RES
J36_22	256.211	0.0008219	P_RES
J36_23	262.048	0.0008528	P_RES
J36_24	269.043	0.0017633	P_RES
J36_25	275.264	0.0014164	P_RES
J36_26	281.746	0.0005791	P_RES
J36_27	287.817	0.0022294	P_COM
J36_28	294.485	0.0024010	P_COM
J36_29	300.453	0.0027022	P_COM
J36_30	305.975	0.0022865	P_RES
J36_31	313.744	0.0014314	P_COM
J36_32	317.788	0.0022973	P_RES
J36_33	324.477	0.0021454	P_COM
J36_34	332.006	0.0007057	P_RES
J36_35	337.703	0.0008333	P_RES
J36_36	342.375	0.0014981	P_RES
J36_37	350.158	0.0009614	P_RES
J36_38	354.971	0.0022174	P_COM
J36_39	361.890	0.0038736	P_IND
J36_40	367.036	0.0013053	P_RES
J36_41	373.396	0.0009751	P_RES
J36_42	381.123	0.0009753	P_RES
J36_43	386.305	0.0018796	P_RES
J36_44	392.795	0.0008148	P_RES
J36_45	398.616	0.0013424	P_RES
J36_46	403.628	0.0022435	P_RES
J36_47	411.363	0.0016688	P_RES
J36_48	416.052	0.0045235	P_IND
J36_49	423.373	0.0027789	P_COM
J36_50	428.022	0.0012803	P_RES
J36_51	435.110	0.0010672	P_RES
J36_52	441.237	0.0010834	P_RES
J36_53	447.354	0.0015824	P_COM
J36_54	451.206	0.0014595	P_RES
J36_55	457.276	0.0030585	P_IND
J36_56	464.858	0.0032424	P_IND
J36_57	469.177	0.0016050	P_IND
J36_58	475.050	0.0016224	P_RES
J36_59	482.517	0.0020704	P_COM
J36_60	488.176	0.0011362	P_RES
J36_61	494.180	0.0036864	P_RES
J36_62	499.687	0.0014692	P_RES
J36_63	506.138	0.0052742	P_RES
J36_64	511.345	0.0011490	P_RES
J37_1	120.632	0.0024189	P_RES
J37_2	126.618	0.0030795	P_RES
J37_3	133.550	0.0026769	P_RES
J37_4	139.247	0.0010434	P_COM
J37_5	145.870	0.0023283	P_RES
J37_6	153.048	0.0020088	P_RES
J37_7	159.995	0.0036149	P_RES
J37_8	165.957	0.0016964	P_RES
J37_9	171.692	0.0021419	P_COM
J37_10	178.226	0.0014642	P_COM
J37_11	185.947	0.0015174	P_COM
J37_12	192.069	0.0007290	P_RES
J37_13	196.572	0.0021459	P_RES
J37_14	203.457	0.0031732	P_RES
J37_15	210.273	0.0015753	P_RES
J37_16	217.628	0.0010514	P_RES
J37_17	223.884	0.0016802	P_RES
J37_18	230.013	0.0020556	P_COM
J37_19	236.569	0.0022659	P_RES
J37_20	242.145	0.0030235	P_COM
J37_21	247.863	0.0006248	P_RES
J37_22	254.893	0.0014219	P_RES
J37_23	259.650	0.0034709	P_IND
J37_24	266.801	0.0016048	P_COM
J37_25	272.600	0.0012827	P_RES
J37_26	278.863	0.0043413	P_COM
J37_27	285.926	0.0041934	P_IND
J37_28	292.998	0.0016680	P_COM
J37_29	297.356	0.0011388	P_RES
J37_30	303.671	0.0024026	P_RES
J37_31	310.292	0.0016962	P_RES
J37_32	317.867	0.0010576	P_RES
J37_33	323.529	0.0015965	P_RES
J37_34	329.572	0.0030818	P_COM
J37_35	334.450	0.0012293	P_RES
J37_36	342.267	0.0006069	P_RES
J37_37	346.541	0.0019187	P_IND
J37_38	352.760	0.0010753	P_RES
J37_39	359.050	0.0014076	P_RES
J37_40	365.271	0.0017829	P_RES
J37_41	371.880	0.0035067	P_COM
J37_42	379.212	0.0032945	P_RES
J37_43	383.714	0.0005910	P_RES
J37_44	391.083	0.0004896	P_RES
J37_45	397.418	0.0031151	P_COM
J37_46	401.802	0.0040113	P_IND
J37_47	408.664	0.0036261	P_IND
J37_48	414.971	0.0013774	P_RES
J37_49	419.903	0.0035222	P_RES
J37_50	427.037	0.0019767	P_COM
J37_51	432.394	0.0018581	P_COM
J37_52	438.845	0.0021948	P_RES
J37_53	443.890	0.0010297	P_RES
J37_54	449.781	0.0014342	P_RES
J37_55	456.079	0.0022846	P_RES
J37_56	461.147	0.0024844	P_RES
J37_57	468.689	0.0021392	P_RES
J37_58	474.044	0.0016150	P_RES
J37_59	479.489	0.0015480	P_RES
J37_60	486.512	0.0041905	P_IND
J37_61	492.555	0.0012667	P_RES
J37_62	496.781	0.0009685	P_RES
J37_63	503.642	0.0006534	P_RES
J37_64	509.544	0.0009906	P_RES
J38_1	119.725	0.0025256	P_RES
J38_2	125.735	0.0009427	P_RES
J38_3	130.987	0.0008240	P_RES
J38_4	139.014	0.0008657	P_RES
J38_5	145.301	0.0027507	P_COM
J38_6	152.234	0.0005884	P_RES
J38_7	157.619	0.0026204	P_COM
J38_8	165.162	0.0026277	P_COM
J38_9	169.887	0.0012008	P_RES
J38_10	177.058	0.0016717	P_COM
J38_11	184.222	0.0009125	P_RES
J38_12	189.048	0.0033880	P_RES
J38_13	195.331	0.0016232	P_RES
J38_14	202.711	0.0017530	P_COM
J38_15	209.344	0.0046468	P_COM
J38_16	215.789	0.0017911	P_RES
J38_17	221.373	0.0008629	P_RES
J38_18	227.643	0.0012049	P_RES
J38_19	232.734	0.0043385	P_COM
J38_20	241.077	0.0024734	P_RES
J38_21	246.816	0.0024476	P_RES
J38_22	252.543	0.0011438	P_RES
J38_23	259.178	0.0010411	P_RES
J38_24	265.652	0.0012015	P_RES
J38_25	270.498	0.0021398	P_IND
J38_26	278.050	0.0014538	P_RES
J38_27	283.059	0.0025332	P_IND
J38_28	290.684	0.0015987	P_RES
J38_29	295.473	0.0008962	P_RES
J38_30	302.102	0.0032353	P_IND
J38_31	309.228	0.0021884	P_COM
J38_32	314.215	0.0007479	P_RES
J38_33	321.592	0.0015407	P_RES
J38_34	327.316	0.0029493	P_IND
J38_35	334.486	0.0029436	P_IND
J38_36	339.651	0.0027627	P_IND
J38_37	346.966	0.0010852	P_RES
J38_38	352.426	0.0009667	P_RES
J38_39	359.038	0.0018715	P_COM
J38_40	363.827	0.0020372	P_COM
J38_41	369.293	0.0014993	P_COM
J38_42	376.573	0.0030919	P_IND
J38_43	381.710	0.0042686	P_COM
J38_44	389.422	0.0045008	P_RES
J38_45	393.832	0.0009420	P_RES
J38_46	400.837	0.0010136	P_RES
J38_47	406.017	0.0013396	P_RES
J38_48	411.455	0.0016590	P_COM
J38_49	419.710	0.0009767	P_RES
J38_50	424.978	0.0019679	P_COM
J38_51	430.596	0.0028097	P_COM
J38_52	435.759	0.0013202	P_RES
J38_53	441.873	0.0014273	P_RES
J38_54	448.206	0.0009566	P_RES
J38_55	453.965	0.0031717	P_COM
J38_56	459.070	0.0023002	P_RES
J38_57	465.648	0.0040758	P_COM
J38_58	471.587	0.0006000	P_RES
J38_59	477.816	0.0035868	P_COM
J38_60	484.139	0.0029102	P_RES
J38_61	489.100	0.0019245	P_COM
J38_62	496.703	0.0015453	P_RES
J38_63	501.292	0.0038948	P_COM
J38_64	506.929	0.0014123	P_COM
J39_1	116.704	0.0020735	P_IND
J39_2	124.594	0.0015293	P_COM
J39_3	131.275	0.0007820	P_RES
J39_4	136.684	0.0015902	P_COM
J39_5	142.481	0.0033904	P_COM
J39_6	149.248	0.0007077	P_RES
J39_7	155.334	0.0007859	P_RES
J39_8	161.963	0.0011639	P_RES
J39_9	167.853	0.0013095	P_RES
J39_10	175.715	0.0007147	P_RES
J39_11	182.272	0.0019590	P_RES
J39_12	187.035	0.0032356	P_IND
J39_13	192.956	0.0015040	P_COM
J39_14	201.386	0.0009090	P_RES
J39_15	207.093	0.0021115	P_COM
J39_16	213.603	0.0010718	P_RES
J39_17	218.122	0.0011645	P_COM
J39_18	225.061	0.0013159	P_RES
J39_19	232.576	0.0016479	P_COM
J39_20	239.292	0.0013546	P_COM
J39_21	243.872	0.0012653	P_RES
J39_22	251.611	0.0017601	P_COM
J39_23	255.960	0.0011669	P_RES
J39_24	262.491	0.0021443	P_RES
J39_25	268.724	0.0020999	P_RES
J39_26	275.245	0.0012399	P_RES
J39_27	281.547	0.0016326	P_RES
J39_28	288.394	0.0011085	P_COM
J39_29	293.863	0.0007383	P_RES
J39_30	301.798	0.0025203	P_RES
J39_31	305.979	0.0022794	P_RES
J39_32	314.218	0.0015336	P_RES
J39_33	318.732	0.0016259	P_RES
J39_34	325.469	0.0017463	P_RES
J39_35	331.926	0.0006062	P_RES
J39_36	337.574	0.0014073	P_RES
J39_37	344.713	0.0019331	P_RES
J39_38	351.079	0.0021380	P_IND
J39_39	355.687	0.0040812	P_RES
J39_40	362.103	0.0012574	P_RES
J39_41	369.564	0.0010578	P_RES
J39_42	374.387	0.0023940	P_IND
J39_43	380.454	0.0026261	P_RES
J39_44	386.936	0.0011721	P_RES
J39_45	392.094	0.0005882	P_RES
J39_46	399.251	0.0007333	P_RES
J39_47	405.867	0.0036574	P_IND
J39_48	411.747	0.0017033	P_RES
J39_49	417.661	0.0015557	P_RES
J39_50	423.822	0.0008919	P_RES
J39_51	427.577	0.0020115	P_COM
J39_52	433.648	0.0011054	P_RES
J39_53	440.357	0.0020297	P_COM
J39_54	445.773	0.0007741	P_RES
J39_55	451.824	0.0022658	P_COM
J39_56	459.438	0.0009406	P_RES
J39_57	465.319	0.0033415	P_IND
J39_58	470.771	0.0022984	P_COM
J39_59	476.647	0.0016866	P_COM
J39_60	481.764	0.0012204	P_RES
J39_61	487.375	0.0006720	P_RES
J39_62	494.008	0.0008626	P_RES
J39_63	499.740	0.0037407	P_IND
J39_64	505.434	0.0021411	P_RES
J40_1	116.301	0.0010965	P_RES
J40_2	122.615	0.0017508	P_RES
J40_3	128.168	0.0016242	P_RES
J40_4	135.327	0.0031508	P_COM
J40_5	140.687	0.0037864	P_IND
J40_6	148.084	0.0012798	P_RES
J40_7	152.786	0.0009970	P_RES
J40_8	159.405	0.0023591	P_RES
J40_9	165.978	0.0023012	P_RES
J40_10	173.842	0.0017738	P_RES
J40_11	178.435	0.0027595	P_IND
J40_12	184.895	0.0012080	P_RES
J40_13	192.506	0.0026242	P_IND
J40_14	198.819	0.0027457	P_COM
J40_15	204.528	0.0014715	P_RES
J40_16	210.996	0.0027237	P_IND
J40_17	216.554	0.0024228	P_COM
J40_18	224.654	0.0013457	P_RES
J40_19	230.650	0.0013467	P_COM
J40_20	237.207	0.0016925	P_COM
J40_21	241.537	0.0010972	P_RES
J40_22	249.441	0.0038938	P_IND
J40_23	255.841	0.0028835	P_IND
J40_24	261.239	0.0009081	P_RES
J40_25	267.574	0.0018204	P_RES
J40_26	274.612	0.0010684	P_RES
J40_27	280.056	0.0009059	P_RES
J40_28	286.211	0.0010129	P_RES
J40_29	292.797	0.0017338	P_RES
J40_30	299.469	0.0008863	P_RES
J40_31	305.151	0.0008580	P_RES
J40_32	310.297	0.0022635	P_IND
J40_33	317.212	0.0019391	P_COM
J40_34	323.516	0.0010219	P_RES
J40_35	329.936	0.0021991	P_COM
J40_36	336.214	0.0022682	P_COM
J40_37	341.313	0.0031589	P_IND
J40_38	347.515	0.0006026	P_RES
J40_39	353.995	0.0013736	P_RES
J40_40	359.362	0.0009539	P_RES
J40_41	366.734	0.0028724	P_COM
J40_42	371.948	0.0018162	P_RES
J40_43	378.616	0.0010179	P_RES
J40_44	384.691	0.0022677	P_COM
J40_45	392.043	0.0008636	P_RES
J40_46	396.847	0.0033198	P_COM
J40_47	402.497	0.0008235	P_RES
J40_48	407.822	0.0019641	P_COM
J40_49	414.502	0.0032467	P_IND
J40_50	420.431	0.0011450	P_RES
J40_51	427.566	0.0017907	P_RES
J40_52	432.063	0.0008238	P_RES
J40_53	439.723	0.0005313	P_RES
J40_54	445.164	0.0015046	P_RES
J40_55	450.731	0.0023873	P_RES
J40_56	455.892	0.0018999	P_COM
J40_57	462.581	0.0025947	P_COM
J40_58	467.197	0.0026844	P_IND
J40_59	473.647	0.0025595	P_COM
J40_60	479.821	0.0023991	P_IND
J40_61	486.948	0.0014810	P_RES
J40_62	492.539	0.0006680	P_RES
J40_63	496.577	0.0020279	P_RES
J40_64	503.380	0.0012383	P_RES
J41_1	114.852	0.0010713	P_RES
J41_2	119.589	0.0022913	P_COM
J41_3	125.622	0.0014697	P_COM
J41_4	132.557	0.0025941	P_RES
J41_5	140.361	0.0028762	P_RES
J41_6	145.423	0.0025819	P_RES
J41_7	152.572	0.0013601	P_RES
J41_8	159.343	0.0012110	P_RES
J41_9	165.418	0.0013628	P_RES
J41_10	170.776	0.0028574	P_COM
J41_11	177.913	0.0013068	P_RES
J41_12	184.691	0.0010848	P_RES
J41_13	189.534	0.0009441	P_RES
J41_14	196.669	0.0025498	P_COM
J41_15	203.972	0.0005786	P_RES
J41_16	208.715	0.0006225	P_RES
J41_17	215.772	0.0039127	P_IND
J41_18	221.288	0.0016456	P_RES
J41_19	229.429	0.0009828	P_COM
J41_20	235.362	0.0014407	P_RES
J41_21	241.690	0.0010233	P_RES
J41_22	247.568	0.0009406	P_RES
J41_23	254.320	0.0046346	P_RES
J41_24	258.671	0.0010754	P_RES
J41_25	266.441	0.0014049	P_COM
J41_26	271.291	0.0014848	P_RES
J41_27	277.464	0.0012837	P_RES
J41_28	284.050	0.0016881	P_RES
J41_29	291.450	0.0024058	P_RES
J41_30	297.446	0.0005282	P_RES
J41_31	303.504	0.0017122	P_COM
J41_32	310.474	0.0011333	P_RES
J41_33	314.664	0.0012811	P_RES
J41_34	321.252	0.0020460	P_COM
J41_35	328.787	0.0011903	P_RES
J41_36	334.386	0.0011024	P_RES
J41_37	340.574	0.0007620	P_RES
J41_38	346.804	0.0013097	P_RES
J41_39	351.758	0.0009748	P_RES
J41_40	358.381	0.0012602	P_RES
J41_41	365.335	0.0009079	P_RES
J41_42	370.501	0.0031816	P_RES
J41_43	377.233	0.0018853	P_RES
J41_44	383.773	0.0011981	P_COM
J41_45	388.456	0.0019014	P_RES
J41_46	395.856	0.0013149	P_RES
J41_47	401.615	0.0057466	P_IND
J41_48	407.558	0.0015826	P_RES
J41_49	414.059	0.0010315	P_RES
J41_50	418.812	0.0010959	P_RES
J41_51	425.107	0.0036928	P_RES
J41_52	432.134	0.0004645	P_RES
J41_53	436.426	0.0011155	P_RES
J41_54	443.342	0.0013670	P_RES
J41_55	447.845	0.0008794	P_RES
J41_56	453.592	0.0053687	P_COM
J41_57	459.726	0.0011505	P_RES
J41_58	466.619	0.0011452	P_RES
J41_59	473.010	0.0009450	P_RES
J41_60	478.227	0.0015838	P_COM
J41_61	485.228	0.0015217	P_RES
J41_62	490.774	0.0007632	P_RES
J41_63	495.993	0.0007129	P_RES
J41_64	501.551	0.0009554	P_RES
J42_1	111.941	0.0013764	P_RES
J42_2	118.605	0.0017816	P_RES
J42_3	125.865	0.0027190	P_RES
J42_4	130.615	0.0008688	P_RES
J42_5	137.543	0.0013664	P_RES
J42_6	143.578	0.0015173	P_RES
J42_7	151.390	0.0008843	P_RES
J42_8	157.307	0.0009850	P_RES
J42_9	162.611	0.0013784	P_RES
J42_10	168.333	0.0011550	P_RES
J42_11	175.315	0.0021518	P_COM
J42_12	182.240	0.0018391	P_RES
J42_13	187.582	0.0024025	P_RES
J42_14	195.477	0.0010643	P_RES
J42_15	200.060	0.0016920	P_COM
J42_16	206.664	0.0011485	P_RES
J42_17	213.980	0.0030221	P_COM
J42_18	220.156	0.0034918	P_IND
J42_19	225.815	0.0053477	P_IND
J42_20	233.764	0.0041569	P_IND
J42_21	238.094	0.0010740	P_RES
J42_22	245.824	0.0013651	P_RES
J42_23	250.909	0.0010091	P_RES
J42_24	257.293	0.0008544	P_RES
J42_25	263.721	0.0015908	P_RES
J42_26	269.484	0.0044346	P_IND
J42_27	275.609	0.0033976	P_COM
J42_28	283.759	0.0018796	P_RES
J42_29	288.912	0.0007204	P_RES
J42_30	294.846	0.0020710	P_RES
J42_31	300.758	0.0014365	P_RES
J42_32	307.221	0.0026771	P_RES
J42_33	314.875	0.0013191	P_RES
J42_34	319.651	0.0036808	P_IND
J42_35	325.249	0.0010428	P_RES
J42_36	333.116	0.0021169	P_COM
J42_37	338.379	0.0013205	P_COM
J42_38	344.685	0.0015125	P_RES
J42_39	350.743	0.0019738	P_RES
J42_40	357.980	0.0015817	P_RES
J42_41	363.005	0.0013492	P_RES
J42_42	367.875	0.0023458	P_IND
J42_43	375.713	0.0032274	P_RES
J42_44	380.150	0.0005343	P_RES
J42_45	388.256	0.0027931	P_RES
J42_46	392.795	0.0010000	P_RES
J42_47	399.275	0.0024528	P_IND
J42_48	405.255	0.0020063	P_RES
J42_49	412.325	0.0007604	P_RES
J42_50	417.744	0.0008322	P_RES
J42_51	422.609	0.0018381	P_RES
J42_52	429.598	0.0004783	P_RES
J42_53	435.395	0.0010138	P_RES
J42_54	440.546	0.0005982	P_RES
J42_55	447.072	0.0011830	P_RES
J42_56	451.941	0.0007061	P_RES
J42_57	459.011	0.0015929	P_RES
J42_58	463.658	0.0006892	P_RES
J42_59	471.035	0.0018901	P_RES
J42_60	476.381	0.0009690	P_RES
J42_61	481.187	0.0021012	P_COM
J42_62	488.573	0.0015718	P_RES
J42_63	492.862	0.0037502	P_IND
J42_64	500.775	0.0008298	P_RES
J43_1	111.285	0.0009444	P_RES
J43_2	116.993	0.0009273	P_RES
J43_3	122.188	0.0020639	P_RES
J43_4	129.976	0.0050367	P_COM
J43_5	136.716	0.0008865	P_RES
J43_6	141.910	0.0023153	P_RES
J43_7	149.523	0.0028280	P_RES
J43_8	154.523	0.0006221	P_RES
J43_9	161.365	0.0014247	P_RES
J43_10	168.319	0.0019513	P_RES
J43_11	174.198	0.0013860	P_RES
J43_12	180.498	0.0029200	P_RES
J43_13	185.794	0.0023024	P_IND
J43_14	192.742	0.0024807	P_COM
J43_15	199.292	0.0028863	P_COM
J43_16	204.857	0.0008454	P_RES
J43_17	211.278	0.0019905	P_RES
J43_18	217.311	0.0008355	P_RES
J43_19	223.472	0.0009256	P_RES
J43_20	231.583	0.0008966	P_COM
J43_21	237.943	0.0005873	P_RES
J43_22	243.042	0.0015560	P_RES
J43_23	250.936	0.0030984	P_COM
J43_24	255.429	0.0026978	P_IND
J43_25	261.587	0.0010406	P_RES
J43_26	267.653	0.0009505	P_RES
J43_27	275.144	0.0039692	P_RES
J43_28	279.897	0.0008005	P_RES
J43_29	288.288	0.0020765	P_RES
J43_30	294.228	0.0007863	P_RES
J43_31	300.650	0.0015234	P_RES
J43_32	306.197	0.0007307	P_RES
J43_33	311.681	0.0008401	P_RES
J43_34	318.031	0.0007875	P_RES
J43_35	325.136	0.0016913	P_COM
J43_36	330.010	0.0029855	P_IND
J43_37	336.255	0.0007740	P_RES
J43_38	343.399	0.0016053	P_RES
J43_39	348.932	0.0023594	P_RES
J43_40	355.082	0.0029714	P_IND
J43_41	359.973	0.0044667	P_COM
J43_42	367.497	0.0010469	P_RES
J43_43	374.257	0.0047052	P_COM
J43_44	378.769	0.0008238	P_RES
J43_45	385.255	0.0009981	P_RES
J43_46	390.508	0.0011566	P_RES
J43_47	397.827	0.0014150	P_RES
J43_48	402.518	0.0027711	P_COM
J43_49	408.905	0.0013394	P_COM
J43_50	415.672	0.0040118	P_RES
J43_51	422.456	0.0031294	P_COM
J43_52	428.470	0.0011821	P_RES
J43_53	432.472	0.0003464	P_RES
J43_54	439.080	0.0026567	P_COM
J43_55	444.706	0.0020977	P_RES
J43_56	450.048	0.0009669	P_RES
J43_57	456.043	0.0021908	P_COM
J43_58	463.820	0.0033523	P_COM
J43_59	468.212	0.0007677	P_RES
J43_60	474.349	0.0029692	P_COM
J43_61	480.984	0.0014066	P_RES
J43_62	485.675	0.0051911	P_RES
J43_63	492.219	0.0025869	P_RES
J43_64	497.985	0.0014825	P_RES
J44_1	107.345	0.0014288	P_RES
J44_2	115.098	0.0021799	P_RES
J44_3	121.909	0.0009305	P_RES
J44_4	128.537	0.0008939	P_RES
J44_5	134.126	0.0011326	P_RES
J44_6	140.662	0.0036388	P_IND
J44_7	146.369	0.0006694	P_RES
J44_8	152.488	0.0007722	P_RES
J44_9	159.115	0.0009090	P_RES
J44_10	164.757	0.0013825	P_IND
J44_11	172.217	0.0030651	P_COM
J44_12	178.981	0.0008587	P_RES
J44_13	183.676	0.0009456	P_RES
J44_14	190.440	0.0019263	P_COM
J44_15	197.155	0.0010692	P_RES
J44_16	203.042	0.0010132	P_RES
J44_17	209.815	0.0014793	P_RES
J44_18	216.457	0.0012212	P_RES
J44_19	222.100	0.0025332	P_IND
J44_20	228.263	0.0028206	P_IND
J44_21	234.600	0.0019728	P_RES
J44_22	241.993	0.0009688	P_RES
J44_23	247.871	0.0027284	P_COM
J44_24	253.222	0.0028979	P_COM
J44_25	260.683	0.0015141	P_RES
J44_26	267.059	0.0012315	P_RES
J44_27	271.746	0.0018984	P_IND
J44_28	278.278	0.0015214	P_COM
J44_29	286.153	0.0012605	P_RES
J44_30	292.551	0.0017728	P_IND
J44_31	298.342	0.0036443	P_RES
J44_32	303.984	0.0019012	P_IND
J44_33	309.122	0.0020503	P_IND
J44_34	317.156	0.0012958	P_RES
J44_35	323.101	0.0011028	P_RES
J44_36	329.638	0.0018452	P_COM
J44_37	334.397	0.0019278	P_RES
J44_38	341.914	0.0010200	P_RES
J44_39	347.651	0.0009638	P_RES
J44_40	354.060	0.0016261	P_COM
J44_41	359.085	0.0015423	P_COM
J44_42	364.289	0.0031701	P_RES
J44_43	371.868	0.0015038	P_IND
J44_44	377.982	0.0018761	P_RES
J44_45	382.411	0.0015656	P_COM
J44_46	390.187	0.0015565	P_RES
J44_47	396.542	0.0017527	P_RES
J44_48	401.012	0.0024239	P_COM
J44_49	408.252	0.0008998	P_RES
J44_50	413.123	0.0025995	P_COM
J44_51	419.680	0.0022805	P_COM
J44_52	425.677	0.0014583	P_RES
J44_53	430.725	0.0014533	P_RES
J44_54	437.906	0.0018305	P_RES
J44_55	443.152	0.0010277	P_RES
J44_56	448.418	0.0011876	P_RES
J44_57	455.880	0.0010284	P_RES
J44_58	459.871	0.0020532	P_RES
J44_59	467.425	0.0015240	P_IND
J44_60	471.940	0.0003707	P_RES
J44_61	479.328	0.0010915	P_RES
J44_62	485.322	0.0029601	P_RES
J44_63	489.595	0.0014830	P_RES
J44_64	496.287	0.0011231	P_RES
J45_1	106.539	0.0045404	P_COM
J45_2	111.776	0.0015374	P_RES
J45_3	120.211	0.0007769	P_RES
J45_4	126.762	0.0008216	P_RES
J45_5	132.707	0.0032468	P_IND
J45_6	138.246	0.0023533	P_IND
J45_7	145.871	0.0008461	P_RES
J45_8	152.107	0.0008789	P_RES
J45_9	156.305	0.0010458	P_RES
J45_10	164.045	0.0015529	P_RES
J45_11	170.374	0.0020082	P_IND
J45_12	177.538	0.0012875	P_RES
J45_13	182.501	0.0012147	P_RES
J45_14	189.224	0.0027216	P_COM
J45_15	196.390	0.0005984	P_RES
J45_16	200.911	0.0013533	P_RES
J45_17	207.826	0.0042441	P_COM
J45_18	214.084	0.0029443	P_COM
J45_19	220.547	0.0009470	P_RES
J45_20	227.750	0.0012301	P_RES
J45_21	232.835	0.0009670	P_RES
J45_22	238.737	0.0006284	P_RES
J45_23	244.946	0.0031147	P_RES
J45_24	251.476	0.0023304	P_COM
J45_25	258.932	0.0007736	P_RES
J45_26	265.501	0.0007396	P_RES
J45_27	270.587	0.0026234	P_COM
J45_28	277.458	0.0006990	P_RES
J45_29	284.666	0.0006827	P_RES
J45_30	289.950	0.0019245	P_RES
J45_31	295.548	0.0015890	P_RES
J45_32	302.831	0.0007634	P_RES
J45_33	308.744	0.0023202	P_RES
J45_34	313.647	0.0016859	P_COM
J45_35	321.229	0.0006631	P_RES
J45_36	327.859	0.0010828	P_RES
J45_37	333.817	0.0023338	P_RES
J45_38	339.947	0.0013328	P_RES
J45_39	344.911	0.0020196	P_RES
J45_40	351.271	0.0005099	P_RES
J45_41	357.193	0.0023369	P_RES
J45_42	363.074	0.0041046	P_RES
J45_43	369.756	0.0042505	P_IND
J45_44	375.040	0.0031399	P_IND
J45_45	381.229	0.0007394	P_RES
J45_46	388.817	0.0010188	P_RES
J45_47	393.496	0.0041629	P_IND
J45_48	400.683	0.0019766	P_COM
J45_49	406.543	0.0011365	P_RES
J45_50	411.255	0.0010718	P_RES
J45_51	417.497	0.0024639	P_RES
J45_52	423.257	0.0008482	P_RES
J45_53	430.405	0.0011354	P_RES
J45_54	435.467	0.0011415	P_RES
J45_55	441.561	0.0017613	P_RES
J45_56	447.775	0.0017160	P_RES
J45_57	453.262	0.0029563	P_COM
J45_58	458.890	0.0009560	P_COM
J45_59	465.974	0.0037027	P_COM
J45_60	471.739	0.0025774	P_RES
J45_61	477.309	0.0012066	P_RES
J45_62	483.012	0.0008010	P_RES
J45_63	487.968	0.0015105	P_RES
J45_64	495.507	0.0009914	P_RES
J46_1	104.477	0.0026413	P_RES
J46_2	109.900	0.0009675	P_RES
J46_3	116.937	0.0014346	P_COM
J46_4	124.041	0.0009898	P_RES
J46_5	130.965	0.0029732	P_COM
J46_6	136.452	0.0016359	P_RES
J46_7	143.136	0.0013741	P_COM
J46_8	148.627	0.0017488	P_RES
J46_9	154.463	0.0009176	P_RES
J46_10	161.861	0.0009412	P_RES
J46_11	168.878	0.0035522	P_COM
J46_12	175.368	0.0011862	P_RES
J46_13	181.563	0.0018400	P_COM
J46_14	186.979	0.0015693	P_RES
J46_15	192.618	0.0031534	P_IND
J46_16	199.236	0.0010622	P_RES
J46_17	206.971	0.0014336	P_RES
J46_18	211.929	0.0049074	P_IND
J46_19	218.290	0.0022943	P_RES
J46_20	226.169	0.0016147	P_RES
J46_21	231.403	0.0020259	P_IND
J46_22	237.875	0.0010597	P_RES
J46_23	245.108	0.0004614	P_RES
J46_24	250.616	0.0033503	P_COM
J46_25	257.615	0.0031017	P_COM
J46_26	262.695	0.0037889	P_IND
J46_27	268.396	0.0026576	P_COM
J46_28	274.639	0.0025783	P_COM
J46_29	282.013	0.0020903	P_RES
J46_30	287.935	0.0022810	P_RES
J46_31	293.520	0.0021862	P_RES
J46_32	301.287	0.0016360	P_RES
J46_33	307.410	0.0023824	P_RES
J46_34	313.775	0.0021080	P_COM
J46_35	319.552	0.0008353	P_RES
J46_36	326.000	0.0016254	P_RES
J46_37	331.226	0.0024041	P_COM
J46_38	336.142	0.0030533	P_COM
J46_39	344.097	0.0022953	P_RES
J46_40	349.022	0.0024005	P_IND
J46_41	356.334	0.0005464	P_RES
J46_42	361.618	0.0035587	P_IND
J46_43	367.049	0.0013452	P_RES
J46_44	373.984	0.0008544	P_RES
J46_45	380.086	0.0010697	P_RES
J46_46	386.109	0.0038544	P_COM
J46_47	392.551	0.0012544	P_RES
J46_48	397.577	0.0006853	P_RES
J46_49	402.846	0.0028175	P_COM
J46_50	410.837	0.0036104	P_IND
J46_51	415.905	0.0048118	P_IND
J46_52	422.781	0.0024054	P_IND
J46_53	428.802	0.0014354	P_RES
J46_54	433.865	0.0015406	P_RES
J46_55	439.671	0.0018762	P_RES
J46_56	445.949	0.0035077	P_IND
J46_57	452.570	0.0008135	P_RES
J46_58	456.378	0.0022212	P_RES
J46_59	464.028	0.0007979	P_RES
J46_60	468.218	0.0012938	P_RES
J46_61	474.052	0.0020073	P_RES
J46_62	481.661	0.0008941	P_RES
J46_63	486.968	0.0017596	P_RES
J46_64	492.478	0.0020465	P_COM
J47_1	101.725	0.0062427	P_RES
J47_2	108.934	0.0006891	P_RES
J47_3	114.595	0.0012663	P_COM
J47_4	122.931	0.0015183	P_COM
J47_5	128.570	0.0012741	P_RES
J47_6	134.176	0.0009447	P_RES
J47_7	140.421	0.0021072	P_COM
J47_8	146.880	0.0039370	P_IND
J47_9	154.231	0.0023358	P_COM
J47_10	159.710	0.0005182	P_RES
J47_11	167.168	0.0021710	P_RES
J47_12	172.713	0.0024178	P_IND
J47_13	179.756	0.0016245	P_RES
J47_14	185.263	0.0009059	P_RES
J47_15	192.455	0.0037013	P_IND
J47_16	198.777	0.0020044	P_RES
J47_17	205.165	0.0022640	P_RES
J47_18	211.735	0.0010498	P_RES
J47_19	216.236	0.0043738	P_IND
J47_20	223.474	0.0007353	P_RES
J47_21	229.667	0.0020802	P_RES
J47_22	235.106	0.0036480	P_COM
J47_23	241.855	0.0014001	P_COM
J47_24	248.370	0.0037836	P_IND
J47_25	254.253	0.0009937	P_RES
J47_26	262.152	0.0020835	P_RES
J47_27	266.747	0.0026797	P_COM
J47_28	273.348	0.0014485	P_COM
J47_29	280.753	0.0007526	P_RES
J47_30	287.339	0.0009595	P_RES
J47_31	293.327	0.0003802	P_RES
J47_32	298.340	0.0013865	P_COM
J47_33	305.026	0.0033420	P_RES
J47_34	311.484	0.0018323	P_RES
J47_35	315.954	0.0006970	P_RES
J47_36	322.083	0.0026774	P_COM
J47_37	330.293	0.0015377	P_RES
J47_38	335.397	0.0012579	P_RES
J47_39	342.092	0.0012211	P_RES
J47_40	348.622	0.0014713	P_COM
J47_41	352.764	0.0024852	P_COM
J47_42	359.675	0.0032865	P_COM
J47_43	365.986	0.0007519	P_RES
J47_44	372.345	0.0013724	P_RES
J47_45	378.226	0.0026664	P_COM
J47_46	384.692	0.0008064	P_RES
J47_47	390.416	0.0017971	P_IND
J47_48	394.958	0.0014076	P_RES
J47_49	401.756	0.0015947	P_RES
J47_50	408.276	0.0030084	P_IND
J47_51	414.619	0.0027919	P_COM
J47_52	419.685	0.0011957	P_RES
J47_53	425.657	0.0019079	P_COM
J47_54	432.984	0.0015682	P_RES
J47_55	438.936	0.0016658	P_RES
J47_56	443.643	0.0023083	P_IND
J47_57	448.663	0.0037787	P_IND
J47_58	455.846	0.0027897	P_COM
J47_59	461.569	0.0015515	P_RES
J47_60	466.751	0.0035588	P_RES
J47_61	472.621	0.0013420	P_RES
J47_62	477.869	0.0021846	P_RES
J47_63	484.952	0.0017180	P_COM
J47_64	490.895	0.0027384	P_RES
J48_1	100.028	0.0013059	P_RES
J48_2	106.221	0.0043149	P_COM
J48_3	112.585	0.0010160	P_RES
J48_4	120.537	0.0010478	P_RES
J48_5	126.315	0.0013483	P_RES
J48_6	132.467	0.0003935	P_RES
J48_7	138.710	0.0015706	P_COM
J48_8	145.928	0.0012547	P_RES
J48_9	152.307	0.0012114	P_COM
J48_10	158.320	0.0010364	P_RES
J48_11	164.484	0.0012255	P_RES
J48_12	171.097	0.0013425	P_RES
J48_13	177.460	0.0016331	P_RES
J48_14	183.535	0.0014132	P_RES
J48_15	189.246	0.0013883	P_COM
J48_16	196.867	0.0012958	P_RES
J48_17	201.985	0.0020064	P_COM
J48_18	208.921	0.0031490	P_IND
J48_19	214.289	0.0009078	P_RES
J48_20	222.199	0.0021930	P_COM
J48_21	228.801	0.0007786	P_RES
J48_22	233.290	0.0006892	P_RES
J48_23	240.587	0.0023910	P_COM
J48_24	246.863	0.0018563	P_RES
J48_25	251.981	0.0011681	P_RES
J48_26	258.762	0.0006971	P_RES
J48_27	265.486	0.0011014	P_COM
J48_28	271.628	0.0030593	P_COM
J48_29	277.282	0.0015127	P_RES
J48_30	284.753	0.0035687	P_IND
J48_31	290.254	0.0024231	P_IND
J48_32	295.762	0.0015097	P_RES
J48_33	303.085	0.0013918	P_RES
J48_34	309.057	0.0014077	P_RES
J48_35	315.735	0.0018518	P_IND
J48_36	321.054	0.0030990	P_IND
J48_37	328.494	0.0025151	P_RES
J48_38	332.625	0.0012701	P_RES
J48_39	340.082	0.0011537	P_RES
J48_40	345.476	0.0023264	P_IND
J48_41	351.641	0.0009621	P_RES
J48_42	356.993	0.0025920	P_RES
J48_43	363.713	0.0016233	P_IND
J48_44	369.987	0.0022578	P_IND
J48_45	376.230	0.0022426	P_RES
J48_46	381.586	0.0021124	P_RES
J48_47	388.694	0.0017016	P_COM
J48_48	394.835	0.0019774	P_RES
J48_49	399.248	0.0014046	P_RES
J48_50	405.799	0.0018967	P_RES
J48_51	413.137	0.0012049	P_RES
J48_52	419.239	0.0007522	P_RES
J48_53	424.989	0.0015457	P_RES
J48_54	429.687	0.0011738	P_RES
J48_55	436.749	0.0017036	P_RES
J48_56	441.808	0.0008131	P_RES
J48_57	447.201	0.0013173	P_RES
J48_58	454.393	0.0030695	P_RES
J48_59	460.699	0.0009950	P_RES
J48_60	466.471	0.0015609	P_RES
J48_61	471.627	0.0023908	P_RES
J48_62	477.145	0.0008194	P_RES
J48_63	483.299	0.0012333	P_RES
J48_64	488.456	0.0019758	P_IND
J49_1	98.165	0.0021477	P_COM
J49_2	104.866	0.0005591	P_RES
J49_3	111.208	0.0033252	P_COM
J49_4	118.689	0.0013615	P_RES
J49_5	125.294	0.0037619	P_IND
J49_6	131.239	0.0013571	P_RES
J49_7	138.366	0.0021153	P_RES
J49_8	143.623	0.0009099	P_RES
J49_9	150.966	0.0019407	P_RES
J49_10	156.551	0.0010952	P_RES
J49_11	163.064	0.0020840	P_COM
J49_12	169.113	0.0015459	P_RES
J49_13	176.136	0.0013806	P_COM
J49_14	182.347	0.0012242	P_RES
J49_15	187.654	0.0025337	P_RES
J49_16	195.513	0.0018291	P_RES
J49_17	200.893	0.0039469	P_IND
J49_18	206.881	0.0015449	P_RES
J49_19	213.050	0.0016571	P_RES
J49_20	219.037	0.0011836	P_RES
J49_21	227.283	0.0007580	P_RES
J49_22	231.547	0.0004610	P_RES
J49_23	239.136	0.0016366	P_COM
J49_24	246.016	0.0028274	P_RES
J49_25	251.310	0.0012729	P_RES
J49_26	256.775	0.0016584	P_COM
J49_27	263.227	0.0015603	P_RES
J49_28	271.288	0.0014637	P_IND
J49_29	275.582	0.0013246	P_RES
J49_30	282.365	0.0009399	P_RES
J49_31	289.777	0.0008684	P_RES
J49_32	295.433	0.0025119	P_COM
J49_33	300.528	0.0007198	P_RES
J49_34	307.517	0.0018898	P_RES
J49_35	312.633	0.0009528	P_RES
J49_36	319.661	0.0014898	P_RES
J49_37	325.498	0.0013411	P_RES
J49_38	332.513	0.0012056	P_RES
J49_39	338.777	0.0025726	P_COM
J49_40	344.759	0.0038015	P_IND
J49_41	350.463	0.0027855	P_RES
J49_42	355.543	0.0016335	P_RES
J49_43	361.725	0.0012657	P_RES
J49_44	368.369	0.0007078	P_RES
J49_45	375.329	0.0046891	P_RES
J49_46	380.451	0.0020694	P_COM
J49_47	386.078	0.0060876	P_COM
J49_48	391.952	0.0021481	P_RES
J49_49	399.057	0.0030010	P_IND
J49_50	404.922	0.0015429	P_RES
J49_51	409.659	0.0023569	P_COM
J49_52	415.637	0.0016278	P_COM
J49_53	422.314	0.0020517	P_COM
J49_54	427.698	0.0007234	P_RES
J49_55	434.495	0.0020330	P_RES
J49_56	441.150	0.0009855	P_RES
J49_57	446.168	0.0009176	P_RES
J49_58	450.813	0.0017014	P_COM
J49_59	456.961	0.0027745	P_IND
J49_60	464.801	0.0024607	P_IND
J49_61	468.825	0.0010251	P_RES
J49_62	475.000	0.0013712	P_RES
J49_63	480.070	0.0019254	P_RES
J49_64	487.458	0.0012566	P_RES
J50_1	97.643	0.0017125	P_RES
J50_2	103.731	0.0026326	P_COM
J50_3	110.879	0.0008912	P_RES
J50_4	115.743	0.0006675	P_RES
J50_5	121.725	0.0023931	P_COM
J50_6	128.720	0.0025969	P_RES
J50_7	136.416	0.0025821	P_IND
J50_8	143.206	0.0011398	P_RES
J50_9	147.373	0.0013478	P_RES
J50_10	153.681	0.0017353	P_RES
J50_11	160.281	0.0017145	P_RES
J50_12	168.154	0.0028748	P_COM
J50_13	173.398	0.0016941	P_RES
J50_14	180.315	0.0019425	P_COM
J50_15	186.451	0.0029382	P_COM
J50_16	192.804	0.0011727	P_RES
J50_17	198.230	0.0004783	P_RES
J50_18	205.916	0.0022195	P_RES
J50_19	212.463	0.0005285	P_RES
J50_20	218.083	0.0022270	P_COM
J50_21	223.768	0.0006514	P_RES
J50_22	230.424	0.0026906	P_RES
J50_23	236.470	0.0025620	P_RES
J50_24	243.414	0.0010376	P_RES
J50_25	249.427	0.0010205	P_RES
J50_26	254.874	0.0008660	P_RES
J50_27	261.467	0.0006099	P_RES
J50_28	268.965	0.0016316	P_COM
J50_29	275.524	0.0010585	P_RES
J50_30	280.910	0.0020704	P_COM
J50_31	287.762	0.0016652	P_RES
J50_32	292.285	0.0010864	P_RES
J50_33	300.490	0.0019944	P_RES
J50_34	305.842	0.0015757	P_RES
J50_35	310.515	0.0022075	P_RES
J50_36	317.820	0.0028082	P_COM
J50_37	323.570	0.0015009	P_RES
J50_38	331.114	0.0011888	P_RES
J50_39	337.103	0.0021320	P_RES
J50_40	342.327	0.0011516	P_RES
J50_41	347.914	0.0003927	P_RES
J50_42	354.877	0.0034214	P_COM
J50_43	360.857	0.0033231	P_COM
J50_44	367.065	0.0030842	P_RES
J50_45	371.677	0.0011332	P_RES
J50_46	377.644	0.0022171	P_RES
J50_47	383.492	0.0008129	P_RES
J50_48	391.122	0.0011008	P_RES
J50_49	395.885	0.0011624	P_RES
J50_50	402.221	0.0020754	P_IND
J50_51	407.569	0.0013290	P_RES
J50_52	414.112	0.0008821	P_RES
J50_53	420.928	0.0024637	P_COM
J50_54	426.387	0.0010789	P_RES
J50_55	433.526	0.0005466	P_RES
J50_56	439.412	0.0007303	P_RES
J50_57	443.324	0.0033896	P_RES
J50_58	449.494	0.0010161	P_RES
J50_59	456.024	0.0005700	P_RES
J50_60	461.881	0.0013519	P_RES
J50_61	466.564	0.0011759	P_RES
J50_62	473.799	0.0020720	P_COM
J50_63	480.167	0.0009859	P_RES
J50_64	485.421	0.0016101	P_RES
J51_1	95.702	0.0015006	P_RES
J51_2	101.577	0.0009130	P_RES
J51_3	108.899	0.0025324	P_IND
J51_4	113.958	0.0016127	P_RES
J51_5	120.240	0.0031684	P_IND
J51_6	126.330	0.0010757	P_COM
J51_7	134.236	0.0015077	P_RES
J51_8	141.139	0.0012784	P_IND
J51_9	145.617	0.0024429	P_COM
J51_10	153.232	0.0010282	P_RES
J51_11	158.322	0.0014571	P_COM
J51_12	165.301	0.0017085	P_RES
J51_13	171.964	0.0014061	P_RES
J51_14	178.193	0.0028902	P_RES
J51_15	184.189	0.0023447	P_RES
J51_16	190.658	0.0013692	P_RES
J51_17	196.308	0.0010522	P_RES
J51_18	203.184	0.0008427	P_RES
J51_19	210.655	0.0012722	P_RES
J51_20	215.555	0.0024108	P_IND
J51_21	222.610	0.0014645	P_COM
J51_22	228.720	0.0024552	P_RES
J51_23	234.240	0.0024392	P_RES
J51_24	240.781	0.0015200	P_RES
J51_25	247.512	0.0021794	P_IND
J51_26	254.635	0.0010051	P_RES
J51_27	261.168	0.0011960	P_COM
J51_28	267.039	0.0008784	P_RES
J51_29	272.881	0.0004064	P_RES
J51_30	278.182	0.0018889	P_RES
J51_31	286.292	0.0008207	P_RES
J51_32	290.595	0.0020087	P_RES
J51_33	296.916	0.0043670	P_IND
J51_34	302.972	0.0021675	P_RES
J51_35	309.718	0.0020329	P_COM
J51_36	315.244	0.0018694	P_IND
J51_37	322.678	0.0012577	P_RES
J51_38	328.051	0.0033731	P_RES
J51_39	334.445	0.0010971	P_RES
J51_40	340.561	0.0028027	P_COM
J51_41	345.772	0.0011425	P_RES
J51_42	351.918	0.0022865	P_COM
J51_43	359.410	0.0010407	P_RES
J51_44	363.922	0.0009948	P_RES
J51_45	371.430	0.0035509	P_COM
J51_46	376.601	0.0024823	P_IND
J51_47	383.742	0.0016739	P_RES
J51_48	389.281	0.0035543	P_IND
J51_49	393.755	0.0030038	P_IND
J51_50	401.310	0.0011829	P_RES
J51_51	407.489	0.0022428	P_RES
J51_52	412.024	0.0018456	P_RES
J51_53	419.165	0.0023440	P_RES
J51_54	423.683	0.0040926	P_RES
J51_55	429.806	0.0035952	P_IND
J51_56	435.825	0.0007429	P_RES
J51_57	443.398	0.0011242	P_RES
J51_58	449.443	0.0016006	P_RES
J51_59	453.132	0.0023760	P_COM
J51_60	459.392	0.0014417	P_RES
J51_61	467.066	0.0010952	P_COM
J51_62	471.536	0.0012692	P_RES
J51_63	476.987	0.0009201	P_RES
J51_64	484.169	0.0045693	P_IND
J52_1	93.570	0.0011417	P_RES
J52_2	99.465	0.0018103	P_RES
J52_3	105.667	0.0019727	P_COM
J52_4	112.609	0.0006967	P_RES
J52_5	119.678	0.0008406	P_RES
J52_6	124.938	0.0030762	P_COM
J52_7	132.374	0.0011633	P_RES
J52_8	139.438	0.0018311	P_COM
J52_9	145.160	0.0031780	P_COM
J52_10	150.227	0.0014249	P_RES
J52_11	156.478	0.0009498	P_RES
J52_12	162.826	0.0024871	P_IND
J52_13	169.754	0.0009898	P_RES
J52_14	177.088	0.0017285	P_COM
J52_15	182.019	0.0011321	P_RES
J52_16	189.541	0.0013662	P_RES
J52_17	195.082	0.0004744	P_RES
J52_18	201.955	0.0007892	P_RES
J52_19	209.238	0.0006149	P_RES
J52_20	214.658	0.0010958	P_RES
J52_21	221.193	0.0026613	P_RES
J52_22	226.412	0.0010681	P_RES
J52_23	232.904	0.0012136	P_RES
J52_24	240.523	0.0011716	P_RES
J52_25	246.556	0.0017985	P_COM
J52_26	252.648	0.0039859	P_RES
J52_27	258.030	0.0007834	P_RES
J52_28	264.016	0.0053656	P_COM
J52_29	271.287	0.0012201	P_RES
J52_30	277.487	0.0080611	P_COM
J52_31	283.591	0.0006902	P_RES
J52_32	288.756	0.0012096	P_RES
J52_33	296.642	0.0015182	P_RES
J52_34	302.299	0.0012052	P_COM
J52_35	307.520	0.0017046	P_COM
J52_36	313.359	0.0009741	P_RES
J52_37	319.240	0.0040272	P_IND
J52_38	325.715	0.0009917	P_RES
J52_39	333.568	0.0007765	P_RES
J52_40	337.736	0.0008897	P_RES
J52_41	345.752	0.0026249	P_COM
J52_42	349.751	0.0019210	P_RES
J52_43	356.427	0.0022478	P_COM
J52_44	362.614	0.0017045	P_COM
J52_45	368.759	0.0012485	P_RES
J52_46	375.275	0.0041663	P_IND
J52_47	381.376	0.0011326	P_RES
J52_48	386.341	0.0020916	P_RES
J52_49	393.101	0.0014730	P_COM
J52_50	397.880	0.0011449	P_RES
J52_51	406.023	0.0009504	P_RES
J52_52	411.578	0.0036970	P_IND
J52_53	416.970	0.0037552	P_RES
J52_54	422.041	0.0011573	P_RES
J52_55	428.738	0.0011850	P_RES
J52_56	434.374	0.0043452	P_IND
J52_57	439.570	0.0029978	P_IND
J52_58	447.673	0.0017995	P_RES
J52_59	452.598	0.0018406	P_RES
J52_60	458.562	0.0013569	P_RES
J52_61	464.078	0.0009617	P_RES
J52_62	469.340	0.0033314	P_COM
J52_63	477.032	0.0009305	P_RES
J52_64	480.649	0.0014294	P_COM
J53_1	92.628	0.0030289	P_COM
J53_2	98.256	0.0011752	P_RES
J53_3	103.603	0.0009818	P_RES
J53_4	111.719	0.0007308	P_RES
J53_5	116.707	0.0013687	P_RES
J53_6	123.080	0.0013449	P_COM
J53_7	129.627	0.0042890	P_RES
J53_8	136.073	0.0018493	P_RES
J53_9	143.428	0.0012434	P_RES
J53_10	148.917	0.0017175	P_RES
J53_11	155.810	0.0020169	P_RES
J53_12	163.256	0.0028822	P_IND
J53_13	169.225	0.0042787	P_IND
J53_14	173.652	0.0012509	P_RES
J53_15	182.211	0.0017997	P_RES
J53_16	187.135	0.0037042	P_IND
J53_17	193.431	0.0016099	P_RES
J53_18	199.226	0.0019259	P_COM
J53_19	207.181	0.0010084	P_RES
J53_20	212.545	0.0007031	P_RES
J53_21	219.089	0.0019257	P_COM
J53_22	224.953	0.0010361	P_RES
J53_23	231.346	0.0008887	P_COM
J53_24	238.302	0.0021971	P_IND
J53_25	244.624	0.0016610	P_RES
J53_26	251.374	0.0014072	P_RES
J53_27	255.777	0.0055057	P_COM
J53_28	262.036	0.0008574	P_RES
J53_29	268.708	0.0007508	P_RES
J53_30	274.311	0.0018511	P_COM
J53_31	281.508	0.0037488	P_RES
J53_32	288.602	0.0008054	P_RES
J53_33	293.907	0.0008225	P_RES
J53_34	299.398	0.0019210	P_RES
J53_35	307.000	0.0007670	P_RES
J53_36	311.287	0.0025576	P_COM
J53_37	319.262	0.0017487	P_RES
J53_38	325.327	0.0050278	P_IND
J53_39	330.638	0.0018486	P_IND
J53_40	338.083	0.0012871	P_RES
J53_41	343.902	0.0013580	P_RES
J53_42	348.476	0.0009808	P_RES
J53_43	354.312	0.0011615	P_RES
J53_44	361.195	0.0007436	P_RES
J53_45	366.736	0.0022657	P_RES
J53_46	372.484	0.0016129	P_COM
J53_47	378.634	0.0083873	P_IND
J53_48	386.064	0.0010481	P_RES
J53_49	390.398	0.0012292	P_RES
J53_50	397.733	0.0020150	P_COM
J53_51	403.485	0.0004886	P_RES
J53_52	409.963	0.0018599	P_RES
J53_53	415.747	0.0013116	P_RES
J53_54	420.489	0.0016213	P_RES
J53_55	427.678	0.0015323	P_COM
J53_56	434.005	0.0009654	P_RES
J53_57	439.196	0.0021421	P_RES
J53_58	445.075	0.0017816	P_RES
J53_59	451.401	0.0014037	P_RES
J53_60	456.973	0.0032868	P_COM
J53_61	463.382	0.0009567	P_RES
J53_62	468.401	0.0013894	P_RES
J53_63	473.230	0.0007439	P_RES
J53_64	478.923	0.0030157	P_RES
J54_1	90.121	0.0007379	P_RES
J54_2	96.926	0.0009510	P_RES
J54_3	103.348	0.0013231	P_RES
J54_4	109.344	0.0021357	P_COM
J54_5	116.376	0.0014763	P_RES
J54_6	122.674	0.0021387	P_RES
J54_7	127.518	0.0011116	P_RES
J54_8	135.341	0.0018269	P_RES
J54_9	140.764	0.0018983	P_COM
J54_10	148.176	0.0012087	P_RES
J54_11	154.524	0.0013489	P_RES
J54_12	160.039	0.0010806	P_RES
J54_13	166.399	0.0018917	P_RES
J54_14	172.980	0.0008762	P_RES
J54_15	179.823	0.0003104	P_RES
J54_16	185.596	0.0024938	P_RES
J54_17	190.904	0.0010638	P_RES
J54_18	198.513	0.0008986	P_RES
J54_19	205.068	0.0025590	P_COM
J54_20	211.785	0.0010600	P_COM
J54_21	216.923	0.0009588	P_RES
J54_22	224.795	0.0014266	P_RES
J54_23	229.532	0.0008894	P_RES
J54_24	236.805	0.0045267	P_IND
J54_25	241.860	0.0010620	P_RES
J54_26	249.518	0.0030563	P_IND
J54_27	254.138	0.0007030	P_RES
J54_28	260.695	0.0007856	P_RES
J54_29	266.940	0.0027277	P_RES
J54_30	274.750	0.0028060	P_COM
J54_31	280.660	0.0058326	P_IND
J54_32	286.121	0.0010850	P_RES
J54_33	292.801	0.0007297	P_RES
J54_34	298.839	0.0019192	P_RES
J54_35	304.203	0.0008892	P_RES
J54_36	311.482	0.0034268	P_COM
J54_37	317.949	0.0009637	P_RES
J54_38	321.841	0.0010398	P_RES
J54_39	328.615	0.0021918	P_RES
J54_40	336.065	0.0010192	P_RES
J54_41	340.228	0.0008862	P_RES
J54_42	346.818	0.0010329	P_RES
J54_43	353.162	0.0013366	P_RES
J54_44	358.708	0.0038745	P_IND
J54_45	364.957	0.0043019	P_IND
J54_46	371.124	0.0015979	P_IND
J54_47	376.887	0.0010839	P_RES
J54_48	384.638	0.0018780	P_RES
J54_49	390.079	0.0019555	P_RES
J54_50	396.591	0.0022184	P_COM
J54_51	401.245	0.0012837	P_RES
J54_52	408.086	0.0018434	P_RES
J54_53	412.275	0.0022836	P_COM
J54_54	418.875	0.0013267	P_RES
J54_55	424.547	0.0015563	P_COM
J54_56	431.019	0.0012828	P_RES
J54_57	436.056	0.0007907	P_RES
J54_58	443.395	0.0033925	P_IND
J54_59	448.707	0.0022277	P_COM
J54_60	455.310	0.0015732	P_COM
J54_61	459.844	0.0009073	P_RES
J54_62	466.906	0.0019364	P_RES
J54_63	472.215	0.0006577	P_RES
J54_64	477.544	0.0005426	P_RES
J55_1	87.677	0.0033884	P_RES
J55_2	93.782	0.0006717	P_RES
J55_3	100.436	0.0022403	P_COM
J55_4	107.326	0.0010239	P_RES
J55_5	114.412	0.0018743	P_RES
J55_6	120.481	0.0033349	P_IND
J55_7	125.670	0.0016961	P_RES
J55_8	132.458	0.0009279	P_COM
J55_9	139.742	0.0018482	P_RES
J55_10	145.017	0.0014786	P_IND
J55_11	151.646	0.0020762	P_RES
J55_12	158.497	0.0031681	P_RES
J55_13	164.909	0.0018301	P_RES
J55_14	172.214	0.0014604	P_RES
J55_15	177.192	0.0011744	P_RES
J55_16	183.051	0.0018426	P_COM
J55_17	189.379	0.0030102	P_IND
J55_18	197.324	0.0024471	P_IND
J55_19	201.857	0.0023331	P_RES
J55_20	210.118	0.0015086	P_RES
J55_21	214.787	0.0010262	P_COM
J55_22	221.651	0.0014019	P_COM
J55_23	227.316	0.0015854	P_RES
J55_24	235.561	0.0020924	P_RES
J55_25	240.361	0.0020242	P_IND
J55_26	246.640	0.0028575	P_RES
J55_27	253.620	0.0017830	P_RES
J55_28	260.459	0.0023380	P_RES
J55_29	266.618	0.0011600	P_RES
J55_30	272.990	0.0021262	P_IND
J55_31	277.023	0.0008288	P_RES
J55_32	284.833	0.0012753	P_RES
J55_33	290.744	0.0015749	P_COM
J55_34	295.815	0.0042181	P_RES
J55_35	303.546	0.0039186	P_COM
J55_36	309.935	0.0020879	P_COM
J55_37	315.078	0.0022912	P_IND
J55_38	320.615	0.0019246	P_COM
J55_39	327.963	0.0024556	P_COM
J55_40	333.687	0.0021447	P_RES
J55_41	339.040	0.0014600	P_RES
J55_42	344.645	0.0019250	P_COM
J55_43	352.710	0.0035214	P_COM
J55_44	356.525	0.0025747	P_COM
J55_45	363.095	0.0025864	P_COM
J55_46	370.077	0.0032266	P_IND
J55_47	375.932	0.0010285	P_RES
J55_48	382.854	0.0012233	P_IND
J55_49	387.683	0.0033735	P_IND
J55_50	394.638	0.0009747	P_COM
J55_51	400.066	0.0023611	P_COM
J55_52	406.472	0.0014008	P_COM
J55_53	410.692	0.0006569	P_RES
J55_54	417.144	0.0045310	P_IND
J55_55	422.642	0.0009339	P_RES
J55_56	428.696	0.0010018	P_RES
J55_57	434.368	0.0017488	P_COM
J55_58	440.757	0.0024944	P_IND
J55_59	446.630	0.0022953	P_RES
J55_60	454.191	0.0032141	P_COM
J55_61	459.975	0.0007808	P_RES
J55_62	464.696	0.0041349	P_IND
J55_63	471.366	0.0012848	P_RES
J55_64	476.793	0.0014171	P_RES
J56_1	86.503	0.0004773	P_RES
J56_2	92.179	0.0022615	P_RES
J56_3	99.520	0.0025003	P_RES
J56_4	106.360	0.0026139	P_COM
J56_5	112.173	0.0006953	P_RES
J56_6	118.320	0.0008789	P_COM
J56_7	125.662	0.0010176	P_RES
J56_8	131.688	0.0018354	P_RES
J56_9	136.606	0.0031156	P_COM
J56_10	144.259	0.0028139	P_RES
J56_11	150.452	0.0015590	P_COM
J56_12	156.820	0.0009703	P_RES
J56_13	163.436	0.0007293	P_COM
J56_14	170.741	0.0026611	P_RES
J56_15	175.006	0.0014978	P_RES
J56_16	181.607	0.0020076	P_RES
J56_17	189.201	0.0012867	P_RES
J56_18	194.852	0.0021238	P_RES
J56_19	200.766	0.0013864	P_RES
J56_20	208.656	0.0035682	P_COM
J56_21	213.551	0.0019494	P_COM
J56_22	219.777	0.0022621	P_RES
J56_23	225.216	0.0007356	P_RES
J56_24	233.560	0.0025171	P_IND
J56_25	238.170	0.0013082	P_RES
J56_26	246.019	0.0011914	P_RES
J56_27	250.432	0.0015422	P_RES
J56_28	257.507	0.0019050	P_IND
J56_29	263.679	0.0015607	P_RES
J56_30	270.465	0.0011085	P_RES
J56_31	276.735	0.0014795	P_RES
J56_32	282.117	0.0008028	P_RES
J56_33	288.019	0.0030016	P_IND
J56_34	294.885	0.0016433	P_RES
J56_35	300.696	0.0013150	P_RES
J56_36	306.557	0.0007252	P_RES
J56_37	312.130	0.0016071	P_RES
J56_38	318.894	0.0017283	P_RES
J56_39	325.648	0.0021326	P_RES
J56_40	331.978	0.0012693	P_RES
J56_41	337.119	0.0017019	P_RES
J56_42	344.263	0.0015322	P_COM
J56_43	349.092	0.0013717	P_RES
J56_44	355.117	0.0021232	P_RES
J56_45	361.647	0.0017106	P_RES
J56_46	367.605	0.0021623	P_RES
J56_47	375.142	0.0009813	P_RES
J56_48	379.037	0.0017797	P_COM
J56_49	385.327	0.0007182	P_RES
J56_50	392.228	0.0008558	P_RES
J56_51	398.629	0.0045768	P_IND
J56_52	403.330	0.0035555	P_COM
J56_53	408.990	0.0013286	P_RES
J56_54	415.010	0.0049712	P_IND
J56_55	422.721	0.0012560	P_RES
J56_56	427.777	0.0031662	P_RES
J56_57	432.960	0.0009579	P_COM
J56_58	438.603	0.0018743	P_COM
J56_59	445.446	0.0010161	P_RES
J56_60	452.368	0.0016359	P_RES
J56_61	458.103	0.0007935	P_RES
J56_62	462.372	0.0018560	P_RES
J56_63	468.166	0.0026629	P_IND
J56_64	473.803	0.0017666	P_COM
J57_1	85.752	0.0013604	P_RES
J57_2	90.848	0.0016695	P_RES
J57_3	97.475	0.0022911	P_RES
J57_4	103.250	0.0052226	P_IND
J57_5	109.494	0.0034527	P_IND
J57_6	116.285	0.0089352	P_COM
J57_7	124.367	0.0008961	P_RES
J57_8	129.018	0.0010587	P_RES
J57_9	136.499	0.0016959	P_RES
J57_10	142.222	0.0045219	P_IND
J57_11	148.205	0.0008213	P_RES
J57_12	155.280	0.0012854	P_RES
J57_13	161.471	0.0008228	P_RES
J57_14	167.224	0.0046341	P_IND
J57_15	174.790	0.0011678	P_RES
J57_16	179.351	0.0021046	P_RES
J57_17	186.390	0.0020960	P_COM
J57_18	193.920	0.0014971	P_RES
J57_19	200.378	0.0015690	P_RES
J57_20	205.621	0.0014234	P_RES
J57_21	212.077	0.0023263	P_COM
J57_22	219.018	0.0013933	P_RES
J57_23	225.197	0.0017963	P_RES
J57_24	229.709	0.0028506	P_COM
J57_25	237.897	0.0018466	P_RES
J57_26	243.310	0.0028481	P_RES
J57_27	248.627	0.0012554	P_RES
J57_28	254.903	0.0008456	P_RES
J57_29	262.070	0.0013063	P_RES
J57_30	269.117	0.0016572	P_RES
J57_31	275.142	0.0016599	P_RES
J57_32	280.840	0.0028395	P_RES
J57_33	287.977	0.0010890	P_RES
J57_34	292.530	0.0011677	P_RES
J57_35	298.126	0.0016917	P_RES
J57_36	306.522	0.0012885	P_COM
J57_37	311.150	0.0012158	P_RES
J57_38	316.893	0.0012945	P_RES
J57_39	324.212	0.0033658	P_IND
J57_40	329.548	0.0012475	P_RES
J57_41	336.803	0.0039819	P_IND
J57_42	342.285	0.0017066	P_RES
J57_43	348.840	0.0014681	P_COM
J57_44	353.029	0.0009610	P_RES
J57_45	360.792	0.0010236	P_RES
J57_46	366.504	0.0014741	P_RES
J57_47	372.732	0.0026916	P_COM
J57_48	378.500	0.0014107	P_RES
J57_49	383.864	0.0019476	P_RES
J57_50	390.570	0.0029029	P_COM
J57_51	396.160	0.0025783	P_COM
J57_52	401.069	0.0009226	P_RES
J57_53	407.511	0.0013819	P_COM
J57_54	415.096	0.0019306	P_RES
J57_55	420.924	0.0044061	P_IND
J57_56	426.451	0.0027304	P_COM
J57_57	432.299	0.0013713	P_RES
J57_58	437.851	0.0028295	P_COM
J57_59	444.655	0.0011425	P_RES
J57_60	448.554	0.0021009	P_COM
J57_61	455.820	0.0008962	P_RES
J57_62	460.064	0.0016175	P_RES
J57_63	467.718	0.0023144	P_COM
J57_64	473.885	0.0023138	P_COM
J58_1	83.727	0.0015029	P_COM
J58_2	88.822	0.0032298	P_COM
J58_3	94.924	0.0012054	P_RES
J58_4	102.381	0.0013897	P_RES
J58_5	109.945	0.0025379	P_COM
J58_6	114.984	0.0007381	P_RES
J58_7	122.424	0.0018909	P_RES
J58_8	128.779	0.0021268	P_COM
J58_9	133.209	0.0027459	P_COM
J58_10	141.309	0.0017414	P_COM
J58_11	147.509	0.0020588	P_COM
J58_12	153.382	0.0013055	P_RES
J58_13	158.922	0.0006715	P_RES
J58_14	165.042	0.0035037	P_IND
J58_15	173.410	0.0009616	P_RES
J58_16	178.776	0.0026273	P_RES
J58_17	185.911	0.0017083	P_RES
J58_18	190.505	0.0009778	P_RES
J58_19	197.221	0.0009512	P_RES
J58_20	205.044	0.0011312	P_RES
J58_21	210.231	0.0012242	P_RES
J58_22	215.621	0.0033062	P_IND
J58_23	223.200	0.0013925	P_RES
J58_24	229.042	0.0016268	P_COM
J58_25	236.196	0.0016737	P_RES
J58_26	242.129	0.0015390	P_RES
J58_27	248.436	0.0016539	P_RES
J58_28	253.479	0.0009772	P_RES
J58_29	261.034	0.0007404	P_RES
J58_30	265.572	0.0018744	P_RES
J58_31	271.943	0.0027915	P_RES
J58_32	278.393	0.0010557	P_RES
J58_33	285.891	0.0041382	P_IND
J58_34	291.258	0.0006588	P_RES
J58_35	297.090	0.0015724	P_RES
J58_36	303.152	0.0030195	P_IND
J58_37	310.968	0.0017122	P_RES
J58_38	316.887	0.0016333	P_COM
J58_39	322.077	0.0012902	P_RES
J58_40	327.651	0.0008932	P_RES
J58_41	334.385	0.0018029	P_COM
J58_42	341.173	0.0036562	P_RES
J58_43	346.533	0.0018492	P_IND
J58_44	351.646	0.0008177	P_RES
J58_45	358.158	0.0013748	P_RES
J58_46	363.591	0.0011086	P_RES
J58_47	370.031	0.0009807	P_RES
J58_48	377.557	0.0005902	P_RES
J58_49	382.107	0.0013263	P_RES
J58_50	389.279	0.0022447	P_RES
J58_51	393.360	0.0018133	P_RES
J58_52	401.367	0.0012471	P_RES
J58_53	407.025	0.0024337	P_COM
J58_54	412.442	0.0049532	P_IND
J58_55	417.584	0.0044655	P_IND
J58_56	424.573	0.0014339	P_COM
J58_57	431.016	0.0007702	P_RES
J58_58	437.124	0.0017712	P_COM
J58_59	442.201	0.0012762	P_RES
J58_60	446.966	0.0010753	P_RES
J58_61	452.792	0.0009684	P_RES
J58_62	459.780	0.0008666	P_RES
J58_63	464.830	0.0010241	P_RES
J58_64	470.277	0.0027370	P_IND
J59_1	81.260	0.0019611	P_COM
J59_2	88.871	0.0018613	P_COM
J59_3	95.212	0.0009263	P_RES
J59_4	100.509	0.0008902	P_RES
J59_5	107.513	0.0021800	P_COM
J59_6	114.131	0.0010698	P_RES
J59_7	118.882	0.0021782	P_COM
J59_8	125.483	0.0006952	P_RES
J59_9	132.628	0.0018999	P_RES
J59_10	138.977	0.0017782	P_RES
J59_11	145.744	0.0013651	P_RES
J59_12	151.329	0.0009183	P_RES
J59_13	157.968	0.0009132	P_RES
J59_14	164.633	0.0012603	P_RES
J59_15	171.228	0.0012396	P_RES
J59_16	177.953	0.0007645	P_RES
J59_17	182.894	0.0013571	P_RES
J59_18	189.249	0.0030715	P_IND
J59_19	195.430	0.0011230	P_RES
J59_20	202.922	0.0014728	P_COM
J59_21	209.004	0.0025044	P_RES
J59_22	214.233	0.0007109	P_RES
J59_23	222.194	0.0018508	P_RES
J59_24	226.630	0.0022458	P_RES
J59_25	234.191	0.0023769	P_RES
J59_26	240.506	0.0025028	P_IND
J59_27	245.768	0.0011079	P_RES
J59_28	252.153	0.0018315	P_RES
J59_29	259.150	0.0014212	P_RES
J59_30	265.602	0.0020058	P_RES
J59_31	272.138	0.0009055	P_RES
J59_32	276.566	0.0007504	P_RES
J59_33	282.651	0.0024404	P_COM
J59_34	290.683	0.0027257	P_COM
J59_35	295.018	0.0006804	P_RES
J59_36	301.751	0.0016452	P_COM
J59_37	308.819	0.0003834	P_RES
J59_38	313.983	0.0012467	P_RES
J59_39	320.161	0.0029114	P_RES
J59_40	325.442	0.0025395	P_RES
J59_41	332.668	0.0018124	P_RES
J59_42	338.869	0.0012537	P_COM
J59_43	344.190	0.0020542	P_RES
J59_44	351.511	0.0033966	P_COM
J59_45	356.418	0.0009980	P_RES
J59_46	363.366	0.0034895	P_COM
J59_47	369.210	0.0019917	P_IND
J59_48	374.364	0.0012233	P_RES
J59_49	381.804	0.0008286	P_RES
J59_50	385.742	0.0019802	P_COM
J59_51	392.744	0.0008185	P_RES
J59_52	399.782	0.0025848	P_COM
J59_53	404.097	0.0006288	P_RES
J59_54	411.623	0.0029014	P_COM
J59_55	415.783	0.0012094	P_RES
J59_56	422.118	0.0027061	P_IND
J59_57	428.000	0.0004040	P_RES
J59_58	434.970	0.0021080	P_RES
J59_59	439.406	0.0027827	P_IND
J59_60	445.120	0.0016010	P_RES
J59_61	451.321	0.0005588	P_RES
J59_62	458.596	0.0009999	P_RES
J59_63	463.226	0.0016386	P_RES
J59_64	468.993	0.0026471	P_COM
J60_1	80.675	0.0013828	P_RES
J60_2	86.956	0.0021189	P_COM
J60_3	92.715	0.0009932	P_RES
J60_4	98.103	0.0014839	P_RES
J60_5	106.388	0.0008774	P_RES
J60_6	112.313	0.0021214	P_COM
J60_7	117.795	0.0006308	P_RES
J60_8	124.600	0.0020688	P_RES
J60_9	131.923	0.0011504	P_RES
J60_10	136.550	0.0014639	P_RES
J60_11	143.349	0.0019323	P_COM
J60_12	150.020	0.0016798	P_RES
J60_13	157.237	0.0034562	P_RES
J60_14	161.724	0.0008144	P_RES
J60_15	170.024	0.0009412	P_RES
J60_16	175.806	0.0012578	P_RES
J60_17	180.791	0.0011221	P_RES
J60_18	188.037	0.0009511	P_RES
J60_19	194.201	0.0005442	P_RES
J60_20	199.440	0.0025935	P_IND
J60_21	208.019	0.0008756	P_RES
J60_22	212.551	0.0041006	P_IND
J60_23	220.653	0.0012195	P_RES
J60_24	224.664	0.0040975	P_COM
J60_25	231.809	0.0009650	P_RES
J60_26	238.515	0.0009943	P_RES
J60_27	244.867	0.0037431	P_COM
J60_28	249.715	0.0018568	P_RES
J60_29	256.696	0.0011120	P_RES
J60_30	262.117	0.0025034	P_IND
J60_31	270.332	0.0036219	P_IND
J60_32	275.760	0.0008896	P_RES
J60_33	281.259	0.0018942	P_RES
J60_34	288.618	0.0004457	P_RES
J60_35	294.086	0.0006183	P_RES
J60_36	299.858	0.0024086	P_IND
J60_37	305.997	0.0021385	P_RES
J60_38	312.612	0.0059177	P_IND
J60_39	318.012	0.0009185	P_RES
J60_40	325.167	0.0017818	P_COM
J60_41	331.087	0.0022161	P_COM
J60_42	336.390	0.0010738	P_COM
J60_43	344.008	0.0016842	P_RES
J60_44	348.880	0.0025096	P_COM
J60_45	356.015	0.0033864	P_IND
J60_46	360.654	0.0021585	P_RES
J60_47	367.557	0.0016273	P_RES
J60_48	372.899	0.0026920	P_IND
J60_49	378.068	0.0013127	P_RES
J60_50	384.304	0.0011963	P_RES
J60_51	391.729	0.0017162	P_RES
J60_52	396.364	0.0020324	P_RES
J60_53	402.736	0.0013439	P_COM
J60_54	409.380	0.0017570	P_COM
J60_55	413.662	0.0008481	P_RES
J60_56	419.954	0.0008165	P_RES
J60_57	425.619	0.0009680	P_RES
J60_58	432.950	0.0010935	P_RES
J60_59	439.430	0.0010668	P_RES
J60_60	443.796	0.0014081	P_RES
J60_61	449.963	0.0021080	P_RES
J60_62	456.400	0.0013591	P_RES
J60_63	462.723	0.0004528	P_RES
J60_64	468.405	0.0024090	P_RES
J61_1	77.374	0.0058112	P_COM
J61_2	85.026	0.0028859	P_IND
J61_3	91.289	0.0012047	P_RES
J61_4	97.290	0.0009965	P_RES
J61_5	102.561	0.0018044	P_IND
J61_6	108.932	0.0009216	P_RES
J61_7	116.334	0.0019071	P_COM
J61_8	122.172	0.0021617	P_COM
J61_9	128.789	0.0025310	P_RES
J61_10	136.113	0.0027379	P_RES
J61_11	141.131	0.0023763	P_RES
J61_12	149.197	0.0013279	P_RES
J61_13	153.918	0.0049880	P_IND
J61_14	161.725	0.0041161	P_RES
J61_15	167.100	0.0005705	P_RES
J61_16	174.466	0.0020332	P_RES
J61_17	180.572	0.0024896	P_RES
J61_18	186.488	0.0026030	P_RES
J61_19	193.462	0.0018192	P_RES
J61_20	199.736	0.0025159	P_RES
J61_21	205.594	0.0029442	P_COM
J61_22	211.870	0.0036945	P_COM
J61_23	217.628	0.0017151	P_RES
J61_24	224.322	0.0013143	P_RES
J61_25	230.290	0.0024694	P_RES
J61_26	237.453	0.0016050	P_COM
J61_27	241.869	0.0006242	P_RES
J61_28	249.053	0.0004355	P_RES
J61_29	255.548	0.0024859	P_COM
J61_30	260.455	0.0017982	P_RES
J61_31	267.175	0.0006656	P_RES
J61_32	273.996	0.0019316	P_RES
J61_33	280.391	0.0017079	P_RES
J61_34	286.980	0.0045218	P_IND
J61_35	291.529	0.0031688	P_COM
J61_36	299.187	0.0007008	P_RES
J61_37	304.185	0.0012785	P_RES
J61_38	310.844	0.0012261	P_RES
J61_39	317.379	0.0017965	P_COM
J61_40	322.503	0.0018810	P_COM
J61_41	329.910	0.0013868	P_RES
J61_42	335.216	0.0021539	P_RES
J61_43	342.087	0.0006665	P_RES
J61_44	346.987	0.0041426	P_IND
J61_45	352.296	0.0023467	P_RES
J61_46	360.239	0.0011651	P_RES
J61_47	364.820	0.0023504	P_COM
J61_48	370.275	0.0013007	P_RES
J61_49	377.954	0.0021689	P_RES
J61_50	383.856	0.0017621	P_COM
J61_51	390.502	0.0016691	P_RES
J61_52	394.552	0.0008562	P_RES
J61_53	401.505	0.0024566	P_COM
J61_54	407.567	0.0013302	P_RES
J61_55	413.734	0.0011815	P_RES
J61_56	420.133	0.0018898	P_COM
J61_57	424.942	0.0041867	P_COM
J61_58	431.221	0.0013251	P_COM
J61_59	436.779	0.0023710	P_COM
J61_60	443.216	0.0030537	P_IND
J61_61	448.737	0.0016552	P_RES
J61_62	454.827	0.0015120	P_RES
J61_63	460.954	0.0021190	P_RES
J61_64	466.010	0.0008178	P_RES
J62_1	77.179	0.0016972	P_RES
J62_2	82.739	0.0018240	P_RES
J62_3	88.541	0.0019269	P_RES
J62_4	94.658	0.0002591	P_RES
J62_5	102.348	0.0033697	P_RES
J62_6	109.151	0.0011908	P_RES
J62_7	113.698	0.0013776	P_RES
J62_8	120.411	0.0013395	P_RES
J62_9	126.273	0.0015405	P_RES
J62_10	133.233	0.0008014	P_RES
J62_11	140.807	0.0007814	P_RES
J62_12	145.705	0.0007594	P_RES
J62_13	153.639	0.0011358	P_RES
J62_14	159.018	0.0010518	P_RES
J62_15	166.443	0.0013367	P_COM
J62_16	172.390	0.0057134	P_IND
J62_17	178.825	0.0005245	P_RES
J62_18	184.090	0.0011359	P_RES
J62_19	191.590	0.0016418	P_RES
J62_20	197.645	0.0020058	P_RES
J62_21	202.345	0.0019371	P_RES
J62_22	210.361	0.0035248	P_RES
J62_23	215.836	0.0013699	P_RES
J62_24	221.480	0.0037744	P_IND
J62_25	228.049	0.0015873	P_RES
J62_26	235.773	0.0009541	P_RES
J62_27	239.919	0.0031215	P_COM
J62_28	247.045	0.0017315	P_RES
J62_29	253.864	0.0015475	P_COM
J62_30	260.154	0.0021846	P_RES
J62_31	266.034	0.0035207	P_RES
J62_32	273.226	0.0051610	P_COM
J62_33	278.851	0.0015496	P_RES
J62_34	283.358	0.0013894	P_COM
J62_35	291.297	0.0019854	P_IND
J62_36	296.152	0.0033034	P_COM
J62_37	302.942	0.0013726	P_COM
J62_38	308.791	0.0013459	P_COM
J62_39	314.656	0.0014277	P_RES
J62_40	320.144	0.0030438	P_IND
J62_41	327.075	0.0005924	P_RES
J62_42	334.363	0.0022720	P_RES
J62_43	339.947	0.0016631	P_RES
J62_44	346.648	0.0026016	P_COM
J62_45	350.550	0.0005731	P_RES
J62_46	358.008	0.0013485	P_COM
J62_47	364.085	0.0023806	P_IND
J62_48	368.937	0.0017260	P_RES
J62_49	375.409	0.0016238	P_RES
J62_50	382.476	0.0011363	P_RES
J62_51	387.611	0.0027954	P_RES
J62_52	393.626	0.0006681	P_RES
J62_53	400.347	0.0007700	P_RES
J62_54	404.867	0.0021944	P_RES
J62_55	411.571	0.0013093	P_RES
J62_56	418.204	0.0016573	P_RES
J62_57	422.158	0.0017503	P_COM
J62_58	428.189	0.0008181	P_RES
J62_59	435.947	0.0022254	P_RES
J62_60	441.567	0.0009371	P_RES
J62_61	447.113	0.0016315	P_COM
J62_62	453.153	0.0024282	P_RES
J62_63	457.724	0.0009190	P_RES
J62_64	464.968	0.0014488	P_COM
J63_1	73.997	0.0009927	P_COM
J63_2	80.164	0.0017230	P_RES
J63_3	86.463	0.0033323	P_COM
J63_4	93.224	0.0015609	P_RES
J63_5	99.329	0.0012956	P_RES
J63_6	106.875	0.0009496	P_RES
J63_7	114.067	0.0007960	P_RES
J63_8	118.631	0.0020401	P_COM
J63_9	125.322	0.0025824	P_COM
J63_10	132.593	0.0040565	P_COM
J63_11	137.784	0.0019653	P_COM
J63_12	145.965	0.0019847	P_COM
J63_13	150.105	0.0010102	P_RES
J63_14	156.713	0.0023195	P_RES
J63_15	163.102	0.0008021	P_RES
J63_16	169.089	0.0027349	P_RES
J63_17	176.139	0.0006837	P_RES
J63_18	181.879	0.0009155	P_RES
J63_19	189.331	0.0010012	P_RES
J63_20	195.049	0.0009832	P_RES
J63_21	201.352	0.0017779	P_RES
J63_22	207.120	0.0021786	P_RES
J63_23	214.860	0.0029048	P_RES
J63_24	219.491	0.0011708	P_COM
J63_25	227.235	0.0011053	P_RES
J63_26	232.510	0.0015367	P_RES
J63_27	239.224	0.0009897	P_RES
J63_28	246.007	0.0017980	P_COM
J63_29	253.067	0.0008916	P_RES
J63_30	257.890	0.0024196	P_RES
J63_31	264.927	0.0012951	P_RES
J63_32	271.166	0.0024508	P_COM
J63_33	277.394	0.0005947	P_RES
J63_34	283.495	0.0005330	P_RES
J63_35	289.216	0.0028461	P_IND
J63_36	295.199	0.0018475	P_RES
J63_37	301.898	0.0010480	P_RES
J63_38	308.536	0.0027166	P_IND
J63_39	313.539	0.0035259	P_IND
J63_40	319.533	0.0010111	P_RES
J63_41	324.649	0.0017161	P_RES
J63_42	330.720	0.0013999	P_COM
J63_43	338.947	0.0025770	P_RES
J63_44	344.809	0.0019349	P_RES
J63_45	351.083	0.0030833	P_IND
J63_46	354.921	0.0024316	P_COM
J63_47	362.742	0.0018161	P_RES
J63_48	367.668	0.0011911	P_COM
J63_49	373.918	0.0025621	P_COM
J63_50	379.009	0.0017224	P_RES
J63_51	384.930	0.0015836	P_RES
J63_52	391.733	0.0015841	P_RES
J63_53	397.948	0.0017209	P_RES
J63_54	403.390	0.0018857	P_RES
J63_55	410.472	0.0027879	P_COM
J63_56	414.465	0.0011051	P_RES
J63_57	422.015	0.0026892	P_COM
J63_58	428.168	0.0017436	P_RES
J63_59	434.221	0.0011869	P_RES
J63_60	440.373	0.0008579	P_RES
J63_61	445.630	0.0007581	P_RES
J63_62	451.549	0.0012441	P_RES
J63_63	457.592	0.0013049	P_RES
J63_64	461.643	0.0012039	P_RES
J64_1	71.854	0.0022414	P_COM
J64_2	80.435	0.0022922	P_COM
J64_3	84.755	0.0019939	P_RES
J64_4	92.283	0.0018309	P_RES
J64_5	98.783	0.0035377	P_RES
J64_6	104.572	0.0011809	P_RES
J64_7	111.393	0.0058459	P_COM
J64_8	118.215	0.0015862	P_RES
J64_9	125.131	0.0017980	P_RES
J64_10	130.831	0.0009746	P_RES
J64_11	137.683	0.0012680	P_COM
J64_12	142.315	0.0039977	P_IND
J64_13	148.514	0.0016926	P_COM
J64_14	156.470	0.0023778	P_COM
J64_15	161.023	0.0011148	P_RES
J64_16	168.526	0.0012548	P_RES
J64_17	173.978	0.0009665	P_RES
J64_18	180.461	0.0015918	P_IND
J64_19	188.611	0.0019885	P_RES
J64_20	194.533	0.0010247	P_RES
J64_21	198.966	0.0014212	P_RES
J64_22	206.351	0.0012088	P_RES
J64_23	211.749	0.0010410	P_RES
J64_24	218.734	0.0007317	P_RES
J64_25	225.547	0.0009647	P_RES
J64_26	230.895	0.0007633	P_RES
J64_27	237.047	0.0076916	P_IND
J64_28	243.986	0.0025707	P_IND
J64_29	249.988	0.0017270	P_RES
J64_30	257.037	0.0023403	P_IND
J64_31	261.523	0.0016914	P_COM
J64_32	269.789	0.0011537	P_RES
J64_33	275.792	0.0015116	P_RES
J64_34	281.160	0.0025851	P_RES
J64_35	286.730	0.0005754	P_RES
J64_36	293.321	0.0014083	P_COM
J64_37	299.281	0.0017416	P_RES
J64_38	306.331	0.0010043	P_RES
J64_39	311.767	0.0018494	P_RES
J64_40	317.285	0.0010683	P_RES
J64_41	323.626	0.0036844	P_COM
J64_42	329.863	0.0025570	P_RES
J64_43	336.533	0.0048472	P_COM
J64_44	343.216	0.0018015	P_RES
J64_45	348.491	0.0013947	P_COM
J64_46	355.066	0.0007288	P_RES
J64_47	359.688	0.0010422	P_RES
J64_48	365.349	0.0025206	P_COM
J64_49	372.710	0.0014906	P_RES
J64_50	377.797	0.0015991	P_RES
J64_51	383.265	0.0007469	P_RES
J64_52	390.378	0.0009115	P_RES
J64_53	395.268	0.0019724	P_RES
J64_54	401.539	0.0019536	P_COM
J64_55	407.716	0.0038051	P_IND
J64_56	413.669	0.0027824	P_COM
J64_57	420.311	0.0030201	P_RES
J64_58	426.675	0.0023846	P_COM
J64_59	431.370	0.0032321	P_COM
J64_60	436.842	0.0024965	P_RES
J64_61	443.230	0.0021047	P_COM
J64_62	450.285	0.0008069	P_RES
J64_63	454.199	0.0009979	P_RES
J64_64	461.347	0.0012014	P_RES


[RESERVOIRS]
;ID	Head	Pattern
R1	240.000


[TANKS]
;ID	Elev	InitLevel	MinLevel	MaxLevel	Diameter	MinVol	VolCurve
T1	169.972	10.000	4.000	16.000	61.000	0.000
T2	245.825	10.000	4.000	16.000	67.000	0.000
T3	312.884	10.000	4.000	16.000	73.000	0.000
T4	378.758	10.000	4.000	16.000	79.000	0.000
T5	443.393	10.000	4.000	16.000	85.000	0.000
T6	515.638	10.000	4.000	16.000	91.000	0.000


[PIPES]
;ID	Node1	Node2	Length	Diameter	Roughness	MinorLoss	Status
P1	J1_1	J1_2	135.00	300.0	0.0050	0.0475	Open
P2	J1_1	J2_1	135.00	600.0	0.0050	0.0468	Open
P3	J1_2	J1_3	135.00	300.0	0.0050	0.0109	Open
P4	J1_2	J2_2	135.00	300.0	0.0050	0.0334	Open
P5	J1_3	J1_4	135.00	300.0	0.0050	0.0257	Open
P6	J1_3	J2_3	135.00	450.0	0.0050	0.0413	Open
P7	J1_4	J1_5	135.00	600.0	0.0050	0.0117	Open
P8	J1_4	J2_4	135.00	600.0	0.0050	0.0423	Open
P9	J1_5	J1_6	135.00	450.0	0.0050	0.0050	Open
P10	J1_5	J2_5	135.00	500.0	0.0050	0.0121	Open
P11	J1_6	J1_7	135.00	400.0	0.0050	0.0010	Open
P12	J1_6	J2_6	135.00	300.0	0.0050	0.0412	Open
P13	J1_7	J1_8	135.00	600.0	0.0050	0.0124	Open
P14	J1_7	J2_7	135.00	500.0	0.0050	0.0280	Open
P15	J1_8	J1_9	135.00	600.0	0.0050	0.0124	Open
P16	J1_8	J2_8	135.00	400.0	0.0050	0.0219	Open
P17	J1_9	J1_10	135.00	500.0	0.0050	0.0000	Open
P18	J1_9	J2_9	135.00	450.0	0.0050	0.0026	Open
P19	J1_10	J1_11	135.00	300.0	0.0050	0.0267	Open
P20	J1_10	J2_10	135.00	500.0	0.0050	0.0354	Open
P21	J1_11	J1_12	135.00	350.0	0.0050	0.0101	Open
P22	J1_11	J2_11	135.00	600.0	0.0050	0.0483	Open
P23	J1_12	J1_13	135.00	500.0	0.0050	0.0189	Open
P24	J1_12	J2_12	135.00	500.0	0.0050	0.0360	Open
P25	J1_13	J1_14	135.00	350.0	0.0050	0.0081	Open
P26	J1_13	J2_13	135.00	500.0	0.0050	0.0378	Open
P27	J1_14	J1_15	135.00	400.0	0.0050	0.0262	Open
P28	J1_14	J2_14	135.00	300.0	0.0050	0.0442	Open
P29	J1_15	J1_16	135.00	600.0	0.0050	0.0287	Open
P30	J1_15	J2_15	135.00	600.0	0.0050	0.0287	Open
P31	J1_16	J1_17	135.00	300.0	0.0050	0.0242	Open
P32	J1_16	J2_16	135.00	300.0	0.0050	0.0097	Open
P33	J1_17	J1_18	135.00	500.0	0.0050	0.0190	Open
P34	J1_17	J2_17	135.00	300.0	0.0050	0.0420	Open
P35	J1_18	J1_19	135.00	350.0	0.0050	0.0050	Open
P36	J1_18	J2_18	135.00	300.0	0.0050	0.0095	Open
P37	J1_19	J1_20	135.00	400.0	0.0050	0.0053	Open
P38	J1_19	J2_19	135.00	300.0	0.0050	0.0387	Open
P39	J1_20	J1_21	135.00	450.0	0.0050	0.0012	Open
P40	J1_20	J2_20	135.00	300.0	0.0050	0.0172	Open
P41	J1_21	J1_22	135.00	300.0	0.0050	0.0071	Open
P42	J1_21	J2_21	135.00	400.0	0.0050	0.0305	Open
P43	J1_22	J1_23	135.00	350.0	0.0050	0.0008	Open
P44	J1_22	J2_22	135.00	500.0	0.0050	0.0099	Open
P45	J1_23	J1_24	135.00	400.0	0.0050	0.0093	Open
P46	J1_23	J2_23	135.00	450.0	0.0050	0.0254	Open
P47	J1_24	J1_25	135.00	400.0	0.0050	0.0338	Open
P48	J1_24	J2_24	135.00	400.0	0.0050	0.0084	Open
P49	J1_25	J1_26	135.00	350.0	0.0050	0.0126	Open
P50	J1_25	J2_25	135.00	500.0	0.0050	0.0111	Open
P51	J1_26	J1_27	135.00	350.0	0.0050	0.0336	Open
P52	J1_26	J2_26	135.00	400.0	0.0050	0.0443	Open
P53	J1_27	J1_28	135.00	350.0	0.0050	0.0142	Open
P54	J1_27	J2_27	135.00	600.0	0.0050	0.0137	Open
P55	J1_28	J1_29	135.00	350.0	0.0050	0.0108	Open
P56	J1_28	J2_28	135.00	300.0	0.0050	0.0368	Open
P57	J1_29	J1_30	135.00	350.0	0.0050	0.0453	Open
P58	J1_29	J2_29	135.00	600.0	0.0050	0.0329	Open
P59	J1_30	J1_31	135.00	500.0	0.0050	0.0181	Open
P60	J1_30	J2_30	135.00	350.0	0.0050	0.0244	Open
P61	J1_31	J1_32	135.00	600.0	0.0050	0.0130	Open
P62	J1_31	J2_31	135.00	600.0	0.0050	0.0188	Open
P63	J1_32	J1_33	135.00	600.0	0.0050	0.0161	Open
P64	J1_32	J2_32	135.00	350.0	0.0050	0.0438	Open
P65	J1_33	J1_34	135.00	500.0	0.0050	0.0327	Open
P66	J1_33	J2_33	135.00	350.0	0.0050	0.0356	Open
P67	J1_34	J1_35	135.00	300.0	0.0050	0.0215	Open
P68	J1_34	J2_34	135.00	300.0	0.0050	0.0012	Open
P69	J1_35	J1_36	135.00	450.0	0.0050	0.0453	Open
P70	J1_35	J2_35	135.00	450.0	0.0050	0.0146	Open
P71	J1_36	J1_37	135.00	350.0	0.0050	0.0129	Open
P72	J1_36	J2_36	135.00	400.0	0.0050	0.0436	Open
P73	J1_37	J1_38	135.00	350.0	0.0050	0.0187	Open
P74	J1_37	J2_37	135.00	400.0	0.0050	0.0414	Open
P75	J1_38	J1_39	135.00	300.0	0.0050	0.0246	Open
P76	J1_38	J2_38	135.00	450.0	0.0050	0.0495	Open
P77	J1_39	J1_40	135.00	500.0	0.0050	0.0209	Open
P78	J1_39	J2_39	135.00	300.0	0.0050	0.0267	Open
P79	J1_40	J1_41	135.00	600.0	0.0050	0.0292	Open
P80	J1_40	J2_40	135.00	500.0	0.0050	0.0112	Open
P81	J1_41	J1_42	135.00	450.0	0.0050	0.0137	Open
P82	J1_41	J2_41	135.00	500.0	0.0050	0.0295	Open
P83	J1_42	J1_43	135.00	400.0	0.0050	0.0230	Open
P84	J1_42	J2_42	135.00	300.0	0.0050	0.0333	Open
P85	J1_43	J1_44	135.00	400.0	0.0050	0.0080	Open
P86	J1_43	J2_43	135.00	450.0	0.0050	0.0045	Open
P87	J1_44	J1_45	135.00	300.0	0.0050	0.0030	Open
P88	J1_44	J2_44	135.00	400.0	0.0050	0.0416	Open
P89	J1_45	J1_46	135.00	450.0	0.0050	0.0076	Open
P90	J1_45	J2_45	135.00	500.0	0.0050	0.0408	Open
P91	J1_46	J1_47	135.00	600.0	0.0050	0.0374	Open
P92	J1_46	J2_46	135.00	500.0	0.0050	0.0236	Open
P93	J1_47	J1_48	135.00	400.0	0.0050	0.0129	Open
P94	J1_47	J2_47	135.00	350.0	0.0050	0.0347	Open
P95	J1_48	J1_49	135.00	500.0	0.0050	0.0223	Open
P96	J1_48	J2_48	135.00	300.0	0.0050	0.0394	Open
P97	J1_49	J1_50	135.00	400.0	0.0050	0.0358	Open
P98	J1_49	J2_49	135.00	600.0	0.0050	0.0007	Open
P99	J1_50	J1_51	135.00	450.0	0.0050	0.0000	Open
P100	J1_50	J2_50	135.00	600.0	0.0050	0.0254	Open
P101	J1_51	J1_52	135.00	500.0	0.0050	0.0303	Open
P102	J1_51	J2_51	135.00	400.0	0.0050	0.0334	Open
P103	J1_52	J1_53	135.00	600.0	0.0050	0.0488	Open
P104	J1_52	J2_52	135.00	400.0	0.0050	0.0354	Open
P105	J1_53	J1_54	135.00	450.0	0.0050	0.0388	Open
P106	J1_53	J2_53	135.00	600.0	0.0050	0.0387	Open
P107	J1_54	J1_55	135.00	400.0	0.0050	0.0081	Open
P108	J1_54	J2_54	135.00	600.0	0.0050	0.0328	Open
P109	J1_55	J1_56	135.00	400.0	0.0050	0.0434	Open
P110	J1_55	J2_55	135.00	500.0	0.0050	0.0132	Open
P111	J1_56	J1_57	135.00	300.0	0.0050	0.0479	Open
P112	J1_56	J2_56	135.00	300.0	0.0050	0.0429	Open
P113	J1_57	J1_58	135.00	600.0	0.0050	0.0224	Open
P114	J1_57	J2_57	135.00	400.0	0.0050	0.0377	Open
P115	J1_58	J1_59	135.00	600.0	0.0050	0.0268	Open
P116	J1_58	J2_58	135.00	350.0	0.0050	0.0132	Open
P117	J1_59	J1_60	135.00	300.0	0.0050	0.0024	Open
P118	J1_59	J2_59	135.00	400.0	0.0050	0.0388	Open
P119	J1_60	J1_61	135.00	350.0	0.0050	0.0341	Open
P120	J1_60	J2_60	135.00	600.0	0.0050	0.0287	Open
P121	J1_61	J1_62	135.00	450.0	0.0050	0.0263	Open
P122	J1_61	J2_61	135.00	300.0	0.0050	0.0215	Open
P123	J1_62	J1_63	135.00	500.0	0.0050	0.0095	Open
P124	J1_62	J2_62	135.00	350.0	0.0050	0.0330	Open
P125	J1_63	J1_64	135.00	400.0	0.0050	0.0077	Open
P126	J1_63	J2_63	135.00	400.0	0.0050	0.0348	Open
P127	J1_64	J2_64	135.00	400.0	0.0050	0.0262	Open
P128	J2_1	J2_2	135.00	300.0	0.0050	0.0398	Open
P129	J2_1	J3_1	135.00	600.0	0.0050	0.0225	Open
P130	J2_2	J2_3	135.00	100.0	0.0050	0.0684	Open
P131	J2_2	J3_2	135.00	250.0	0.0050	0.0108	Open
P132	J2_3	J2_4	135.00	150.0	0.0050	0.0924	Open
P133	J2_3	J3_3	135.00	250.0	0.0050	0.0286	Open
P134	J2_4	J2_5	135.00	150.0	0.0050	0.0414	Open
P135	J2_4	J3_4	135.00	250.0	0.0050	0.1353	Open
P136	J2_5	J2_6	135.00	250.0	0.0050	0.0461	Open
P137	J2_5	J3_5	135.00	300.0	0.0050	0.0779	Open
P138	J2_6	J2_7	135.00	300.0	0.0050	0.0017	Open
P139	J2_6	J3_6	135.00	100.0	0.0050	0.1427	Open
P140	J2_7	J2_8	135.00	300.0	0.0050	0.1470	Open
P141	J2_7	J3_7	135.00	250.0	0.0050	0.0741	Open
P142	J2_8	J2_9	135.00	250.0	0.0050	0.0454	Open
P143	J2_8	J3_8	135.00	100.0	0.0050	0.0544	Open
P144	J2_9	J2_10	135.00	200.0	0.0050	0.1317	Open
P145	J2_9	J3_9	135.00	100.0	0.0050	0.0563	Open
P146	J2_10	J2_11	135.00	300.0	0.0050	0.0779	Open
P147	J2_10	J3_10	135.00	100.0	0.0050	0.1240	Open
P148	J2_11	J2_12	135.00	300.0	0.0050	0.0391	Open
P149	J2_11	J3_11	135.00	400.0	0.0050	0.0181	Open
P150	J2_12	J2_13	135.00	150.0	0.0050	0.1224	Open
P151	J2_12	J3_12	135.00	150.0	0.0050	0.1289	Open
P152	J2_13	J2_14	135.00	300.0	0.0050	0.1164	Open
P153	J2_13	J3_13	135.00	150.0	0.0050	0.1352	Open
P154	J2_14	J2_15	135.00	150.0	0.0050	0.1341	Open
P155	J2_14	J3_14	135.00	200.0	0.0050	0.0459	Open
P156	J2_15	J2_16	135.00	300.0	0.0050	0.1487	Open
P157	J2_15	J3_15	135.00	100.0	0.0050	0.0069	Open
P158	J2_16	J2_17	135.00	300.0	0.0050	0.0428	Open
P159	J2_16	J3_16	135.00	150.0	0.0050	0.1032	Open
P160	J2_17	J2_18	135.00	100.0	0.0050	0.1497	Open
P161	J2_17	J3_17	135.00	250.0	0.0050	0.0049	Open
P162	J2_18	J2_19	135.00	200.0	0.0050	0.0505	Open
P163	J2_18	J3_18	135.00	150.0	0.0050	0.1027	Open
P164	J2_19	J2_20	135.00	150.0	0.0050	0.0707	Open
P165	J2_19	J3_19	135.00	250.0	0.0050	0.0120	Open
P166	J2_20	J2_21	135.00	250.0	0.0050	0.0847	Open
P167	J2_20	J3_20	135.00	150.0	0.0050	0.0757	Open
P168	J2_21	J2_22	135.00	600.0	0.0050	0.0223	Open
P169	J2_21	J3_21	135.00	350.0	0.0050	0.0262	Open
P170	J2_22	J2_23	135.00	250.0	0.0050	0.1116	Open
P171	J2_22	J3_22	135.00	250.0	0.0050	0.1140	Open
P172	J2_23	J2_24	135.00	150.0	0.0050	0.0685	Open
P173	J2_23	J3_23	135.00	250.0	0.0050	0.0210	Open
P174	J2_24	J2_25	135.00	100.0	0.0050	0.0756	Open
P175	J2_24	J3_24	135.00	100.0	0.0050	0.1154	Open
P176	J2_25	J2_26	135.00	300.0	0.0050	0.0117	Open
P177	J2_25	J3_25	135.00	250.0	0.0050	0.0864	Open
P178	J2_26	J2_27	135.00	100.0	0.0050	0.0144	Open
P179	J2_26	J3_26	135.00	250.0	0.0050	0.1034	Open
P180	J2_27	J2_28	135.00	150.0	0.0050	0.1439	Open
P181	J2_27	J3_27	135.00	300.0	0.0050	0.1100	Open
P182	J2_28	J2_29	135.00	200.0	0.0050	0.0031	Open
P183	J2_28	J3_28	135.00	300.0	0.0050	0.1415	Open
P184	J2_29	J2_30	135.00	300.0	0.0050	0.1148	Open
P185	J2_29	J3_29	135.00	300.0	0.0050	0.0413	Open
P186	J2_30	J2_31	135.00	250.0	0.0050	0.0191	Open
P187	J2_30	J3_30	135.00	200.0	0.0050	0.0380	Open
P188	J2_31	J2_32	135.00	600.0	0.0050	0.0054	Open
P189	J2_31	J3_31	135.00	300.0	0.0050	0.0451	Open
P190	J2_32	J2_33	135.00	300.0	0.0050	0.1296	Open
P191	J2_32	J3_32	135.00	300.0	0.0050	0.1083	Open
P192	J2_33	J2_34	135.00	200.0	0.0050	0.0654	Open
P193	J2_33	J3_33	135.00	100.0	0.0050	0.0565	Open
P194	J2_34	J2_35	135.00	200.0	0.0050	0.0847	Open
P195	J2_34	J3_34	135.00	200.0	0.0050	0.0389	Open
P196	J2_35	J2_36	135.00	200.0	0.0050	0.0787	Open
P197	J2_35	J3_35	135.00	150.0	0.0050	0.0028	Open
P198	J2_36	J2_37	135.00	250.0	0.0050	0.1090	Open
P199	J2_36	J3_36	135.00	100.0	0.0050	0.1013	Open
P200	J2_37	J2_38	135.00	300.0	0.0050	0.0251	Open
P201	J2_37	J3_37	135.00	100.0	0.0050	0.1153	Open
P202	J2_38	J2_39	135.00	100.0	0.0050	0.0756	Open
P203	J2_38	J3_38	135.00	300.0	0.0050	0.0678	Open
P204	J2_39	J2_40	135.00	200.0	0.0050	0.0119	Open
P205	J2_39	J3_39	135.00	200.0	0.0050	0.0468	Open
P206	J2_40	J2_41	135.00	150.0	0.0050	0.0737	Open
P207	J2_40	J3_40	135.00	100.0	0.0050	0.1062	Open
P208	J2_41	J2_42	135.00	300.0	0.0050	0.0178	Open
P209	J2_41	J3_41	135.00	300.0	0.0050	0.0157	Open
P210	J2_42	J2_43	135.00	250.0	0.0050	0.1192	Open
P211	J2_42	J3_42	135.00	300.0	0.0050	0.1336	Open
P212	J2_43	J2_44	135.00	250.0	0.0050	0.1388	Open
P213	J2_43	J3_43	135.00	200.0	0.0050	0.0709	Open
P214	J2_44	J2_45	135.00	150.0	0.0050	0.0450	Open
P215	J2_44	J3_44	135.00	200.0	0.0050	0.0807	Open
P216	J2_45	J2_46	135.00	200.0	0.0050	0.1218	Open
P217	J2_45	J3_45	135.00	200.0	0.0050	0.0621	Open
P218	J2_46	J2_47	135.00	200.0	0.0050	0.1239	Open
P219	J2_46	J3_46	135.00	300.0	0.0050	0.0467	Open
P220	J2_47	J2_48	135.00	150.0	0.0050	0.1483	Open
P221	J2_47	J3_47	135.00	150.0	0.0050	0.1360	Open
P222	J2_48	J2_49	135.00	100.0	0.0050	0.0331	Open
P223	J2_48	J3_48	135.00	300.0	0.0050	0.1320	Open
P224	J2_49	J2_50	135.00	200.0	0.0050	0.0135	Open
P225	J2_49	J3_49	135.00	200.0	0.0050	0.0190	Open
P226	J2_50	J2_51	135.00	250.0	0.0050	0.0154	Open
P227	J2_50	J3_50	135.00	200.0	0.0050	0.0198	Open
P228	J2_51	J2_52	135.00	450.0	0.0050	0.0473	Open
P229	J2_51	J3_51	135.00	450.0	0.0050	0.0083	Open
P230	J2_52	J2_53	135.00	250.0	0.0050	0.1442	Open
P231	J2_52	J3_52	135.00	300.0	0.0050	0.1322	Open
P232	J2_53	J2_54	135.00	150.0	0.0050	0.0242	Open
P233	J2_53	J3_53	135.00	250.0	0.0050	0.0968	Open
P234	J2_54	J2_55	135.00	100.0	0.0050	0.1390	Open
P235	J2_54	J3_54	135.00	100.0	0.0050	0.0370	Open
P236	J2_55	J2_56	135.00	250.0	0.0050	0.0931	Open
P237	J2_55	J3_55	135.00	100.0	0.0050	0.0738	Open
P238	J2_56	J2_57	135.00	150.0	0.0050	0.0638	Open
P239	J2_56	J3_56	135.00	150.0	0.0050	0.0086	Open
P240	J2_57	J2_58	135.00	300.0	0.0050	0.0450	Open
P241	J2_57	J3_57	135.00	100.0	0.0050	0.0597	Open
P242	J2_58	J2_59	135.00	300.0	0.0050	0.0871	Open
P243	J2_58	J3_58	135.00	100.0	0.0050	0.0138	Open
P244	J2_59	J2_60	135.00	200.0	0.0050	0.0609	Open
P245	J2_59	J3_59	135.00	200.0	0.0050	0.0984	Open
P246	J2_60	J2_61	135.00	200.0	0.0050	0.1099	Open
P247	J2_60	J3_60	135.00	100.0	0.0050	0.0152	Open
P248	J2_61	J2_62	135.00	450.0	0.0050	0.0415	Open
P249	J2_61	J3_61	135.00	400.0	0.0050	0.0207	Open
P250	J2_62	J2_63	135.00	150.0	0.0050	0.1029	Open
P251	J2_62	J3_62	135.00	100.0	0.0050	0.0336	Open
P252	J2_63	J2_64	135.00	200.0	0.0050	0.0633	Open
P253	J2_63	J3_63	135.00	300.0	0.0050	0.0089	Open
P254	J2_64	J3_64	135.00	150.0	0.0050	0.1363	Open
P255	J3_1	J3_2	135.00	400.0	0.0050	0.0372	Open
P256	J3_1	J4_1	135.00	350.0	0.0050	0.0092	Open
P257	J3_2	J3_3	135.00	300.0	0.0050	0.0501	Open
P258	J3_2	J4_2	135.00	250.0	0.0050	0.1021	Open
P259	J3_3	J3_4	135.00	150.0	0.0050	0.1353	Open
P260	J3_3	J4_3	135.00	100.0	0.0050	0.0977	Open
P261	J3_4	J3_5	135.00	150.0	0.0050	0.0434	Open
P262	J3_4	J4_4	135.00	300.0	0.0050	0.1193	Open
P263	J3_5	J3_6	135.00	250.0	0.0050	0.1189	Open
P264	J3_5	J4_5	135.00	300.0	0.0050	0.0529	Open
P265	J3_6	J3_7	135.00	200.0	0.0050	0.0233	Open
P266	J3_6	J4_6	135.00	250.0	0.0050	0.0217	Open
P267	J3_7	J3_8	135.00	100.0	0.0050	0.0352	Open
P268	J3_7	J4_7	135.00	300.0	0.0050	0.0837	Open
P269	J3_8	J3_9	135.00	250.0	0.0050	0.1428	Open
P270	J3_8	J4_8	135.00	200.0	0.0050	0.0613	Open
P271	J3_9	J3_10	135.00	200.0	0.0050	0.0509	Open
P272	J3_9	J4_9	135.00	200.0	0.0050	0.0038	Open
P273	J3_10	J3_11	135.00	200.0	0.0050	0.0312	Open
P274	J3_10	J4_10	135.00	250.0	0.0050	0.0575	Open
P275	J3_11	J3_12	135.00	600.0	0.0050	0.0107	Open
P276	J3_11	J4_11	135.00	300.0	0.0050	0.0280	Open
P277	J3_12	J3_13	135.00	200.0	0.0050	0.0017	Open
P278	J3_12	J4_12	135.00	100.0	0.0050	0.1272	Open
P279	J3_13	J3_14	135.00	250.0	0.0050	0.0196	Open
P280	J3_13	J4_13	135.00	100.0	0.0050	0.1494	Open
P281	J3_14	J3_15	135.00	300.0	0.0050	0.0999	Open
P282	J3_14	J4_14	135.00	100.0	0.0050	0.1408	Open
P283	J3_15	J3_16	135.00	250.0	0.0050	0.0668	Open
P284	J3_15	J4_15	135.00	100.0	0.0050	0.1255	Open
P285	J3_16	J3_17	135.00	100.0	0.0050	0.0468	Open
P286	J3_16	J4_16	135.00	250.0	0.0050	0.0937	Open
P287	J3_17	J3_18	135.00	200.0	0.0050	0.1488	Open
P288	J3_17	J4_17	135.00	250.0	0.0050	0.1404	Open
P289	J3_18	J3_19	135.00	150.0	0.0050	0.0789	Open
P290	J3_18	J4_18	135.00	150.0	0.0050	0.0052	Open
P291	J3_19	J3_20	135.00	200.0	0.0050	0.0940	Open
P292	J3_19	J4_19	135.00	150.0	0.0050	0.0154	Open
P293	J3_20	J3_21	135.00	250.0	0.0050	0.0883	Open
P294	J3_20	J4_20	135.00	150.0	0.0050	0.0512	Open
P295	J3_21	J3_22	135.00	500.0	0.0050	0.0302	Open
P296	J3_21	J4_21	135.00	300.0	0.0050	0.0472	Open
P297	J3_22	J3_23	135.00	300.0	0.0050	0.0647	Open
P298	J3_22	J4_22	135.00	200.0	0.0050	0.1266	Open
P299	J3_23	J3_24	135.00	250.0	0.0050	0.0397	Open
P300	J3_23	J4_23	135.00	150.0	0.0050	0.0524	Open
P301	J3_24	J3_25	135.00	100.0	0.0050	0.0140	Open
P302	J3_24	J4_24	135.00	100.0	0.0050	0.0718	Open
P303	J3_25	J3_26	135.00	300.0	0.0050	0.1154	Open
P304	J3_25	J4_25	135.00	100.0	0.0050	0.1266	Open
P305	J3_26	J3_27	135.00	100.0	0.0050	0.0049	Open
P306	J3_26	J4_26	135.00	250.0	0.0050	0.1381	Open
P307	J3_27	J3_28	135.00	250.0	0.0050	0.0945	Open
P308	J3_27	J4_27	135.00	250.0	0.0050	0.0332	Open
P309	J3_28	J3_29	135.00	150.0	0.0050	0.0928	Open
P310	J3_28	J4_28	135.00	200.0	0.0050	0.0443	Open
P311	J3_29	J3_30	135.00	100.0	0.0050	0.0937	Open
P312	J3_29	J4_29	135.00	100.0	0.0050	0.0521	Open
P313	J3_30	J3_31	135.00	150.0	0.0050	0.1463	Open
P314	J3_30	J4_30	135.00	200.0	0.0050	0.0120	Open
P315	J3_31	J3_32	135.00	500.0	0.0050	0.0333	Open
P316	J3_31	J4_31	135.00	300.0	0.0050	0.0096	Open
P317	J3_32	J3_33	135.00	150.0	0.0050	0.0705	Open
P318	J3_32	J4_32	135.00	300.0	0.0050	0.0391	Open
P319	J3_33	J3_34	135.00	250.0	0.0050	0.1212	Open
P320	J3_33	J4_33	135.00	150.0	0.0050	0.0001	Open
P321	J3_34	J3_35	135.00	150.0	0.0050	0.0853	Open
P322	J3_34	J4_34	135.00	150.0	0.0050	0.0395	Open
P323	J3_35	J3_36	135.00	150.0	0.0050	0.0718	Open
P324	J3_35	J4_35	135.00	100.0	0.0050	0.0411	Open
P325	J3_36	J3_37	135.00	200.0	0.0050	0.1120	Open
P326	J3_36	J4_36	135.00	300.0	0.0050	0.0117	Open
P327	J3_37	J3_38	135.00	100.0	0.0050	0.1148	Open
P328	J3_37	J4_37	135.00	100.0	0.0050	0.1203	Open
P329	J3_38	J3_39	135.00	200.0	0.0050	0.0736	Open
P330	J3_38	J4_38	135.00	150.0	0.0050	0.0774	Open
P331	J3_39	J3_40	135.00	150.0	0.0050	0.0968	Open
P332	J3_39	J4_39	135.00	300.0	0.0050	0.0810	Open
P333	J3_40	J3_41	135.00	150.0	0.0050	0.0588	Open
P334	J3_40	J4_40	135.00	150.0	0.0050	0.1184	Open
P335	J3_41	J3_42	135.00	400.0	0.0050	0.0212	Open
P336	J3_41	J4_41	135.00	400.0	0.0050	0.0311	Open
P337	J3_42	J3_43	135.00	300.0	0.0050	0.0439	Open
P338	J3_42	J4_42	135.00	250.0	0.0050	0.0725	Open
P339	J3_43	J3_44	135.00	150.0	0.0050	0.0378	Open
P340	J3_43	J4_43	135.00	150.0	0.0050	0.0394	Open
P341	J3_44	J3_45	135.00	250.0	0.0050	0.0597	Open
P342	J3_44	J4_44	135.00	200.0	0.0050	0.1190	Open
P343	J3_45	J3_46	135.00	100.0	0.0050	0.1404	Open
P344	J3_45	J4_45	135.00	150.0	0.0050	0.0284	Open
P345	J3_46	J3_47	135.00	300.0	0.0050	0.0012	Open
P346	J3_46	J4_46	135.00	300.0	0.0050	0.0571	Open
P347	J3_47	J3_48	135.00	100.0	0.0050	0.0480	Open
P348	J3_47	J4_47	135.00	200.0	0.0050	0.1040	Open
P349	J3_48	J3_49	135.00	300.0	0.0050	0.0426	Open
P350	J3_48	J4_48	135.00	250.0	0.0050	0.1385	Open
P351	J3_49	J3_50	135.00	250.0	0.0050	0.1176	Open
P352	J3_49	J4_49	135.00	250.0	0.0050	0.0359	Open
P353	J3_50	J3_51	135.00	250.0	0.0050	0.1335	Open
P354	J3_50	J4_50	135.00	150.0	0.0050	0.1355	Open
P355	J3_51	J3_52	135.00	400.0	0.0050	0.0035	Open
P356	J3_51	J4_51	135.00	450.0	0.0050	0.0368	Open
P357	J3_52	J3_53	135.00	150.0	0.0050	0.0438	Open
P358	J3_52	J4_52	135.00	300.0	0.0050	0.0927	Open
P359	J3_53	J3_54	135.00	300.0	0.0050	0.0717	Open
P360	J3_53	J4_53	135.00	200.0	0.0050	0.0491	Open
P361	J3_54	J3_55	135.00	200.0	0.0050	0.1301	Open
P362	J3_54	J4_54	135.00	150.0	0.0050	0.0137	Open
P363	J3_55	J3_56	135.00	150.0	0.0050	0.0978	Open
P364	J3_55	J4_55	135.00	200.0	0.0050	0.0756	Open
P365	J3_56	J3_57	135.00	100.0	0.0050	0.0116	Open
P366	J3_56	J4_56	135.00	150.0	0.0050	0.0451	Open
P367	J3_57	J3_58	135.00	300.0	0.0050	0.0654	Open
P368	J3_57	J4_57	135.00	300.0	0.0050	0.1204	Open
P369	J3_58	J3_59	135.00	150.0	0.0050	0.0679	Open
P370	J3_58	J4_58	135.00	300.0	0.0050	0.0263	Open
P371	J3_59	J3_60	135.00	200.0	0.0050	0.1119	Open
P372	J3_59	J4_59	135.00	300.0	0.0050	0.1305	Open
P373	J3_60	J3_61	135.00	300.0	0.0050	0.0731	Open
P374	J3_60	J4_60	135.00	250.0	0.0050	0.0565	Open
P375	J3_61	J3_62	135.00	350.0	0.0050	0.0348	Open
P376	J3_61	J4_61	135.00	300.0	0.0050	0.0047	Open
P377	J3_62	J3_63	135.00	300.0	0.0050	0.0337	Open
P378	J3_62	J4_62	135.00	100.0	0.0050	0.0372	Open
P379	J3_63	J3_64	135.00	100.0	0.0050	0.0371	Open
P380	J3_63	J4_63	135.00	200.0	0.0050	0.0129	Open
P381	J3_64	J4_64	135.00	150.0	0.0050	0.0316	Open
P382	J4_1	J4_2	135.00	300.0	0.0050	0.0161	Open
P383	J4_1	J5_1	135.00	500.0	0.0050	0.0432	Open
P384	J4_2	J4_3	135.00	200.0	0.0050	0.0552	Open
P385	J4_2	J5_2	135.00	250.0	0.0050	0.1288	Open
P386	J4_3	J4_4	135.00	300.0	0.0050	0.0102	Open
P387	J4_3	J5_3	135.00	150.0	0.0050	0.0894	Open
P388	J4_4	J4_5	135.00	200.0	0.0050	0.1202	Open
P389	J4_4	J5_4	135.00	200.0	0.0050	0.0558	Open
P390	J4_5	J4_6	135.00	250.0	0.0050	0.0216	Open
P391	J4_5	J5_5	135.00	150.0	0.0050	0.0259	Open
P392	J4_6	J4_7	135.00	150.0	0.0050	0.0375	Open
P393	J4_6	J5_6	135.00	300.0	0.0050	0.1306	Open
P394	J4_7	J4_8	135.00	250.0	0.0050	0.0442	Open
P395	J4_7	J5_7	135.00	200.0	0.0050	0.1447	Open
P396	J4_8	J4_9	135.00	150.0	0.0050	0.0387	Open
P397	J4_8	J5_8	135.00	250.0	0.0050	0.0781	Open
P398	J4_9	J4_10	135.00	100.0	0.0050	0.0871	Open
P399	J4_9	J5_9	135.00	150.0	0.0050	0.0385	Open
P400	J4_10	J4_11	135.00	100.0	0.0050	0.0566	Open
P401	J4_10	J5_10	135.00	200.0	0.0050	0.0191	Open
P402	J4_11	J4_12	135.00	350.0	0.0050	0.0307	Open
P403	J4_11	J5_11	135.00	450.0	0.0050	0.0047	Open
P404	J4_12	J4_13	135.00	150.0	0.0050	0.0494	Open
P405	J4_12	J5_12	135.00	100.0	0.0050	0.1010	Open
P406	J4_13	J4_14	135.00	150.0	0.0050	0.0242	Open
P407	J4_13	J5_13	135.00	250.0	0.0050	0.1364	Open
P408	J4_14	J4_15	135.00	150.0	0.0050	0.0078	Open
P409	J4_14	J5_14	135.00	150.0	0.0050	0.0235	Open
P410	J4_15	J4_16	135.00	250.0	0.0050	0.0605	Open
P411	J4_15	J5_15	135.00	100.0	0.0050	0.0653	Open
P412	J4_16	J4_17	135.00	100.0	0.0050	0.1083	Open
P413	J4_16	J5_16	135.00	300.0	0.0050	0.0377	Open
P414	J4_17	J4_18	135.00	250.0	0.0050	0.0436	Open
P415	J4_17	J5_17	135.00	200.0	0.0050	0.0342	Open
P416	J4_18	J4_19	135.00	100.0	0.0050	0.1278	Open
P417	J4_18	J5_18	135.00	200.0	0.0050	0.0057	Open
P418	J4_19	J4_20	135.00	200.0	0.0050	0.1223	Open
P419	J4_19	J5_19	135.00	200.0	0.0050	0.0616	Open
P420	J4_20	J4_21	135.00	100.0	0.0050	0.0734	Open
P421	J4_20	J5_20	135.00	200.0	0.0050	0.0480	Open
P422	J4_21	J4_22	135.00	400.0	0.0050	0.0135	Open
P423	J4_21	J5_21	135.00	450.0	0.0050	0.0174	Open
P424	J4_22	J4_23	135.00	150.0	0.0050	0.0616	Open
P425	J4_22	J5_22	135.00	300.0	0.0050	0.1324	Open
P426	J4_23	J4_24	135.00	200.0	0.0050	0.0288	Open
P427	J4_23	J5_23	135.00	300.0	0.0050	0.1201	Open
P428	J4_24	J4_25	135.00	300.0	0.0050	0.1174	Open
P429	J4_24	J5_24	135.00	250.0	0.0050	0.0495	Open
P430	J4_25	J4_26	135.00	100.0	0.0050	0.1409	Open
P431	J4_25	J5_25	135.00	100.0	0.0050	0.1409	Open
P432	J4_26	J4_27	135.00	250.0	0.0050	0.1431	Open
P433	J4_26	J5_26	135.00	250.0	0.0050	0.0620	Open
P434	J4_27	J4_28	135.00	300.0	0.0050	0.1080	Open
P435	J4_27	J5_27	135.00	250.0	0.0050	0.1388	Open
P436	J4_28	J4_29	135.00	150.0	0.0050	0.1330	Open
P437	J4_28	J5_28	135.00	200.0	0.0050	0.1309	Open
P438	J4_29	J4_30	135.00	200.0	0.0050	0.1407	Open
P439	J4_29	J5_29	135.00	100.0	0.0050	0.0042	Open
P440	J4_30	J4_31	135.00	100.0	0.0050	0.0104	Open
P441	J4_30	J5_30	135.00	300.0	0.0050	0.0410	Open
P442	J4_31	J4_32	135.00	400.0	0.0050	0.0375	Open
P443	J4_31	J5_31	135.00	400.0	0.0050	0.0430	Open
P444	J4_32	J4_33	135.00	100.0	0.0050	0.0544	Open
P445	J4_32	J5_32	135.00	150.0	0.0050	0.0262	Open
P446	J4_33	J4_34	135.00	100.0	0.0050	0.0196	Open
P447	J4_33	J5_33	135.00	200.0	0.0050	0.0557	Open
P448	J4_34	J4_35	135.00	150.0	0.0050	0.0913	Open
P449	J4_34	J5_34	135.00	100.0	0.0050	0.0950	Open
P450	J4_35	J4_36	135.00	250.0	0.0050	0.1120	Open
P451	J4_35	J5_35	135.00	150.0	0.0050	0.0278	Open
P452	J4_36	J4_37	135.00	100.0	0.0050	0.0690	Open
P453	J4_36	J5_36	135.00	300.0	0.0050	0.0336	Open
P454	J4_37	J4_38	135.00	300.0	0.0050	0.1107	Open
P455	J4_37	J5_37	135.00	200.0	0.0050	0.0242	Open
P456	J4_38	J4_39	135.00	250.0	0.0050	0.0416	Open
P457	J4_38	J5_38	135.00	300.0	0.0050	0.0660	Open
P458	J4_39	J4_40	135.00	200.0	0.0050	0.0680	Open
P459	J4_39	J5_39	135.00	250.0	0.0050	0.1306	Open
P460	J4_40	J4_41	135.00	100.0	0.0050	0.1194	Open
P461	J4_40	J5_40	135.00	150.0	0.0050	0.1316	Open
P462	J4_41	J4_42	135.00	500.0	0.0050	0.0073	Open
P463	J4_41	J5_41	135.00	300.0	0.0050	0.0074	Open
P464	J4_42	J4_43	135.00	100.0	0.0050	0.0992	Open
P465	J4_42	J5_42	135.00	100.0	0.0050	0.1148	Open
P466	J4_43	J4_44	135.00	250.0	0.0050	0.0996	Open
P467	J4_43	J5_43	135.00	150.0	0.0050	0.1435	Open
P468	J4_44	J4_45	135.00	150.0	0.0050	0.0475	Open
P469	J4_44	J5_44	135.00	150.0	0.0050	0.0950	Open
P470	J4_45	J4_46	135.00	300.0	0.0050	0.1282	Open
P471	J4_45	J5_45	135.00	150.0	0.0050	0.1344	Open
P472	J4_46	J4_47	135.00	250.0	0.0050	0.0048	Open
P473	J4_46	J5_46	135.00	150.0	0.0050	0.0331	Open
P474	J4_47	J4_48	135.00	250.0	0.0050	0.0013	Open
P475	J4_47	J5_47	135.00	300.0	0.0050	0.0831	Open
P476	J4_48	J4_49	135.00	150.0	0.0050	0.1122	Open
P477	J4_48	J5_48	135.00	200.0	0.0050	0.0983	Open
P478	J4_49	J4_50	135.00	200.0	0.0050	0.1490	Open
P479	J4_49	J5_49	135.00	200.0	0.0050	0.0823	Open
P480	J4_50	J4_51	135.00	250.0	0.0050	0.0681	Open
P481	J4_50	J5_50	135.00	100.0	0.0050	0.0101	Open
P482	J4_51	J4_52	135.00	600.0	0.0050	0.0042	Open
P483	J4_51	J5_51	135.00	600.0	0.0050	0.0331	Open
P484	J4_52	J4_53	135.00	200.0	0.0050	0.0488	Open
P485	J4_52	J5_52	135.00	250.0	0.0050	0.0581	Open
P486	J4_53	J4_54	135.00	150.0	0.0050	0.0267	Open
P487	J4_53	J5_53	135.00	200.0	0.0050	0.0304	Open
P488	J4_54	J4_55	135.00	300.0	0.0050	0.0744	Open
P489	J4_54	J5_54	135.00	100.0	0.0050	0.0686	Open
P490	J4_55	J4_56	135.00	200.0	0.0050	0.1126	Open
P491	J4_55	J5_55	135.00	300.0	0.0050	0.1042	Open
P492	J4_56	J4_57	135.00	300.0	0.0050	0.0803	Open
P493	J4_56	J5_56	135.00	150.0	0.0050	0.1031	Open
P494	J4_57	J4_58	135.00	150.0	0.0050	0.0362	Open
P495	J4_57	J5_57	135.00	200.0	0.0050	0.0149	Open
P496	J4_58	J4_59	135.00	300.0	0.0050	0.0524	Open
P497	J4_58	J5_58	135.00	300.0	0.0050	0.0096	Open
P498	J4_59	J4_60	135.00	150.0	0.0050	0.0893	Open
P499	J4_59	J5_59	135.00	300.0	0.0050	0.0837	Open
P500	J4_60	J4_61	135.00	150.0	0.0050	0.0259	Open
P501	J4_60	J5_60	135.00	150.0	0.0050	0.1163	Open
P502	J4_61	J4_62	135.00	400.0	0.0050	0.0136	Open
P503	J4_61	J5_61	135.00	300.0	0.0050	0.0407	Open
P504	J4_62	J4_63	135.00	100.0	0.0050	0.0353	Open
P505	J4_62	J5_62	135.00	250.0	0.0050	0.0052	Open
P506	J4_63	J4_64	135.00	100.0	0.0050	0.0438	Open
P507	J4_63	J5_63	135.00	250.0	0.0050	0.0519	Open
P508	J4_64	J5_64	135.00	250.0	0.0050	0.0747	Open
P509	J5_1	J5_2	135.00	350.0	0.0050	0.0396	Open
P510	J5_1	J6_1	135.00	350.0	0.0050	0.0010	Open
P511	J5_2	J5_3	135.00	100.0	0.0050	0.0228	Open
P512	J5_2	J6_2	135.00	100.0	0.0050	0.1166	Open
P513	J5_3	J5_4	135.00	150.0	0.0050	0.0071	Open
P514	J5_3	J6_3	135.00	100.0	0.0050	0.0492	Open
P515	J5_4	J5_5	135.00	200.0	0.0050	0.0313	Open
P516	J5_4	J6_4	135.00	150.0	0.0050	0.0914	Open
P517	J5_5	J5_6	135.00	150.0	0.0050	0.0180	Open
P518	J5_5	J6_5	135.00	250.0	0.0050	0.0152	Open
P519	J5_6	J5_7	135.00	150.0	0.0050	0.0267	Open
P520	J5_6	J6_6	135.00	100.0	0.0050	0.0166	Open
P521	J5_7	J5_8	135.00	100.0	0.0050	0.1030	Open
P522	J5_7	J6_7	135.00	100.0	0.0050	0.1266	Open
P523	J5_8	J5_9	135.00	150.0	0.0050	0.0765	Open
P524	J5_8	J6_8	135.00	300.0	0.0050	0.1471	Open
P525	J5_9	J5_10	135.00	150.0	0.0050	0.1278	Open
P526	J5_9	J6_9	135.00	200.0	0.0050	0.0846	Open
P527	J5_10	J5_11	135.00	300.0	0.0050	0.0184	Open
P528	J5_10	J6_10	135.00	200.0	0.0050	0.0912	Open
P529	J5_11	J5_12	135.00	350.0	0.0050	0.0486	Open
P530	J5_11	J6_11	135.00	300.0	0.0050	0.0407	Open
P531	J5_12	J5_13	135.00	100.0	0.0050	0.0174	Open
P532	J5_12	J6_12	135.00	150.0	0.0050	0.0859	Open
P533	J5_13	J5_14	135.00	150.0	0.0050	0.1281	Open
P534	J5_13	J6_13	135.00	300.0	0.0050	0.0286	Open
P535	J5_14	J5_15	135.00	150.0	0.0050	0.0953	Open
P536	J5_14	J6_14	135.00	150.0	0.0050	0.0835	Open
P537	J5_15	J5_16	135.00	300.0	0.0050	0.1352	Open
P538	J5_15	J6_15	135.00	100.0	0.0050	0.0176	Open
P539	J5_16	J5_17	135.00	200.0	0.0050	0.1412	Open
P540	J5_16	J6_16	135.00	150.0	0.0050	0.1268	Open
P541	J5_17	J5_18	135.00	250.0	0.0050	0.0398	Open
P542	J5_17	J6_17	135.00	100.0	0.0050	0.0156	Open
P543	J5_18	J5_19	135.00	250.0	0.0050	0.1161	Open
P544	J5_18	J6_18	135.00	200.0	0.0050	0.0249	Open
P545	J5_19	J5_20	135.00	100.0	0.0050	0.1006	Open
P546	J5_19	J6_19	135.00	250.0	0.0050	0.1079	Open
P547	J5_20	J5_21	135.00	250.0	0.0050	0.1479	Open
P548	J5_20	J6_20	135.00	250.0	0.0050	0.1226	Open
P549	J5_21	J5_22	135.00	500.0	0.0050	0.0217	Open
P550	J5_21	J6_21	135.00	500.0	0.0050	0.0333	Open
P551	J5_22	J5_23	135.00	150.0	0.0050	0.0231	Open
P552	J5_22	J6_22	135.00	300.0	0.0050	0.1211	Open
P553	J5_23	J5_24	135.00	300.0	0.0050	0.1005	Open
P554	J5_23	J6_23	135.00	200.0	0.0050	0.0920	Open
P555	J5_24	J5_25	135.00	300.0	0.0050	0.1412	Open
P556	J5_24	J6_24	135.00	100.0	0.0050	0.1043	Open
P557	J5_25	J5_26	135.00	300.0	0.0050	0.0746	Open
P558	J5_25	J6_25	135.00	100.0	0.0050	0.1387	Open
P559	J5_26	J5_27	135.00	300.0	0.0050	0.0720	Open
P560	J5_26	J6_26	135.00	150.0	0.0050	0.1206	Open
P561	J5_27	J5_28	135.00	200.0	0.0050	0.1327	Open
P562	J5_27	J6_27	135.00	150.0	0.0050	0.0374	Open
P563	J5_28	J5_29	135.00	100.0	0.0050	0.1278	Open
P564	J5_28	J6_28	135.00	100.0	0.0050	0.0817	Open
P565	J5_29	J5_30	135.00	150.0	0.0050	0.1128	Open
P566	J5_29	J6_29	135.00	300.0	0.0050	0.1309	Open
P567	J5_30	J5_31	135.00	150.0	0.0050	0.1067	Open
P568	J5_30	J6_30	135.00	250.0	0.0050	0.1437	Open
P569	J5_31	J5_32	135.00	400.0	0.0050	0.0469	Open
P570	J5_31	J6_31	135.00	350.0	0.0050	0.0281	Open
P571	J5_32	J5_33	135.00	100.0	0.0050	0.0262	Open
P572	J5_32	J6_32	135.00	250.0	0.0050	0.0182	Open
P573	J5_33	J5_34	135.00	150.0	0.0050	0.0544	Open
P574	J5_33	J6_33	135.00	150.0	0.0050	0.0563	Open
P575	J5_34	J5_35	135.00	250.0	0.0050	0.0455	Open
P576	J5_34	J6_34	135.00	150.0	0.0050	0.0947	Open
P577	J5_35	J5_36	135.00	200.0	0.0050	0.0259	Open
P578	J5_35	J6_35	135.00	200.0	0.0050	0.0096	Open
P579	J5_36	J5_37	135.00	100.0	0.0050	0.0796	Open
P580	J5_36	J6_36	135.00	250.0	0.0050	0.0860	Open
P581	J5_37	J5_38	135.00	100.0	0.0050	0.0950	Open
P582	J5_37	J6_37	135.00	100.0	0.0050	0.0031	Open
P583	J5_38	J5_39	135.00	300.0	0.0050	0.1271	Open
P584	J5_38	J6_38	135.00	250.0	0.0050	0.0492	Open
P585	J5_39	J5_40	135.00	100.0	0.0050	0.0471	Open
P586	J5_39	J6_39	135.00	300.0	0.0050	0.0409	Open
P587	J5_40	J5_41	135.00	200.0	0.0050	0.1232	Open
P588	J5_40	J6_40	135.00	150.0	0.0050	0.1079	Open
P589	J5_41	J5_42	135.00	300.0	0.0050	0.0072	Open
P590	J5_41	J6_41	135.00	350.0	0.0050	0.0341	Open
P591	J5_42	J5_43	135.00	200.0	0.0050	0.1467	Open
P592	J5_42	J6_42	135.00	250.0	0.0050	0.0359	Open
P593	J5_43	J5_44	135.00	250.0	0.0050	0.0828	Open
P594	J5_43	J6_43	135.00	100.0	0.0050	0.1349	Open
P595	J5_44	J5_45	135.00	200.0	0.0050	0.0979	Open
P596	J5_44	J6_44	135.00	200.0	0.0050	0.1115	Open
P597	J5_45	J5_46	135.00	150.0	0.0050	0.0989	Open
P598	J5_45	J6_45	135.00	250.0	0.0050	0.0761	Open
P599	J5_46	J5_47	135.00	250.0	0.0050	0.1148	Open
P600	J5_46	J6_46	135.00	300.0	0.0050	0.0342	Open
P601	J5_47	J5_48	135.00	150.0	0.0050	0.0492	Open
P602	J5_47	J6_47	135.00	200.0	0.0050	0.0957	Open
P603	J5_48	J5_49	135.00	250.0	0.0050	0.0381	Open
P604	J5_48	J6_48	135.00	200.0	0.0050	0.0447	Open
P605	J5_49	J5_50	135.00	150.0	0.0050	0.0478	Open
P606	J5_49	J6_49	135.00	100.0	0.0050	0.1281	Open
P607	J5_50	J5_51	135.00	300.0	0.0050	0.0454	Open
P608	J5_50	J6_50	135.00	150.0	0.0050	0.0404	Open
P609	J5_51	J5_52	135.00	400.0	0.0050	0.0334	Open
P610	J5_51	J6_51	135.00	450.0	0.0050	0.0257	Open
P611	J5_52	J5_53	135.00	100.0	0.0050	0.0314	Open
P612	J5_52	J6_52	135.00	100.0	0.0050	0.1176	Open
P613	J5_53	J5_54	135.00	200.0	0.0050	0.0289	Open
P614	J5_53	J6_53	135.00	200.0	0.0050	0.0815	Open
P615	J5_54	J5_55	135.00	300.0	0.0050	0.0917	Open
P616	J5_54	J6_54	135.00	100.0	0.0050	0.1235	Open
P617	J5_55	J5_56	135.00	200.0	0.0050	0.0120	Open
P618	J5_55	J6_55	135.00	150.0	0.0050	0.1177	Open
P619	J5_56	J5_57	135.00	150.0	0.0050	0.0159	Open
P620	J5_56	J6_56	135.00	250.0	0.0050	0.0952	Open
P621	J5_57	J5_58	135.00	200.0	0.0050	0.0646	Open
P622	J5_57	J6_57	135.00	100.0	0.0050	0.1081	Open
P623	J5_58	J5_59	135.00	300.0	0.0050	0.1347	Open
P624	J5_58	J6_58	135.00	250.0	0.0050	0.0678	Open
P625	J5_59	J5_60	135.00	200.0	0.0050	0.0729	Open
P626	J5_59	J6_59	135.00	150.0	0.0050	0.1406	Open
P627	J5_60	J5_61	135.00	100.0	0.0050	0.0872	Open
P628	J5_60	J6_60	135.00	100.0	0.0050	0.0887	Open
P629	J5_61	J5_62	135.00	300.0	0.0050	0.0329	Open
P630	J5_61	J6_61	135.00	350.0	0.0050	0.0199	Open
P631	J5_62	J5_63	135.00	250.0	0.0050	0.0285	Open
P632	J5_62	J6_62	135.00	200.0	0.0050	0.1039	Open
P633	J5_63	J5_64	135.00	250.0	0.0050	0.1092	Open
P634	J5_63	J6_63	135.00	300.0	0.0050	0.0666	Open
P635	J5_64	J6_64	135.00	100.0	0.0050	0.1234	Open
P636	J6_1	J6_2	135.00	450.0	0.0050	0.0190	Open
P637	J6_1	J7_1	135.00	600.0	0.0050	0.0437	Open
P638	J6_2	J6_3	135.00	100.0	0.0050	0.0890	Open
P639	J6_2	J7_2	135.00	100.0	0.0050	0.0430	Open
P640	J6_3	J6_4	135.00	300.0	0.0050	0.0628	Open
P641	J6_3	J7_3	135.00	200.0	0.0050	0.0082	Open
P642	J6_4	J6_5	135.00	200.0	0.0050	0.0409	Open
P643	J6_4	J7_4	135.00	200.0	0.0050	0.0299	Open
P644	J6_5	J6_6	135.00	200.0	0.0050	0.1046	Open
P645	J6_5	J7_5	135.00	100.0	0.0050	0.0067	Open
P646	J6_6	J6_7	135.00	100.0	0.0050	0.0242	Open
P647	J6_6	J7_6	135.00	150.0	0.0050	0.0137	Open
P648	J6_7	J6_8	135.00	150.0	0.0050	0.1440	Open
P649	J6_7	J7_7	135.00	250.0	0.0050	0.1364	Open
P650	J6_8	J6_9	135.00	100.0	0.0050	0.1204	Open
P651	J6_8	J7_8	135.00	250.0	0.0050	0.0657	Open
P652	J6_9	J6_10	135.00	250.0	0.0050	0.1234	Open
P653	J6_9	J7_9	135.00	150.0	0.0050	0.1043	Open
P654	J6_10	J6_11	135.00	150.0	0.0050	0.0399	Open
P655	J6_10	J7_10	135.00	100.0	0.0050	0.1394	Open
P656	J6_11	J6_12	135.00	350.0	0.0050	0.0083	Open
P657	J6_11	J7_11	135.00	450.0	0.0050	0.0161	Open
P658	J6_12	J6_13	135.00	200.0	0.0050	0.1081	Open
P659	J6_12	J7_12	135.00	200.0	0.0050	0.0619	Open
P660	J6_13	J6_14	135.00	200.0	0.0050	0.0612	Open
P661	J6_13	J7_13	135.00	300.0	0.0050	0.1195	Open
P662	J6_14	J6_15	135.00	300.0	0.0050	0.0183	Open
P663	J6_14	J7_14	135.00	200.0	0.0050	0.0381	Open
P664	J6_15	J6_16	135.00	250.0	0.0050	0.1454	Open
P665	J6_15	J7_15	135.00	200.0	0.0050	0.0206	Open
P666	J6_16	J6_17	135.00	250.0	0.0050	0.0370	Open
P667	J6_16	J7_16	135.00	150.0	0.0050	0.0333	Open
P668	J6_17	J6_18	135.00	100.0	0.0050	0.1352	Open
P669	J6_17	J7_17	135.00	250.0	0.0050	0.1340	Open
P670	J6_18	J6_19	135.00	100.0	0.0050	0.0543	Open
P671	J6_18	J7_18	135.00	300.0	0.0050	0.0254	Open
P672	J6_19	J6_20	135.00	250.0	0.0050	0.1245	Open
P673	J6_19	J7_19	135.00	150.0	0.0050	0.0838	Open
P674	J6_20	J6_21	135.00	200.0	0.0050	0.1368	Open
P675	J6_20	J7_20	135.00	100.0	0.0050	0.0357	Open
P676	J6_21	J6_22	135.00	350.0	0.0050	0.0095	Open
P677	J6_21	J7_21	135.00	450.0	0.0050	0.0003	Open
P678	J6_22	J6_23	135.00	250.0	0.0050	0.0000	Open
P679	J6_22	J7_22	135.00	300.0	0.0050	0.0722	Open
P680	J6_23	J6_24	135.00	250.0	0.0050	0.0526	Open
P681	J6_23	J7_23	135.00	200.0	0.0050	0.0241	Open
P682	J6_24	J6_25	135.00	150.0	0.0050	0.1220	Open
P683	J6_24	J7_24	135.00	100.0	0.0050	0.0522	Open
P684	J6_25	J6_26	135.00	100.0	0.0050	0.0201	Open
P685	J6_25	J7_25	135.00	150.0	0.0050	0.0043	Open
P686	J6_26	J6_27	135.00	150.0	0.0050	0.0848	Open
P687	J6_26	J7_26	135.00	200.0	0.0050	0.0223	Open
P688	J6_27	J6_28	135.00	150.0	0.0050	0.0395	Open
P689	J6_27	J7_27	135.00	250.0	0.0050	0.0057	Open
P690	J6_28	J6_29	135.00	250.0	0.0050	0.1034	Open
P691	J6_28	J7_28	135.00	200.0	0.0050	0.0357	Open
P692	J6_29	J6_30	135.00	150.0	0.0050	0.1352	Open
P693	J6_29	J7_29	135.00	200.0	0.0050	0.0848	Open
P694	J6_30	J6_31	135.00	300.0	0.0050	0.1292	Open
P695	J6_30	J7_30	135.00	250.0	0.0050	0.1430	Open
P696	J6_31	J6_32	135.00	300.0	0.0050	0.0213	Open
P697	J6_31	J7_31	135.00	500.0	0.0050	0.0299	Open
P698	J6_32	J6_33	135.00	200.0	0.0050	0.1166	Open
P699	J6_32	J7_32	135.00	250.0	0.0050	0.0729	Open
P700	J6_33	J6_34	135.00	200.0	0.0050	0.1364	Open
P701	J6_33	J7_33	135.00	300.0	0.0050	0.0160	Open
P702	J6_34	J6_35	135.00	150.0	0.0050	0.0407	Open
P703	J6_34	J7_34	135.00	100.0	0.0050	0.0460	Open
P704	J6_35	J6_36	135.00	100.0	0.0050	0.0957	Open
P705	J6_35	J7_35	135.00	150.0	0.0050	0.1094	Open
P706	J6_36	J6_37	135.00	300.0	0.0050	0.0681	Open
P707	J6_36	J7_36	135.00	100.0	0.0050	0.0583	Open
P708	J6_37	J6_38	135.00	250.0	0.0050	0.1275	Open
P709	J6_37	J7_37	135.00	200.0	0.0050	0.0854	Open
P710	J6_38	J6_39	135.00	250.0	0.0050	0.0503	Open
P711	J6_38	J7_38	135.00	150.0	0.0050	0.0954	Open
P712	J6_39	J6_40	135.00	100.0	0.0050	0.1382	Open
P713	J6_39	J7_39	135.00	300.0	0.0050	0.0732	Open
P714	J6_40	J6_41	135.00	200.0	0.0050	0.1063	Open
P715	J6_40	J7_40	135.00	150.0	0.0050	0.1371	Open
P716	J6_41	J6_42	135.00	350.0	0.0050	0.0211	Open
P717	J6_41	J7_41	135.00	400.0	0.0050	0.0152	Open
P718	J6_42	J6_43	135.00	100.0	0.0050	0.0859	Open
P719	J6_42	J7_42	135.00	300.0	0.0050	0.0467	Open
P720	J6_43	J6_44	135.00	100.0	0.0050	0.1239	Open
P721	J6_43	J7_43	135.00	150.0	0.0050	0.0425	Open
P722	J6_44	J6_45	135.00	100.0	0.0050	0.0528	Open
P723	J6_44	J7_44	135.00	200.0	0.0050	0.0851	Open
P724	J6_45	J6_46	135.00	100.0	0.0050	0.0376	Open
P725	J6_45	J7_45	135.00	100.0	0.0050	0.1018	Open
P726	J6_46	J6_47	135.00	200.0	0.0050	0.0602	Open
P727	J6_46	J7_46	135.00	100.0	0.0050	0.0613	Open
P728	J6_47	J6_48	135.00	250.0	0.0050	0.1231	Open
P729	J6_47	J7_47	135.00	100.0	0.0050	0.1284	Open
P730	J6_48	J6_49	135.00	100.0	0.0050	0.0368	Open
P731	J6_48	J7_48	135.00	150.0	0.0050	0.0984	Open
P732	J6_49	J6_50	135.00	150.0	0.0050	0.1370	Open
P733	J6_49	J7_49	135.00	150.0	0.0050	0.1193	Open
P734	J6_50	J6_51	135.00	100.0	0.0050	0.0928	Open
P735	J6_50	J7_50	135.00	250.0	0.0050	0.0193	Open
P736	J6_51	J6_52	135.00	350.0	0.0050	0.0009	Open
P737	J6_51	J7_51	135.00	350.0	0.0050	0.0384	Open
P738	J6_52	J6_53	135.00	300.0	0.0050	0.1427	Open
P739	J6_52	J7_52	135.00	300.0	0.0050	0.0804	Open
P740	J6_53	J6_54	135.00	150.0	0.0050	0.1482	Open
P741	J6_53	J7_53	135.00	250.0	0.0050	0.0144	Open
P742	J6_54	J6_55	135.00	100.0	0.0050	0.0594	Open
P743	J6_54	J7_54	135.00	100.0	0.0050	0.0795	Open
P744	J6_55	J6_56	135.00	100.0	0.0050	0.0744	Open
P745	J6_55	J7_55	135.00	250.0	0.0050	0.0967	Open
P746	J6_56	J6_57	135.00	200.0	0.0050	0.1345	Open
P747	J6_56	J7_56	135.00	250.0	0.0050	0.0065	Open
P748	J6_57	J6_58	135.00	250.0	0.0050	0.0082	Open
P749	J6_57	J7_57	135.00	100.0	0.0050	0.0868	Open
P750	J6_58	J6_59	135.00	150.0	0.0050	0.1393	Open
P751	J6_58	J7_58	135.00	200.0	0.0050	0.0734	Open
P752	J6_59	J6_60	135.00	200.0	0.0050	0.1397	Open
P753	J6_59	J7_59	135.00	100.0	0.0050	0.1074	Open
P754	J6_60	J6_61	135.00	250.0	0.0050	0.1249	Open
P755	J6_60	J7_60	135.00	100.0	0.0050	0.0701	Open
P756	J6_61	J6_62	135.00	300.0	0.0050	0.0362	Open
P757	J6_61	J7_61	135.00	400.0	0.0050	0.0264	Open
P758	J6_62	J6_63	135.00	250.0	0.0050	0.1042	Open
P759	J6_62	J7_62	135.00	250.0	0.0050	0.0654	Open
P760	J6_63	J6_64	135.00	250.0	0.0050	0.1127	Open
P761	J6_63	J7_63	135.00	100.0	0.0050	0.1291	Open
P762	J6_64	J7_64	135.00	200.0	0.0050	0.1397	Open
P763	J7_1	J7_2	135.00	350.0	0.0050	0.0261	Open
P764	J7_1	J8_1	135.00	400.0	0.0050	0.0003	Open
P765	J7_2	J7_3	135.00	150.0	0.0050	0.1055	Open
P766	J7_2	J8_2	135.00	150.0	0.0050	0.0260	Open
P767	J7_3	J7_4	135.00	300.0	0.0050	0.1286	Open
P768	J7_3	J8_3	135.00	150.0	0.0050	0.0896	Open
P769	J7_4	J7_5	135.00	200.0	0.0050	0.1262	Open
P770	J7_4	J8_4	135.00	150.0	0.0050	0.1483	Open
P771	J7_5	J7_6	135.00	100.0	0.0050	0.1436	Open
P772	J7_5	J8_5	135.00	300.0	0.0050	0.1328	Open
P773	J7_6	J7_7	135.00	300.0	0.0050	0.0237	Open
P774	J7_6	J8_6	135.00	150.0	0.0050	0.0438	Open
P775	J7_7	J7_8	135.00	200.0	0.0050	0.0670	Open
P776	J7_7	J8_7	135.00	150.0	0.0050	0.1238	Open
P777	J7_8	J7_9	135.00	300.0	0.0050	0.0664	Open
P778	J7_8	J8_8	135.00	150.0	0.0050	0.0980	Open
P779	J7_9	J7_10	135.00	100.0	0.0050	0.0578	Open
P780	J7_9	J8_9	135.00	300.0	0.0050	0.0991	Open
P781	J7_10	J7_11	135.00	100.0	0.0050	0.0404	Open
P782	J7_10	J8_10	135.00	200.0	0.0050	0.0604	Open
P783	J7_11	J7_12	135.00	500.0	0.0050	0.0188	Open
P784	J7_11	J8_11	135.00	400.0	0.0050	0.0213	Open
P785	J7_12	J7_13	135.00	150.0	0.0050	0.0371	Open
P786	J7_12	J8_12	135.00	200.0	0.0050	0.1059	Open
P787	J7_13	J7_14	135.00	150.0	0.0050	0.0752	Open
P788	J7_13	J8_13	135.00	100.0	0.0050	0.1062	Open
P789	J7_14	J7_15	135.00	200.0	0.0050	0.1270	Open
P790	J7_14	J8_14	135.00	300.0	0.0050	0.1312	Open
P791	J7_15	J7_16	135.00	300.0	0.0050	0.1466	Open
P792	J7_15	J8_15	135.00	200.0	0.0050	0.0457	Open
P793	J7_16	J7_17	135.00	250.0	0.0050	0.0171	Open
P794	J7_16	J8_16	135.00	300.0	0.0050	0.0713	Open
P795	J7_17	J7_18	135.00	150.0	0.0050	0.0010	Open
P796	J7_17	J8_17	135.00	300.0	0.0050	0.0051	Open
P797	J7_18	J7_19	135.00	250.0	0.0050	0.0577	Open
P798	J7_18	J8_18	135.00	300.0	0.0050	0.0997	Open
P799	J7_19	J7_20	135.00	100.0	0.0050	0.0423	Open
P800	J7_19	J8_19	135.00	150.0	0.0050	0.0603	Open
P801	J7_20	J7_21	135.00	300.0	0.0050	0.0834	Open
P802	J7_20	J8_20	135.00	200.0	0.0050	0.0506	Open
P803	J7_21	J7_22	135.00	450.0	0.0050	0.0372	Open
P804	J7_21	J8_21	135.00	350.0	0.0050	0.0093	Open
P805	J7_22	J7_23	135.00	250.0	0.0050	0.1012	Open
P806	J7_22	J8_22	135.00	150.0	0.0050	0.0662	Open
P807	J7_23	J7_24	135.00	250.0	0.0050	0.0593	Open
P808	J7_23	J8_23	135.00	200.0	0.0050	0.0785	Open
P809	J7_24	J7_25	135.00	150.0	0.0050	0.1047	Open
P810	J7_24	J8_24	135.00	250.0	0.0050	0.0277	Open
P811	J7_25	J7_26	135.00	100.0	0.0050	0.0628	Open
P812	J7_25	J8_25	135.00	250.0	0.0050	0.0331	Open
P813	J7_26	J7_27	135.00	150.0	0.0050	0.0753	Open
P814	J7_26	J8_26	135.00	200.0	0.0050	0.0416	Open
P815	J7_27	J7_28	135.00	150.0	0.0050	0.1187	Open
P816	J7_27	J8_27	135.00	250.0	0.0050	0.0813	Open
P817	J7_28	J7_29	135.00	250.0	0.0050	0.0156	Open
P818	J7_28	J8_28	135.00	200.0	0.0050	0.0947	Open
P819	J7_29	J7_30	135.00	100.0	0.0050	0.1480	Open
P820	J7_29	J8_29	135.00	300.0	0.0050	0.1496	Open
P821	J7_30	J7_31	135.00	200.0	0.0050	0.1147	Open
P822	J7_30	J8_30	135.00	300.0	0.0050	0.1128	Open
P823	J7_31	J7_32	135.00	350.0	0.0050	0.0326	Open
P824	J7_31	J8_31	135.00	400.0	0.0050	0.0270	Open
P825	J7_32	J7_33	135.00	150.0	0.0050	0.0647	Open
P826	J7_32	J8_32	135.00	100.0	0.0050	0.0566	Open
P827	J7_33	J7_34	135.00	200.0	0.0050	0.1474	Open
P828	J7_33	J8_33	135.00	150.0	0.0050	0.0338	Open
P829	J7_34	J7_35	135.00	150.0	0.0050	0.0769	Open
P830	J7_34	J8_34	135.00	300.0	0.0050	0.0320	Open
P831	J7_35	J7_36	135.00	150.0	0.0050	0.0504	Open
P832	J7_35	J8_35	135.00	200.0	0.0050	0.0569	Open
P833	J7_36	J7_37	135.00	100.0	0.0050	0.1400	Open
P834	J7_36	J8_36	135.00	300.0	0.0050	0.0224	Open
P835	J7_37	J7_38	135.00	100.0	0.0050	0.0866	Open
P836	J7_37	J8_37	135.00	300.0	0.0050	0.0752	Open
P837	J7_38	J7_39	135.00	100.0	0.0050	0.0418	Open
P838	J7_38	J8_38	135.00	100.0	0.0050	0.0653	Open
P839	J7_39	J7_40	135.00	300.0	0.0050	0.1025	Open
P840	J7_39	J8_39	135.00	200.0	0.0050	0.0859	Open
P841	J7_40	J7_41	135.00	150.0	0.0050	0.0106	Open
P842	J7_40	J8_40	135.00	150.0	0.0050	0.0323	Open
P843	J7_41	J7_42	135.00	300.0	0.0050	0.0491	Open
P844	J7_41	J8_41	135.00	500.0	0.0050	0.0183	Open
P845	J7_42	J7_43	135.00	100.0	0.0050	0.0286	Open
P846	J7_42	J8_42	135.00	200.0	0.0050	0.0426	Open
P847	J7_43	J7_44	135.00	100.0	0.0050	0.0055	Open
P848	J7_43	J8_43	135.00	250.0	0.0050	0.0195	Open
P849	J7_44	J7_45	135.00	300.0	0.0050	0.0259	Open
P850	J7_44	J8_44	135.00	300.0	0.0050	0.0992	Open
P851	J7_45	J7_46	135.00	300.0	0.0050	0.0024	Open
P852	J7_45	J8_45	135.00	100.0	0.0050	0.1395	Open
P853	J7_46	J7_47	135.00	150.0	0.0050	0.0325	Open
P854	J7_46	J8_46	135.00	150.0	0.0050	0.1475	Open
P855	J7_47	J7_48	135.00	100.0	0.0050	0.0512	Open
P856	J7_47	J8_47	135.00	150.0	0.0050	0.0203	Open
P857	J7_48	J7_49	135.00	300.0	0.0050	0.0582	Open
P858	J7_48	J8_48	135.00	200.0	0.0050	0.1040	Open
P859	J7_49	J7_50	135.00	250.0	0.0050	0.0398	Open
P860	J7_49	J8_49	135.00	300.0	0.0050	0.0424	Open
P861	J7_50	J7_51	135.00	300.0	0.0050	0.1405	Open
P862	J7_50	J8_50	135.00	100.0	0.0050	0.0726	Open
P863	J7_51	J7_52	135.00	350.0	0.0050	0.0156	Open
P864	J7_51	J8_51	135.00	350.0	0.0050	0.0434	Open
P865	J7_52	J7_53	135.00	300.0	0.0050	0.0536	Open
P866	J7_52	J8_52	135.00	300.0	0.0050	0.0764	Open
P867	J7_53	J7_54	135.00	150.0	0.0050	0.0915	Open
P868	J7_53	J8_53	135.00	100.0	0.0050	0.0308	Open
P869	J7_54	J7_55	135.00	300.0	0.0050	0.1477	Open
P870	J7_54	J8_54	135.00	200.0	0.0050	0.0142	Open
P871	J7_55	J7_56	135.00	250.0	0.0050	0.1065	Open
P872	J7_55	J8_55	135.00	100.0	0.0050	0.1040	Open
P873	J7_56	J7_57	135.00	250.0	0.0050	0.0207	Open
P874	J7_56	J8_56	135.00	200.0	0.0050	0.1486	Open
P875	J7_57	J7_58	135.00	100.0	0.0050	0.1239	Open
P876	J7_57	J8_57	135.00	300.0	0.0050	0.0206	Open
P877	J7_58	J7_59	135.00	300.0	0.0050	0.0413	Open
P878	J7_58	J8_58	135.00	150.0	0.0050	0.0665	Open
P879	J7_59	J7_60	135.00	250.0	0.0050	0.0333	Open
P880	J7_59	J8_59	135.00	300.0	0.0050	0.1178	Open
P881	J7_60	J7_61	135.00	100.0	0.0050	0.1447	Open
P882	J7_60	J8_60	135.00	250.0	0.0050	0.0084	Open
P883	J7_61	J7_62	135.00	300.0	0.0050	0.0430	Open
P884	J7_61	J8_61	135.00	300.0	0.0050	0.0484	Open
P885	J7_62	J7_63	135.00	100.0	0.0050	0.0821	Open
P886	J7_62	J8_62	135.00	200.0	0.0050	0.0477	Open
P887	J7_63	J7_64	135.00	200.0	0.0050	0.0109	Open
P888	J7_63	J8_63	135.00	200.0	0.0050	0.0941	Open
P889	J7_64	J8_64	135.00	100.0	0.0050	0.0301	Open
P890	J8_1	J8_2	135.00	600.0	0.0050	0.0415	Open
P891	J8_1	J9_1	135.00	600.0	0.0050	0.0001	Open
P892	J8_2	J8_3	135.00	250.0	0.0050	0.1018	Open
P893	J8_2	J9_2	135.00	150.0	0.0050	0.0210	Open
P894	J8_3	J8_4	135.00	200.0	0.0050	0.1469	Open
P895	J8_3	J9_3	135.00	300.0	0.0050	0.0192	Open
P896	J8_4	J8_5	135.00	300.0	0.0050	0.0549	Open
P897	J8_4	J9_4	135.00	150.0	0.0050	0.1319	Open
P898	J8_5	J8_6	135.00	250.0	0.0050	0.0298	Open
P899	J8_5	J9_5	135.00	100.0	0.0050	0.0958	Open
P900	J8_6	J8_7	135.00	200.0	0.0050	0.0525	Open
P901	J8_6	J9_6	135.00	250.0	0.0050	0.0637	Open
P902	J8_7	J8_8	135.00	200.0	0.0050	0.1489	Open
P903	J8_7	J9_7	135.00	250.0	0.0050	0.0681	Open
P904	J8_8	J8_9	135.00	150.0	0.0050	0.1272	Open
P905	J8_8	J9_8	135.00	300.0	0.0050	0.0470	Open
P906	J8_9	J8_10	135.00	100.0	0.0050	0.1428	Open
P907	J8_9	J9_9	135.00	100.0	0.0050	0.0136	Open
P908	J8_10	J8_11	135.00	150.0	0.0050	0.0893	Open
P909	J8_10	J9_10	135.00	200.0	0.0050	0.0311	Open
P910	J8_11	J8_12	135.00	300.0	0.0050	0.0255	Open
P911	J8_11	J9_11	135.00	350.0	0.0050	0.0088	Open
P912	J8_12	J8_13	135.00	150.0	0.0050	0.0493	Open
P913	J8_12	J9_12	135.00	250.0	0.0050	0.0272	Open
P914	J8_13	J8_14	135.00	150.0	0.0050	0.0261	Open
P915	J8_13	J9_13	135.00	150.0	0.0050	0.1445	Open
P916	J8_14	J8_15	135.00	150.0	0.0050	0.0286	Open
P917	J8_14	J9_14	135.00	200.0	0.0050	0.0204	Open
P918	J8_15	J8_16	135.00	100.0	0.0050	0.0456	Open
P919	J8_15	J9_15	135.00	250.0	0.0050	0.1459	Open
P920	J8_16	J8_17	135.00	250.0	0.0050	0.1058	Open
P921	J8_16	J9_16	135.00	200.0	0.0050	0.0353	Open
P922	J8_17	J8_18	135.00	150.0	0.0050	0.0061	Open
P923	J8_17	J9_17	135.00	150.0	0.0050	0.0564	Open
P924	J8_18	J8_19	135.00	200.0	0.0050	0.0087	Open
P925	J8_18	J9_18	135.00	150.0	0.0050	0.0013	Open
P926	J8_19	J8_20	135.00	150.0	0.0050	0.1036	Open
P927	J8_19	J9_19	135.00	250.0	0.0050	0.0447	Open
P928	J8_20	J8_21	135.00	300.0	0.0050	0.0901	Open
P929	J8_20	J9_20	135.00	150.0	0.0050	0.0745	Open
P930	J8_21	J8_22	135.00	300.0	0.0050	0.0133	Open
P931	J8_21	J9_21	135.00	500.0	0.0050	0.0027	Open
P932	J8_22	J8_23	135.00	250.0	0.0050	0.0044	Open
P933	J8_22	J9_22	135.00	150.0	0.0050	0.0541	Open
P934	J8_23	J8_24	135.00	100.0	0.0050	0.0837	Open
P935	J8_23	J9_23	135.00	150.0	0.0050	0.1349	Open
P936	J8_24	J8_25	135.00	150.0	0.0050	0.1381	Open
P937	J8_24	J9_24	135.00	300.0	0.0050	0.0500	Open
P938	J8_25	J8_26	135.00	100.0	0.0050	0.0903	Open
P939	J8_25	J9_25	135.00	250.0	0.0050	0.0634	Open
P940	J8_26	J8_27	135.00	200.0	0.0050	0.1023	Open
P941	J8_26	J9_26	135.00	150.0	0.0050	0.0557	Open
P942	J8_27	J8_28	135.00	100.0	0.0050	0.1030	Open
P943	J8_27	J9_27	135.00	250.0	0.0050	0.1459	Open
P944	J8_28	J8_29	135.00	300.0	0.0050	0.1339	Open
P945	J8_28	J9_28	135.00	100.0	0.0050	0.1022	Open
P946	J8_29	J8_30	135.00	250.0	0.0050	0.0339	Open
P947	J8_29	J9_29	135.00	150.0	0.0050	0.0796	Open
P948	J8_30	J8_31	135.00	250.0	0.0050	0.0759	Open
P949	J8_30	J9_30	135.00	250.0	0.0050	0.0459	Open
P950	J8_31	J8_32	135.00	600.0	0.0050	0.0200	Open
P951	J8_31	J9_31	135.00	350.0	0.0050	0.0112	Open
P952	J8_32	J8_33	135.00	100.0	0.0050	0.1100	Open
P953	J8_32	J9_32	135.00	250.0	0.0050	0.1095	Open
P954	J8_33	J8_34	135.00	200.0	0.0050	0.0415	Open
P955	J8_33	J9_33	135.00	300.0	0.0050	0.0014	Open
P956	J8_34	J8_35	135.00	100.0	0.0050	0.0793	Open
P957	J8_34	J9_34	135.00	150.0	0.0050	0.0558	Open
P958	J8_35	J8_36	135.00	100.0	0.0050	0.0951	Open
P959	J8_35	J9_35	135.00	150.0	0.0050	0.1200	Open
P960	J8_36	J8_37	135.00	300.0	0.0050	0.0260	Open
P961	J8_36	J9_36	135.00	300.0	0.0050	0.0428	Open
P962	J8_37	J8_38	135.00	200.0	0.0050	0.0625	Open
P963	J8_37	J9_37	135.00	200.0	0.0050	0.0916	Open
P964	J8_38	J8_39	135.00	150.0	0.0050	0.0731	Open
P965	J8_38	J9_38	135.00	150.0	0.0050	0.0186	Open
P966	J8_39	J8_40	135.00	300.0	0.0050	0.0669	Open
P967	J8_39	J9_39	135.00	100.0	0.0050	0.0881	Open
P968	J8_40	J8_41	135.00	250.0	0.0050	0.0285	Open
P969	J8_40	J9_40	135.00	300.0	0.0050	0.0315	Open
P970	J8_41	J8_42	135.00	300.0	0.0050	0.0387	Open
P971	J8_41	J9_41	135.00	600.0	0.0050	0.0033	Open
P972	J8_42	J8_43	135.00	200.0	0.0050	0.0389	Open
P973	J8_42	J9_42	135.00	250.0	0.0050	0.1411	Open
P974	J8_43	J8_44	135.00	100.0	0.0050	0.0543	Open
P975	J8_43	J9_43	135.00	150.0	0.0050	0.1288	Open
P976	J8_44	J8_45	135.00	150.0	0.0050	0.0471	Open
P977	J8_44	J9_44	135.00	100.0	0.0050	0.0576	Open
P978	J8_45	J8_46	135.00	250.0	0.0050	0.1274	Open
P979	J8_45	J9_45	135.00	300.0	0.0050	0.1060	Open
P980	J8_46	J8_47	135.00	250.0	0.0050	0.1109	Open
P981	J8_46	J9_46	135.00	150.0	0.0050	0.0861	Open
P982	J8_47	J8_48	135.00	150.0	0.0050	0.1061	Open
P983	J8_47	J9_47	135.00	100.0	0.0050	0.0796	Open
P984	J8_48	J8_49	135.00	250.0	0.0050	0.0798	Open
P985	J8_48	J9_48	135.00	100.0	0.0050	0.0952	Open
P986	J8_49	J8_50	135.00	100.0	0.0050	0.0313	Open
P987	J8_49	J9_49	135.00	250.0	0.0050	0.0146	Open
P988	J8_50	J8_51	135.00	300.0	0.0050	0.0998	Open
P989	J8_50	J9_50	135.00	250.0	0.0050	0.0577	Open
P990	J8_51	J8_52	135.00	600.0	0.0050	0.0263	Open
P991	J8_51	J9_51	135.00	400.0	0.0050	0.0118	Open
P992	J8_52	J8_53	135.00	100.0	0.0050	0.0743	Open
P993	J8_52	J9_52	135.00	100.0	0.0050	0.1447	Open
P994	J8_53	J8_54	135.00	150.0	0.0050	0.1080	Open
P995	J8_53	J9_53	135.00	250.0	0.0050	0.0837	Open
P996	J8_54	J8_55	135.00	100.0	0.0050	0.0068	Open
P997	J8_54	J9_54	135.00	100.0	0.0050	0.1219	Open
P998	J8_55	J8_56	135.00	250.0	0.0050	0.0873	Open
P999	J8_55	J9_55	135.00	250.0	0.0050	0.0196	Open
P1000	J8_56	J8_57	135.00	150.0	0.0050	0.0616	Open
P1001	J8_56	J9_56	135.00	250.0	0.0050	0.0370	Open
P1002	J8_57	J8_58	135.00	100.0	0.0050	0.0243	Open
P1003	J8_57	J9_57	135.00	150.0	0.0050	0.0705	Open
P1004	J8_58	J8_59	135.00	100.0	0.0050	0.0758	Open
P1005	J8_58	J9_58	135.00	300.0	0.0050	0.1441	Open
P1006	J8_59	J8_60	135.00	250.0	0.0050	0.0966	Open
P1007	J8_59	J9_59	135.00	100.0	0.0050	0.0117	Open
P1008	J8_60	J8_61	135.00	150.0	0.0050	0.0228	Open
P1009	J8_60	J9_60	135.00	200.0	0.0050	0.1445	Open
P1010	J8_61	J8_62	135.00	400.0	0.0050	0.0193	Open
P1011	J8_61	J9_61	135.00	500.0	0.0050	0.0470	Open
P1012	J8_62	J8_63	135.00	150.0	0.0050	0.0426	Open
P1013	J8_62	J9_62	135.00	300.0	0.0050	0.0764	Open
P1014	J8_63	J8_64	135.00	150.0	0.0050	0.0200	Open
P1015	J8_63	J9_63	135.00	200.0	0.0050	0.1243	Open
P1016	J8_64	J9_64	135.00	300.0	0.0050	0.0470	Open
P1017	J9_1	J9_2	135.00	450.0	0.0050	0.0429	Open
P1018	J9_1	J10_1	135.00	350.0	0.0050	0.0383	Open
P1019	J9_2	J9_3	135.00	250.0	0.0050	0.1148	Open
P1020	J9_2	J10_2	135.00	150.0	0.0050	0.0833	Open
P1021	J9_3	J9_4	135.00	150.0	0.0050	0.0319	Open
P1022	J9_3	J10_3	135.00	200.0	0.0050	0.1010	Open
P1023	J9_4	J9_5	135.00	250.0	0.0050	0.0731	Open
P1024	J9_4	J10_4	135.00	100.0	0.0050	0.1215	Open
P1025	J9_5	J9_6	135.00	150.0	0.0050	0.1143	Open
P1026	J9_5	J10_5	135.00	150.0	0.0050	0.0345	Open
P1027	J9_6	J9_7	135.00	100.0	0.0050	0.0983	Open
P1028	J9_6	J10_6	135.00	200.0	0.0050	0.0805	Open
P1029	J9_7	J9_8	135.00	150.0	0.0050	0.1206	Open
P1030	J9_7	J10_7	135.00	200.0	0.0050	0.1455	Open
P1031	J9_8	J9_9	135.00	100.0	0.0050	0.1383	Open
P1032	J9_8	J10_8	135.00	150.0	0.0050	0.0247	Open
P1033	J9_9	J9_10	135.00	100.0	0.0050	0.0970	Open
P1034	J9_9	J10_9	135.00	250.0	0.0050	0.0301	Open
P1035	J9_10	J9_11	135.00	150.0	0.0050	0.1211	Open
P1036	J9_10	J10_10	135.00	250.0	0.0050	0.1212	Open
P1037	J9_11	J9_12	135.00	400.0	0.0050	0.0471	Open
P1038	J9_11	J10_11	135.00	600.0	0.0050	0.0444	Open
P1039	J9_12	J9_13	135.00	200.0	0.0050	0.0112	Open
P1040	J9_12	J10_12	135.00	250.0	0.0050	0.0846	Open
P1041	J9_13	J9_14	135.00	250.0	0.0050	0.0848	Open
P1042	J9_13	J10_13	135.00	300.0	0.0050	0.1424	Open
P1043	J9_14	J9_15	135.00	100.0	0.0050	0.1082	Open
P1044	J9_14	J10_14	135.00	150.0	0.0050	0.0963	Open
P1045	J9_15	J9_16	135.00	300.0	0.0050	0.0581	Open
P1046	J9_15	J10_15	135.00	100.0	0.0050	0.1148	Open
P1047	J9_16	J9_17	135.00	200.0	0.0050	0.0943	Open
P1048	J9_16	J10_16	135.00	150.0	0.0050	0.0921	Open
P1049	J9_17	J9_18	135.00	150.0	0.0050	0.0089	Open
P1050	J9_17	J10_17	135.00	250.0	0.0050	0.0489	Open
P1051	J9_18	J9_19	135.00	150.0	0.0050	0.0988	Open
P1052	J9_18	J10_18	135.00	200.0	0.0050	0.0839	Open
P1053	J9_19	J9_20	135.00	250.0	0.0050	0.0068	Open
P1054	J9_19	J10_19	135.00	100.0	0.0050	0.0339	Open
P1055	J9_20	J9_21	135.00	250.0	0.0050	0.0389	Open
P1056	J9_20	J10_20	135.00	150.0	0.0050	0.0095	Open
P1057	J9_21	J9_22	135.00	500.0	0.0050	0.0009	Open
P1058	J9_21	J10_21	135.00	300.0	0.0050	0.0442	Open
P1059	J9_22	J9_23	135.00	300.0	0.0050	0.0717	Open
P1060	J9_22	J10_22	135.00	300.0	0.0050	0.1117	Open
P1061	J9_23	J9_24	135.00	250.0	0.0050	0.0560	Open
P1062	J9_23	J10_23	135.00	150.0	0.0050	0.1281	Open
P1063	J9_24	J9_25	135.00	250.0	0.0050	0.0000	Open
P1064	J9_24	J10_24	135.00	250.0	0.0050	0.0358	Open
P1065	J9_25	J9_26	135.00	100.0	0.0050	0.0853	Open
P1066	J9_25	J10_25	135.00	200.0	0.0050	0.0014	Open
P1067	J9_26	J9_27	135.00	150.0	0.0050	0.0063	Open
P1068	J9_26	J10_26	135.00	250.0	0.0050	0.0243	Open
P1069	J9_27	J9_28	135.00	150.0	0.0050	0.0316	Open
P1070	J9_27	J10_27	135.00	100.0	0.0050	0.1333	Open
P1071	J9_28	J9_29	135.00	100.0	0.0050	0.0232	Open
P1072	J9_28	J10_28	135.00	200.0	0.0050	0.0574	Open
P1073	J9_29	J9_30	135.00	150.0	0.0050	0.1074	Open
P1074	J9_29	J10_29	135.00	100.0	0.0050	0.0730	Open
P1075	J9_30	J9_31	135.00	100.0	0.0050	0.0612	Open
P1076	J9_30	J10_30	135.00	200.0	0.0050	0.0353	Open
P1077	J9_31	J9_32	135.00	300.0	0.0050	0.0413	Open
P1078	J9_31	J10_31	135.00	350.0	0.0050	0.0495	Open
P1079	J9_32	J9_33	135.00	300.0	0.0050	0.0005	Open
P1080	J9_32	J10_32	135.00	300.0	0.0050	0.1153	Open
P1081	J9_33	J9_34	135.00	300.0	0.0050	0.0449	Open
P1082	J9_33	J10_33	135.00	250.0	0.0050	0.1120	Open
P1083	J9_34	J9_35	135.00	200.0	0.0050	0.0372	Open
P1084	J9_34	J10_34	135.00	250.0	0.0050	0.0820	Open
P1085	J9_35	J9_36	135.00	200.0	0.0050	0.0555	Open
P1086	J9_35	J10_35	135.00	100.0	0.0050	0.1057	Open
P1087	J9_36	J9_37	135.00	100.0	0.0050	0.1413	Open
P1088	J9_36	J10_36	135.00	150.0	0.0050	0.1364	Open
P1089	J9_37	J9_38	135.00	100.0	0.0050	0.1338	Open
P1090	J9_37	J10_37	135.00	250.0	0.0050	0.1413	Open
P1091	J9_38	J9_39	135.00	150.0	0.0050	0.0099	Open
P1092	J9_38	J10_38	135.00	200.0	0.0050	0.0640	Open
P1093	J9_39	J9_40	135.00	300.0	0.0050	0.0903	Open
P1094	J9_39	J10_39	135.00	150.0	0.0050	0.0541	Open
P1095	J9_40	J9_41	135.00	150.0	0.0050	0.0726	Open
P1096	J9_40	J10_40	135.00	200.0	0.0050	0.1093	Open
P1097	J9_41	J9_42	135.00	400.0	0.0050	0.0124	Open
P1098	J9_41	J10_41	135.00	450.0	0.0050	0.0467	Open
P1099	J9_42	J9_43	135.00	150.0	0.0050	0.0051	Open
P1100	J9_42	J10_42	135.00	100.0	0.0050	0.0459	Open
P1101	J9_43	J9_44	135.00	250.0	0.0050	0.0637	Open
P1102	J9_43	J10_43	135.00	100.0	0.0050	0.0978	Open
P1103	J9_44	J9_45	135.00	300.0	0.0050	0.0524	Open
P1104	J9_44	J10_44	135.00	200.0	0.0050	0.1075	Open
P1105	J9_45	J9_46	135.00	150.0	0.0050	0.0779	Open
P1106	J9_45	J10_45	135.00	300.0	0.0050	0.0357	Open
P1107	J9_46	J9_47	135.00	200.0	0.0050	0.1083	Open
P1108	J9_46	J10_46	135.00	150.0	0.0050	0.0486	Open
P1109	J9_47	J9_48	135.00	250.0	0.0050	0.0979	Open
P1110	J9_47	J10_47	135.00	100.0	0.0050	0.0364	Open
P1111	J9_48	J9_49	135.00	200.0	0.0050	0.0826	Open
P1112	J9_48	J10_48	135.00	200.0	0.0050	0.0186	Open
P1113	J9_49	J9_50	135.00	300.0	0.0050	0.0012	Open
P1114	J9_49	J10_49	135.00	200.0	0.0050	0.0032	Open
P1115	J9_50	J9_51	135.00	150.0	0.0050	0.0303	Open
P1116	J9_50	J10_50	135.00	100.0	0.0050	0.0797	Open
P1117	J9_51	J9_52	135.00	350.0	0.0050	0.0395	Open
P1118	J9_51	J10_51	135.00	350.0	0.0050	0.0378	Open
P1119	J9_52	J9_53	135.00	200.0	0.0050	0.0259	Open
P1120	J9_52	J10_52	135.00	200.0	0.0050	0.0044	Open
P1121	J9_53	J9_54	135.00	300.0	0.0050	0.0042	Open
P1122	J9_53	J10_53	135.00	250.0	0.0050	0.0389	Open
P1123	J9_54	J9_55	135.00	250.0	0.0050	0.0646	Open
P1124	J9_54	J10_54	135.00	200.0	0.0050	0.1441	Open
P1125	J9_55	J9_56	135.00	150.0	0.0050	0.0012	Open
P1126	J9_55	J10_55	135.00	300.0	0.0050	0.0079	Open
P1127	J9_56	J9_57	135.00	100.0	0.0050	0.0590	Open
P1128	J9_56	J10_56	135.00	200.0	0.0050	0.0292	Open
P1129	J9_57	J9_58	135.00	300.0	0.0050	0.0143	Open
P1130	J9_57	J10_57	135.00	150.0	0.0050	0.1433	Open
P1131	J9_58	J9_59	135.00	150.0	0.0050	0.0721	Open
P1132	J9_58	J10_58	135.00	150.0	0.0050	0.0782	Open
P1133	J9_59	J9_60	135.00	200.0	0.0050	0.1445	Open
P1134	J9_59	J10_59	135.00	150.0	0.0050	0.0190	Open
P1135	J9_60	J9_61	135.00	150.0	0.0050	0.0937	Open
P1136	J9_60	J10_60	135.00	150.0	0.0050	0.1225	Open
P1137	J9_61	J9_62	135.00	450.0	0.0050	0.0321	Open
P1138	J9_61	J10_61	135.00	600.0	0.0050	0.0011	Open
P1139	J9_62	J9_63	135.00	250.0	0.0050	0.0401	Open
P1140	J9_62	J10_62	135.00	250.0	0.0050	0.0008	Open
P1141	J9_63	J9_64	135.00	100.0	0.0050	0.0302	Open
P1142	J9_63	J10_63	135.00	100.0	0.0050	0.0023	Open
P1143	J9_64	J10_64	135.00	100.0	0.0050	0.0601	Open
P1144	J10_1	J10_2	135.00	350.0	0.0050	0.0123	Open
P1145	J10_1	J11_1	135.00	350.0	0.0050	0.0307	Open
P1146	J10_2	J10_3	135.00	250.0	0.0050	0.1217	Open
P1147	J10_2	J11_2	135.00	150.0	0.0050	0.0016	Open
P1148	J10_3	J10_4	135.00	300.0	0.0050	0.0732	Open
P1149	J10_3	J11_3	135.00	300.0	0.0050	0.0831	Open
P1150	J10_4	J10_5	135.00	300.0	0.0050	0.0952	Open
P1151	J10_4	J11_4	135.00	100.0	0.0050	0.0262	Open
P1152	J10_5	J10_6	135.00	300.0	0.0050	0.1224	Open
P1153	J10_5	J11_5	135.00	300.0	0.0050	0.0298	Open
P1154	J10_6	J10_7	135.00	150.0	0.0050	0.1151	Open
P1155	J10_6	J11_6	135.00	250.0	0.0050	0.0549	Open
P1156	J10_7	J10_8	135.00	300.0	0.0050	0.0061	Open
P1157	J10_7	J11_7	135.00	200.0	0.0050	0.0015	Open
P1158	J10_8	J10_9	135.00	300.0	0.0050	0.1062	Open
P1159	J10_8	J11_8	135.00	200.0	0.0050	0.0260	Open
P1160	J10_9	J10_10	135.00	150.0	0.0050	0.0748	Open
P1161	J10_9	J11_9	135.00	250.0	0.0050	0.0871	Open
P1162	J10_10	J10_11	135.00	150.0	0.0050	0.0320	Open
P1163	J10_10	J11_10	135.00	250.0	0.0050	0.1256	Open
P1164	J10_11	J10_12	135.00	400.0	0.0050	0.0494	Open
P1165	J10_11	J11_11	135.00	350.0	0.0050	0.0080	Open
P1166	J10_12	J10_13	135.00	100.0	0.0050	0.1202	Open
P1167	J10_12	J11_12	135.00	300.0	0.0050	0.1358	Open
P1168	J10_13	J10_14	135.00	100.0	0.0050	0.0920	Open
P1169	J10_13	J11_13	135.00	150.0	0.0050	0.0737	Open
P1170	J10_14	J10_15	135.00	100.0	0.0050	0.0010	Open
P1171	J10_14	J11_14	135.00	250.0	0.0050	0.1101	Open
P1172	J10_15	J10_16	135.00	300.0	0.0050	0.0853	Open
P1173	J10_15	J11_15	135.00	100.0	0.0050	0.0535	Open
P1174	J10_16	J10_17	135.00	250.0	0.0050	0.0588	Open
P1175	J10_16	J11_16	135.00	200.0	0.0050	0.0554	Open
P1176	J10_17	J10_18	135.00	150.0	0.0050	0.0832	Open
P1177	J10_17	J11_17	135.00	300.0	0.0050	0.0325	Open
P1178	J10_18	J10_19	135.00	300.0	0.0050	0.0020	Open
P1179	J10_18	J11_18	135.00	250.0	0.0050	0.1029	Open
P1180	J10_19	J10_20	135.00	200.0	0.0050	0.1147	Open
P1181	J10_19	J11_19	135.00	150.0	0.0050	0.0601	Open
P1182	J10_20	J10_21	135.00	100.0	0.0050	0.1029	Open
P1183	J10_20	J11_20	135.00	200.0	0.0050	0.0262	Open
P1184	J10_21	J10_22	135.00	300.0	0.0050	0.0232	Open
P1185	J10_21	J11_21	135.00	500.0	0.0050	0.0330	Open
P1186	J10_22	J10_23	135.00	150.0	0.0050	0.0325	Open
P1187	J10_22	J11_22	135.00	100.0	0.0050	0.1329	Open
P1188	J10_23	J10_24	135.00	150.0	0.0050	0.0281	Open
P1189	J10_23	J11_23	135.00	150.0	0.0050	0.0614	Open
P1190	J10_24	J10_25	135.00	250.0	0.0050	0.0565	Open
P1191	J10_24	J11_24	135.00	250.0	0.0050	0.0779	Open
P1192	J10_25	J10_26	135.00	200.0	0.0050	0.1207	Open
P1193	J10_25	J11_25	135.00	100.0	0.0050	0.0893	Open
P1194	J10_26	J10_27	135.00	250.0	0.0050	0.0276	Open
P1195	J10_26	J11_26	135.00	250.0	0.0050	0.0194	Open
P1196	J10_27	J10_28	135.00	300.0	0.0050	0.1237	Open
P1197	J10_27	J11_27	135.00	100.0	0.0050	0.0319	Open
P1198	J10_28	J10_29	135.00	200.0	0.0050	0.0110	Open
P1199	J10_28	J11_28	135.00	300.0	0.0050	0.0675	Open
P1200	J10_29	J10_30	135.00	100.0	0.0050	0.0728	Open
P1201	J10_29	J11_29	135.00	250.0	0.0050	0.0015	Open
P1202	J10_30	J10_31	135.00	250.0	0.0050	0.0595	Open
P1203	J10_30	J11_30	135.00	150.0	0.0050	0.1022	Open
P1204	J10_31	J10_32	135.00	500.0	0.0050	0.0213	Open
P1205	J10_31	J11_31	135.00	500.0	0.0050	0.0348	Open
P1206	J10_32	J10_33	135.00	100.0	0.0050	0.0590	Open
P1207	J10_32	J11_32	135.00	300.0	0.0050	0.1329	Open
P1208	J10_33	J10_34	135.00	100.0	0.0050	0.1290	Open
P1209	J10_33	J11_33	135.00	300.0	0.0050	0.0113	Open
P1210	J10_34	J10_35	135.00	100.0	0.0050	0.0765	Open
P1211	J10_34	J11_34	135.00	100.0	0.0050	0.0047	Open
P1212	J10_35	J10_36	135.00	150.0	0.0050	0.0572	Open
P1213	J10_35	J11_35	135.00	300.0	0.0050	0.0712	Open
P1214	J10_36	J10_37	135.00	150.0	0.0050	0.1470	Open
P1215	J10_36	J11_36	135.00	100.0	0.0050	0.0733	Open
P1216	J10_37	J10_38	135.00	200.0	0.0050	0.0264	Open
P1217	J10_37	J11_37	135.00	250.0	0.0050	0.0557	Open
P1218	J10_38	J10_39	135.00	250.0	0.0050	0.0212	Open
P1219	J10_38	J11_38	135.00	300.0	0.0050	0.1230	Open
P1220	J10_39	J10_40	135.00	300.0	0.0050	0.0919	Open
P1221	J10_39	J11_39	135.00	300.0	0.0050	0.1406	Open
P1222	J10_40	J10_41	135.00	300.0	0.0050	0.0029	Open
P1223	J10_40	J11_40	135.00	200.0	0.0050	0.0201	Open
P1224	J10_41	J10_42	135.00	600.0	0.0050	0.0190	Open
P1225	J10_41	J11_41	135.00	350.0	0.0050	0.0344	Open
P1226	J10_42	J10_43	135.00	250.0	0.0050	0.1487	Open
P1227	J10_42	J11_42	135.00	200.0	0.0050	0.1404	Open
P1228	J10_43	J10_44	135.00	100.0	0.0050	0.0023	Open
P1229	J10_43	J11_43	135.00	150.0	0.0050	0.0662	Open
P1230	J10_44	J10_45	135.00	300.0	0.0050	0.0952	Open
P1231	J10_44	J11_44	135.00	200.0	0.0050	0.1259	Open
P1232	J10_45	J10_46	135.00	300.0	0.0050	0.0693	Open
P1233	J10_45	J11_45	135.00	200.0	0.0050	0.0257	Open
P1234	J10_46	J10_47	135.00	150.0	0.0050	0.1458	Open
P1235	J10_46	J11_46	135.00	300.0	0.0050	0.1294	Open
P1236	J10_47	J10_48	135.00	200.0	0.0050	0.0838	Open
P1237	J10_47	J11_47	135.00	200.0	0.0050	0.1160	Open
P1238	J10_48	J10_49	135.00	200.0	0.0050	0.0515	Open
P1239	J10_48	J11_48	135.00	200.0	0.0050	0.0320	Open
P1240	J10_49	J10_50	135.00	200.0	0.0050	0.0992	Open
P1241	J10_49	J11_49	135.00	300.0	0.0050	0.0817	Open
P1242	J10_50	J10_51	135.00	100.0	0.0050	0.0961	Open
P1243	J10_50	J11_50	135.00	100.0	0.0050	0.0245	Open
P1244	J10_51	J10_52	135.00	450.0	0.0050	0.0027	Open
P1245	J10_51	J11_51	135.00	400.0	0.0050	0.0188	Open
P1246	J10_52	J10_53	135.00	250.0	0.0050	0.0603	Open
P1247	J10_52	J11_52	135.00	150.0	0.0050	0.0717	Open
P1248	J10_53	J10_54	135.00	100.0	0.0050	0.0827	Open
P1249	J10_53	J11_53	135.00	150.0	0.0050	0.0731	Open
P1250	J10_54	J10_55	135.00	300.0	0.0050	0.0024	Open
P1251	J10_54	J11_54	135.00	150.0	0.0050	0.0530	Open
P1252	J10_55	J10_56	135.00	250.0	0.0050	0.1213	Open
P1253	J10_55	J11_55	135.00	100.0	0.0050	0.0067	Open
P1254	J10_56	J10_57	135.00	150.0	0.0050	0.1335	Open
P1255	J10_56	J11_56	135.00	200.0	0.0050	0.0653	Open
P1256	J10_57	J10_58	135.00	150.0	0.0050	0.0049	Open
P1257	J10_57	J11_57	135.00	200.0	0.0050	0.0784	Open
P1258	J10_58	J10_59	135.00	300.0	0.0050	0.0088	Open
P1259	J10_58	J11_58	135.00	100.0	0.0050	0.1199	Open
P1260	J10_59	J10_60	135.00	250.0	0.0050	0.0838	Open
P1261	J10_59	J11_59	135.00	150.0	0.0050	0.1441	Open
P1262	J10_60	J10_61	135.00	250.0	0.0050	0.0459	Open
P1263	J10_60	J11_60	135.00	300.0	0.0050	0.1346	Open
P1264	J10_61	J10_62	135.00	600.0	0.0050	0.0119	Open
P1265	J10_61	J11_61	135.00	300.0	0.0050	0.0203	Open
P1266	J10_62	J10_63	135.00	300.0	0.0050	0.0598	Open
P1267	J10_62	J11_62	135.00	150.0	0.0050	0.1322	Open
P1268	J10_63	J10_64	135.00	200.0	0.0050	0.0839	Open
P1269	J10_63	J11_63	135.00	300.0	0.0050	0.0078	Open
P1270	J10_64	J11_64	135.00	100.0	0.0050	0.1222	Open
P1271	J11_1	J11_2	135.00	400.0	0.0050	0.0465	Open
P1272	J11_1	J12_1	135.00	400.0	0.0050	0.0229	Open
P1273	J11_2	J11_3	135.00	500.0	0.0050	0.0463	Open
P1274	J11_2	J12_2	135.00	600.0	0.0050	0.0146	Open
P1275	J11_3	J11_4	135.00	400.0	0.0050	0.0071	Open
P1276	J11_3	J12_3	135.00	600.0	0.0050	0.0108	Open
P1277	J11_4	J11_5	135.00	500.0	0.0050	0.0062	Open
P1278	J11_4	J12_4	135.00	500.0	0.0050	0.0301	Open
P1279	J11_5	J11_6	135.00	300.0	0.0050	0.0151	Open
P1280	J11_5	J12_5	135.00	350.0	0.0050	0.0315	Open
P1281	J11_6	J11_7	135.00	500.0	0.0050	0.0127	Open
P1282	J11_6	J12_6	135.00	450.0	0.0050	0.0352	Open
P1283	J11_7	J11_8	135.00	600.0	0.0050	0.0483	Open
P1284	J11_7	J12_7	135.00	600.0	0.0050	0.0187	Open
P1285	J11_8	J11_9	135.00	600.0	0.0050	0.0286	Open
P1286	J11_8	J12_8	135.00	300.0	0.0050	0.0229	Open
P1287	J11_9	J11_10	135.00	500.0	0.0050	0.0453	Open
P1288	J11_9	J12_9	135.00	600.0	0.0050	0.0407	Open
P1289	J11_10	J11_11	135.00	350.0	0.0050	0.0126	Open
P1290	J11_10	J12_10	135.00	400.0	0.0050	0.0277	Open
P1291	J11_11	J11_12	135.00	300.0	0.0050	0.0453	Open
P1292	J11_11	J12_11	135.00	450.0	0.0050	0.0356	Open
P1293	J11_12	J11_13	135.00	500.0	0.0050	0.0068	Open
P1294	J11_12	J12_12	135.00	300.0	0.0050	0.0072	Open
P1295	J11_13	J11_14	135.00	500.0	0.0050	0.0106	Open
P1296	J11_13	J12_13	135.00	300.0	0.0050	0.0022	Open
P1297	J11_14	J11_15	135.00	300.0	0.0050	0.0014	Open
P1298	J11_14	J12_14	135.00	300.0	0.0050	0.0245	Open
P1299	J11_15	J11_16	135.00	300.0	0.0050	0.0384	Open
P1300	J11_15	J12_15	135.00	500.0	0.0050	0.0190	Open
P1301	J11_16	J11_17	135.00	450.0	0.0050	0.0083	Open
P1302	J11_16	J12_16	135.00	450.0	0.0050	0.0183	Open
P1303	J11_17	J11_18	135.00	300.0	0.0050	0.0015	Open
P1304	J11_17	J12_17	135.00	400.0	0.0050	0.0105	Open
P1305	J11_18	J11_19	135.00	450.0	0.0050	0.0352	Open
P1306	J11_18	J12_18	135.00	450.0	0.0050	0.0385	Open
P1307	J11_19	J11_20	135.00	350.0	0.0050	0.0213	Open
P1308	J11_19	J12_19	135.00	600.0	0.0050	0.0008	Open
P1309	J11_20	J11_21	135.00	350.0	0.0050	0.0498	Open
P1310	J11_20	J12_20	135.00	600.0	0.0050	0.0216	Open
P1311	J11_21	J11_22	135.00	500.0	0.0050	0.0371	Open
P1312	J11_21	J12_21	135.00	400.0	0.0050	0.0319	Open
P1313	J11_22	J11_23	135.00	600.0	0.0050	0.0404	Open
P1314	J11_22	J12_22	135.00	400.0	0.0050	0.0270	Open
P1315	J11_23	J11_24	135.00	600.0	0.0050	0.0040	Open
P1316	J11_23	J12_23	135.00	350.0	0.0050	0.0006	Open
P1317	J11_24	J11_25	135.00	300.0	0.0050	0.0248	Open
P1318	J11_24	J12_24	135.00	300.0	0.0050	0.0355	Open
P1319	J11_25	J11_26	135.00	400.0	0.0050	0.0404	Open
P1320	J11_25	J12_25	135.00	600.0	0.0050	0.0291	Open
P1321	J11_26	J11_27	135.00	500.0	0.0050	0.0079	Open
P1322	J11_26	J12_26	135.00	450.0	0.0050	0.0238	Open
P1323	J11_27	J11_28	135.00	350.0	0.0050	0.0052	Open
P1324	J11_27	J12_27	135.00	450.0	0.0050	0.0191	Open
P1325	J11_28	J11_29	135.00	500.0	0.0050	0.0287	Open
P1326	J11_28	J12_28	135.00	400.0	0.0050	0.0098	Open
P1327	J11_29	J11_30	135.00	500.0	0.0050	0.0446	Open
P1328	J11_29	J12_29	135.00	350.0	0.0050	0.0368	Open
P1329	J11_30	J11_31	135.00	350.0	0.0050	0.0183	Open
P1330	J11_30	J12_30	135.00	450.0	0.0050	0.0155	Open
P1331	J11_31	J11_32	135.00	450.0	0.0050	0.0286	Open
P1332	J11_31	J12_31	135.00	300.0	0.0050	0.0116	Open
P1333	J11_32	J11_33	135.00	600.0	0.0050	0.0396	Open
P1334	J11_32	J12_32	135.00	600.0	0.0050	0.0211	Open
P1335	J11_33	J11_34	135.00	450.0	0.0050	0.0472	Open
P1336	J11_33	J12_33	135.00	300.0	0.0050	0.0271	Open
P1337	J11_34	J11_35	135.00	600.0	0.0050	0.0480	Open
P1338	J11_34	J12_34	135.00	400.0	0.0050	0.0156	Open
P1339	J11_35	J11_36	135.00	350.0	0.0050	0.0390	Open
P1340	J11_35	J12_35	135.00	450.0	0.0050	0.0228	Open
P1341	J11_36	J11_37	135.00	350.0	0.0050	0.0122	Open
P1342	J11_36	J12_36	135.00	350.0	0.0050	0.0023	Open
P1343	J11_37	J11_38	135.00	500.0	0.0050	0.0381	Open
P1344	J11_37	J12_37	135.00	450.0	0.0050	0.0352	Open
P1345	J11_38	J11_39	135.00	300.0	0.0050	0.0180	Open
P1346	J11_38	J12_38	135.00	450.0	0.0050	0.0472	Open
P1347	J11_39	J11_40	135.00	600.0	0.0050	0.0053	Open
P1348	J11_39	J12_39	135.00	600.0	0.0050	0.0146	Open
P1349	J11_40	J11_41	135.00	350.0	0.0050	0.0098	Open
P1350	J11_40	J12_40	135.00	350.0	0.0050	0.0426	Open
P1351	J11_41	J11_42	135.00	600.0	0.0050	0.0290	Open
P1352	J11_41	J12_41	135.00	350.0	0.0050	0.0055	Open
P1353	J11_42	J11_43	135.00	400.0	0.0050	0.0397	Open
P1354	J11_42	J12_42	135.00	350.0	0.0050	0.0469	Open
P1355	J11_43	J11_44	135.00	450.0	0.0050	0.0120	Open
P1356	J11_43	J12_43	135.00	500.0	0.0050	0.0128	Open
P1357	J11_44	J11_45	135.00	350.0	0.0050	0.0001	Open
P1358	J11_44	J12_44	135.00	450.0	0.0050	0.0369	Open
P1359	J11_45	J11_46	135.00	600.0	0.0050	0.0290	Open
P1360	J11_45	J12_45	135.00	600.0	0.0050	0.0026	Open
P1361	J11_46	J11_47	135.00	400.0	0.0050	0.0319	Open
P1362	J11_46	J12_46	135.00	450.0	0.0050	0.0028	Open
P1363	J11_47	J11_48	135.00	400.0	0.0050	0.0336	Open
P1364	J11_47	J12_47	135.00	500.0	0.0050	0.0138	Open
P1365	J11_48	J11_49	135.00	300.0	0.0050	0.0416	Open
P1366	J11_48	J12_48	135.00	450.0	0.0050	0.0460	Open
P1367	J11_49	J11_50	135.00	350.0	0.0050	0.0006	Open
P1368	J11_49	J12_49	135.00	300.0	0.0050	0.0218	Open
P1369	J11_50	J11_51	135.00	300.0	0.0050	0.0161	Open
P1370	J11_50	J12_50	135.00	450.0	0.0050	0.0161	Open
P1371	J11_51	J11_52	135.00	450.0	0.0050	0.0449	Open
P1372	J11_51	J12_51	135.00	400.0	0.0050	0.0381	Open
P1373	J11_52	J11_53	135.00	350.0	0.0050	0.0316	Open
P1374	J11_52	J12_52	135.00	600.0	0.0050	0.0489	Open
P1375	J11_53	J11_54	135.00	350.0	0.0050	0.0212	Open
P1376	J11_53	J12_53	135.00	500.0	0.0050	0.0274	Open
P1377	J11_54	J11_55	135.00	450.0	0.0050	0.0193	Open
P1378	J11_54	J12_54	135.00	500.0	0.0050	0.0216	Open
P1379	J11_55	J11_56	135.00	400.0	0.0050	0.0055	Open
P1380	J11_55	J12_55	135.00	600.0	0.0050	0.0042	Open
P1381	J11_56	J11_57	135.00	300.0	0.0050	0.0285	Open
P1382	J11_56	J12_56	135.00	500.0	0.0050	0.0111	Open
P1383	J11_57	J11_58	135.00	500.0	0.0050	0.0091	Open
P1384	J11_57	J12_57	135.00	350.0	0.0050	0.0287	Open
P1385	J11_58	J11_59	135.00	600.0	0.0050	0.0283	Open
P1386	J11_58	J12_58	135.00	400.0	0.0050	0.0106	Open
P1387	J11_59	J11_60	135.00	450.0	0.0050	0.0015	Open
P1388	J11_59	J12_59	135.00	600.0	0.0050	0.0121	Open
P1389	J11_60	J11_61	135.00	500.0	0.0050	0.0280	Open
P1390	J11_60	J12_60	135.00	500.0	0.0050	0.0037	Open
P1391	J11_61	J11_62	135.00	300.0	0.0050	0.0308	Open
P1392	J11_61	J12_61	135.00	450.0	0.0050	0.0107	Open
P1393	J11_62	J11_63	135.00	350.0	0.0050	0.0321	Open
P1394	J11_62	J12_62	135.00	400.0	0.0050	0.0229	Open
P1395	J11_63	J11_64	135.00	300.0	0.0050	0.0441	Open
P1396	J11_63	J12_63	135.00	450.0	0.0050	0.0276	Open
P1397	J11_64	J12_64	135.00	350.0	0.0050	0.0216	Open
P1398	J12_1	J12_2	135.00	300.0	0.0050	0.0209	Open
P1399	J12_1	J13_1	135.00	400.0	0.0050	0.0415	Open
P1400	J12_2	J12_3	135.00	300.0	0.0050	0.1405	Open
P1401	J12_2	J13_2	135.00	150.0	0.0050	0.1229	Open
P1402	J12_3	J12_4	135.00	300.0	0.0050	0.1114	Open
P1403	J12_3	J13_3	135.00	200.0	0.0050	0.1039	Open
P1404	J12_4	J12_5	135.00	200.0	0.0050	0.1045	Open
P1405	J12_4	J13_4	135.00	200.0	0.0050	0.1179	Open
P1406	J12_5	J12_6	135.00	300.0	0.0050	0.1033	Open
P1407	J12_5	J13_5	135.00	150.0	0.0050	0.0765	Open
P1408	J12_6	J12_7	135.00	150.0	0.0050	0.0788	Open
P1409	J12_6	J13_6	135.00	150.0	0.0050	0.0281	Open
P1410	J12_7	J12_8	135.00	100.0	0.0050	0.0242	Open
P1411	J12_7	J13_7	135.00	200.0	0.0050	0.1496	Open
P1412	J12_8	J12_9	135.00	200.0	0.0050	0.0101	Open
P1413	J12_8	J13_8	135.00	150.0	0.0050	0.1347	Open
P1414	J12_9	J12_10	135.00	200.0	0.0050	0.1026	Open
P1415	J12_9	J13_9	135.00	100.0	0.0050	0.0056	Open
P1416	J12_10	J12_11	135.00	150.0	0.0050	0.0530	Open
P1417	J12_10	J13_10	135.00	150.0	0.0050	0.1340	Open
P1418	J12_11	J12_12	135.00	450.0	0.0050	0.0085	Open
P1419	J12_11	J13_11	135.00	450.0	0.0050	0.0031	Open
P1420	J12_12	J12_13	135.00	200.0	0.0050	0.0097	Open
P1421	J12_12	J13_12	135.00	100.0	0.0050	0.0369	Open
P1422	J12_13	J12_14	135.00	200.0	0.0050	0.0059	Open
P1423	J12_13	J13_13	135.00	100.0	0.0050	0.0488	Open
P1424	J12_14	J12_15	135.00	100.0	0.0050	0.1340	Open
P1425	J12_14	J13_14	135.00	200.0	0.0050	0.0190	Open
P1426	J12_15	J12_16	135.00	300.0	0.0050	0.1168	Open
P1427	J12_15	J13_15	135.00	100.0	0.0050	0.1161	Open
P1428	J12_16	J12_17	135.00	100.0	0.0050	0.1114	Open
P1429	J12_16	J13_16	135.00	250.0	0.0050	0.0477	Open
P1430	J12_17	J12_18	135.00	200.0	0.0050	0.0738	Open
P1431	J12_17	J13_17	135.00	300.0	0.0050	0.0836	Open
P1432	J12_18	J12_19	135.00	150.0	0.0050	0.1179	Open
P1433	J12_18	J13_18	135.00	100.0	0.0050	0.0306	Open
P1434	J12_19	J12_20	135.00	150.0	0.0050	0.0062	Open
P1435	J12_19	J13_19	135.00	250.0	0.0050	0.0051	Open
P1436	J12_20	J12_21	135.00	300.0	0.0050	0.0146	Open
P1437	J12_20	J13_20	135.00	300.0	0.0050	0.1194	Open
P1438	J12_21	J12_22	135.00	400.0	0.0050	0.0258	Open
P1439	J12_21	J13_21	135.00	600.0	0.0050	0.0307	Open
P1440	J12_22	J12_23	135.00	100.0	0.0050	0.0248	Open
P1441	J12_22	J13_22	135.00	150.0	0.0050	0.1341	Open
P1442	J12_23	J12_24	135.00	300.0	0.0050	0.0407	Open
P1443	J12_23	J13_23	135.00	300.0	0.0050	0.0326	Open
P1444	J12_24	J12_25	135.00	250.0	0.0050	0.1211	Open
P1445	J12_24	J13_24	135.00	100.0	0.0050	0.0996	Open
P1446	J12_25	J12_26	135.00	200.0	0.0050	0.0480	Open
P1447	J12_25	J13_25	135.00	150.0	0.0050	0.0544	Open
P1448	J12_26	J12_27	135.00	100.0	0.0050	0.1096	Open
P1449	J12_26	J13_26	135.00	300.0	0.0050	0.0276	Open
P1450	J12_27	J12_28	135.00	150.0	0.0050	0.0101	Open
P1451	J12_27	J13_27	135.00	200.0	0.0050	0.0575	Open
P1452	J12_28	J12_29	135.00	250.0	0.0050	0.1126	Open
P1453	J12_28	J13_28	135.00	200.0	0.0050	0.0883	Open
P1454	J12_29	J12_30	135.00	150.0	0.0050	0.0116	Open
P1455	J12_29	J13_29	135.00	300.0	0.0050	0.0999	Open
P1456	J12_30	J12_31	135.00	100.0	0.0050	0.1408	Open
P1457	J12_30	J13_30	135.00	150.0	0.0050	0.0220	Open
P1458	J12_31	J12_32	135.00	500.0	0.0050	0.0399	Open
P1459	J12_31	J13_31	135.00	300.0	0.0050	0.0119	Open
P1460	J12_32	J12_33	135.00	150.0	0.0050	0.0776	Open
P1461	J12_32	J13_32	135.00	100.0	0.0050	0.1457	Open
P1462	J12_33	J12_34	135.00	150.0	0.0050	0.1244	Open
P1463	J12_33	J13_33	135.00	100.0	0.0050	0.0061	Open
P1464	J12_34	J12_35	135.00	200.0	0.0050	0.1031	Open
P1465	J12_34	J13_34	135.00	150.0	0.0050	0.0297	Open
P1466	J12_35	J12_36	135.00	250.0	0.0050	0.0897	Open
P1467	J12_35	J13_35	135.00	200.0	0.0050	0.0167	Open
P1468	J12_36	J12_37	135.00	100.0	0.0050	0.0307	Open
P1469	J12_36	J13_36	135.00	100.0	0.0050	0.0597	Open
P1470	J12_37	J12_38	135.00	200.0	0.0050	0.0936	Open
P1471	J12_37	J13_37	135.00	300.0	0.0050	0.0764	Open
P1472	J12_38	J12_39	135.00	200.0	0.0050	0.1009	Open
P1473	J12_38	J13_38	135.00	300.0	0.0050	0.0709	Open
P1474	J12_39	J12_40	135.00	200.0	0.0050	0.0184	Open
P1475	J12_39	J13_39	135.00	250.0	0.0050	0.0635	Open
P1476	J12_40	J12_41	135.00	250.0	0.0050	0.1219	Open
P1477	J12_40	J13_40	135.00	250.0	0.0050	0.1286	Open
P1478	J12_41	J12_42	135.00	500.0	0.0050	0.0028	Open
P1479	J12_41	J13_41	135.00	400.0	0.0050	0.0288	Open
P1480	J12_42	J12_43	135.00	250.0	0.0050	0.1423	Open
P1481	J12_42	J13_42	135.00	250.0	0.0050	0.0503	Open
P1482	J12_43	J12_44	135.00	200.0	0.0050	0.0234	Open
P1483	J12_43	J13_43	135.00	100.0	0.0050	0.0568	Open
P1484	J12_44	J12_45	135.00	150.0	0.0050	0.1305	Open
P1485	J12_44	J13_44	135.00	200.0	0.0050	0.0377	Open
P1486	J12_45	J12_46	135.00	150.0	0.0050	0.0923	Open
P1487	J12_45	J13_45	135.00	300.0	0.0050	0.0570	Open
P1488	J12_46	J12_47	135.00	200.0	0.0050	0.0568	Open
P1489	J12_46	J13_46	135.00	250.0	0.0050	0.0882	Open
P1490	J12_47	J12_48	135.00	250.0	0.0050	0.0612	Open
P1491	J12_47	J13_47	135.00	250.0	0.0050	0.0988	Open
P1492	J12_48	J12_49	135.00	250.0	0.0050	0.0451	Open
P1493	J12_48	J13_48	135.00	300.0	0.0050	0.0273	Open
P1494	J12_49	J12_50	135.00	300.0	0.0050	0.0940	Open
P1495	J12_49	J13_49	135.00	100.0	0.0050	0.0593	Open
P1496	J12_50	J12_51	135.00	250.0	0.0050	0.0375	Open
P1497	J12_50	J13_50	135.00	100.0	0.0050	0.1087	Open
P1498	J12_51	J12_52	135.00	300.0	0.0050	0.0052	Open
P1499	J12_51	J13_51	135.00	400.0	0.0050	0.0299	Open
P1500	J12_52	J12_53	135.00	250.0	0.0050	0.1351	Open
P1501	J12_52	J13_52	135.00	100.0	0.0050	0.1078	Open
P1502	J12_53	J12_54	135.00	150.0	0.0050	0.0448	Open
P1503	J12_53	J13_53	135.00	300.0	0.0050	0.1276	Open
P1504	J12_54	J12_55	135.00	150.0	0.0050	0.0082	Open
P1505	J12_54	J13_54	135.00	200.0	0.0050	0.1368	Open
P1506	J12_55	J12_56	135.00	200.0	0.0050	0.1485	Open
P1507	J12_55	J13_55	135.00	200.0	0.0050	0.0910	Open
P1508	J12_56	J12_57	135.00	200.0	0.0050	0.0543	Open
P1509	J12_56	J13_56	135.00	200.0	0.0050	0.1357	Open
P1510	J12_57	J12_58	135.00	200.0	0.0050	0.0682	Open
P1511	J12_57	J13_57	135.00	200.0	0.0050	0.0014	Open
P1512	J12_58	J12_59	135.00	250.0	0.0050	0.1320	Open
P1513	J12_58	J13_58	135.00	150.0	0.0050	0.0762	Open
P1514	J12_59	J12_60	135.00	200.0	0.0050	0.1111	Open
P1515	J12_59	J13_59	135.00	100.0	0.0050	0.0356	Open
P1516	J12_60	J12_61	135.00	150.0	0.0050	0.1313	Open
P1517	J12_60	J13_60	135.00	200.0	0.0050	0.0162	Open
P1518	J12_61	J12_62	135.00	450.0	0.0050	0.0276	Open
P1519	J12_61	J13_61	135.00	300.0	0.0050	0.0083	Open
P1520	J12_62	J12_63	135.00	300.0	0.0050	0.0254	Open
P1521	J12_62	J13_62	135.00	300.0	0.0050	0.0815	Open
P1522	J12_63	J12_64	135.00	200.0	0.0050	0.1188	Open
P1523	J12_63	J13_63	135.00	150.0	0.0050	0.0875	Open
P1524	J12_64	J13_64	135.00	150.0	0.0050	0.0550	Open
P1525	J13_1	J13_2	135.00	300.0	0.0050	0.0219	Open
P1526	J13_1	J14_1	135.00	450.0	0.0050	0.0474	Open
P1527	J13_2	J13_3	135.00	100.0	0.0050	0.1420	Open
P1528	J13_2	J14_2	135.00	300.0	0.0050	0.0535	Open
P1529	J13_3	J13_4	135.00	250.0	0.0050	0.1461	Open
P1530	J13_3	J14_3	135.00	100.0	0.0050	0.1179	Open
P1531	J13_4	J13_5	135.00	300.0	0.0050	0.0454	Open
P1532	J13_4	J14_4	135.00	100.0	0.0050	0.0629	Open
P1533	J13_5	J13_6	135.00	150.0	0.0050	0.0764	Open
P1534	J13_5	J14_5	135.00	150.0	0.0050	0.0044	Open
P1535	J13_6	J13_7	135.00	150.0	0.0050	0.1071	Open
P1536	J13_6	J14_6	135.00	100.0	0.0050	0.0329	Open
P1537	J13_7	J13_8	135.00	250.0	0.0050	0.0390	Open
P1538	J13_7	J14_7	135.00	150.0	0.0050	0.0509	Open
P1539	J13_8	J13_9	135.00	100.0	0.0050	0.1346	Open
P1540	J13_8	J14_8	135.00	100.0	0.0050	0.0283	Open
P1541	J13_9	J13_10	135.00	250.0	0.0050	0.1060	Open
P1542	J13_9	J14_9	135.00	150.0	0.0050	0.0237	Open
P1543	J13_10	J13_11	135.00	300.0	0.0050	0.0933	Open
P1544	J13_10	J14_10	135.00	150.0	0.0050	0.0052	Open
P1545	J13_11	J13_12	135.00	300.0	0.0050	0.0125	Open
P1546	J13_11	J14_11	135.00	300.0	0.0050	0.0297	Open
P1547	J13_12	J13_13	135.00	250.0	0.0050	0.0827	Open
P1548	J13_12	J14_12	135.00	250.0	0.0050	0.1418	Open
P1549	J13_13	J13_14	135.00	150.0	0.0050	0.0365	Open
P1550	J13_13	J14_13	135.00	200.0	0.0050	0.0719	Open
P1551	J13_14	J13_15	135.00	100.0	0.0050	0.0013	Open
P1552	J13_14	J14_14	135.00	150.0	0.0050	0.1047	Open
P1553	J13_15	J13_16	135.00	250.0	0.0050	0.1060	Open
P1554	J13_15	J14_15	135.00	150.0	0.0050	0.0260	Open
P1555	J13_16	J13_17	135.00	200.0	0.0050	0.1498	Open
P1556	J13_16	J14_16	135.00	150.0	0.0050	0.1486	Open
P1557	J13_17	J13_18	135.00	100.0	0.0050	0.0778	Open
P1558	J13_17	J14_17	135.00	150.0	0.0050	0.0678	Open
P1559	J13_18	J13_19	135.00	100.0	0.0050	0.1118	Open
P1560	J13_18	J14_18	135.00	100.0	0.0050	0.1167	Open
P1561	J13_19	J13_20	135.00	100.0	0.0050	0.1158	Open
P1562	J13_19	J14_19	135.00	150.0	0.0050	0.1155	Open
P1563	J13_20	J13_21	135.00	200.0	0.0050	0.0551	Open
P1564	J13_20	J14_20	135.00	250.0	0.0050	0.0491	Open
P1565	J13_21	J13_22	135.00	500.0	0.0050	0.0047	Open
P1566	J13_21	J14_21	135.00	600.0	0.0050	0.0270	Open
P1567	J13_22	J13_23	135.00	250.0	0.0050	0.1406	Open
P1568	J13_22	J14_22	135.00	150.0	0.0050	0.0055	Open
P1569	J13_23	J13_24	135.00	250.0	0.0050	0.0302	Open
P1570	J13_23	J14_23	135.00	300.0	0.0050	0.0833	Open
P1571	J13_24	J13_25	135.00	150.0	0.0050	0.1064	Open
P1572	J13_24	J14_24	135.00	150.0	0.0050	0.0131	Open
P1573	J13_25	J13_26	135.00	250.0	0.0050	0.1438	Open
P1574	J13_25	J14_25	135.00	250.0	0.0050	0.1368	Open
P1575	J13_26	J13_27	135.00	150.0	0.0050	0.0108	Open
P1576	J13_26	J14_26	135.00	300.0	0.0050	0.1223	Open
P1577	J13_27	J13_28	135.00	200.0	0.0050	0.0215	Open
P1578	J13_27	J14_27	135.00	250.0	0.0050	0.0752	Open
P1579	J13_28	J13_29	135.00	150.0	0.0050	0.0078	Open
P1580	J13_28	J14_28	135.00	250.0	0.0050	0.0386	Open
P1581	J13_29	J13_30	135.00	250.0	0.0050	0.0898	Open
P1582	J13_29	J14_29	135.00	250.0	0.0050	0.0011	Open
P1583	J13_30	J13_31	135.00	150.0	0.0050	0.1250	Open
P1584	J13_30	J14_30	135.00	150.0	0.0050	0.0815	Open
P1585	J13_31	J13_32	135.00	500.0	0.0050	0.0080	Open
P1586	J13_31	J14_31	135.00	500.0	0.0050	0.0223	Open
P1587	J13_32	J13_33	135.00	250.0	0.0050	0.1294	Open
P1588	J13_32	J14_32	135.00	150.0	0.0050	0.1171	Open
P1589	J13_33	J13_34	135.00	100.0	0.0050	0.0585	Open
P1590	J13_33	J14_33	135.00	100.0	0.0050	0.0406	Open
P1591	J13_34	J13_35	135.00	100.0	0.0050	0.1095	Open
P1592	J13_34	J14_34	135.00	150.0	0.0050	0.0595	Open
P1593	J13_35	J13_36	135.00	100.0	0.0050	0.1003	Open
P1594	J13_35	J14_35	135.00	150.0	0.0050	0.0602	Open
P1595	J13_36	J13_37	135.00	250.0	0.0050	0.0813	Open
P1596	J13_36	J14_36	135.00	100.0	0.0050	0.1323	Open
P1597	J13_37	J13_38	135.00	100.0	0.0050	0.1108	Open
P1598	J13_37	J14_37	135.00	250.0	0.0050	0.0439	Open
P1599	J13_38	J13_39	135.00	100.0	0.0050	0.0280	Open
P1600	J13_38	J14_38	135.00	150.0	0.0050	0.0768	Open
P1601	J13_39	J13_40	135.00	150.0	0.0050	0.1157	Open
P1602	J13_39	J14_39	135.00	100.0	0.0050	0.0543	Open
P1603	J13_40	J13_41	135.00	100.0	0.0050	0.0939	Open
P1604	J13_40	J14_40	135.00	100.0	0.0050	0.0722	Open
P1605	J13_41	J13_42	135.00	350.0	0.0050	0.0362	Open
P1606	J13_41	J14_41	135.00	350.0	0.0050	0.0252	Open
P1607	J13_42	J13_43	135.00	150.0	0.0050	0.0036	Open
P1608	J13_42	J14_42	135.00	150.0	0.0050	0.0119	Open
P1609	J13_43	J13_44	135.00	250.0	0.0050	0.0965	Open
P1610	J13_43	J14_43	135.00	200.0	0.0050	0.0056	Open
P1611	J13_44	J13_45	135.00	150.0	0.0050	0.1031	Open
P1612	J13_44	J14_44	135.00	100.0	0.0050	0.0899	Open
P1613	J13_45	J13_46	135.00	100.0	0.0050	0.0700	Open
P1614	J13_45	J14_45	135.00	250.0	0.0050	0.1449	Open
P1615	J13_46	J13_47	135.00	150.0	0.0050	0.1291	Open
P1616	J13_46	J14_46	135.00	300.0	0.0050	0.0523	Open
P1617	J13_47	J13_48	135.00	300.0	0.0050	0.1451	Open
P1618	J13_47	J14_47	135.00	300.0	0.0050	0.0126	Open
P1619	J13_48	J13_49	135.00	200.0	0.0050	0.0474	Open
P1620	J13_48	J14_48	135.00	100.0	0.0050	0.1435	Open
P1621	J13_49	J13_50	135.00	100.0	0.0050	0.1288	Open
P1622	J13_49	J14_49	135.00	200.0	0.0050	0.1054	Open
P1623	J13_50	J13_51	135.00	200.0	0.0050	0.0190	Open
P1624	J13_50	J14_50	135.00	250.0	0.0050	0.1335	Open
P1625	J13_51	J13_52	135.00	350.0	0.0050	0.0477	Open
P1626	J13_51	J14_51	135.00	400.0	0.0050	0.0108	Open
P1627	J13_52	J13_53	135.00	200.0	0.0050	0.0466	Open
P1628	J13_52	J14_52	135.00	100.0	0.0050	0.1091	Open
P1629	J13_53	J13_54	135.00	200.0	0.0050	0.1019	Open
P1630	J13_53	J14_53	135.00	250.0	0.0050	0.0095	Open
P1631	J13_54	J13_55	135.00	150.0	0.0050	0.1356	Open
P1632	J13_54	J14_54	135.00	100.0	0.0050	0.0912	Open
P1633	J13_55	J13_56	135.00	100.0	0.0050	0.1095	Open
P1634	J13_55	J14_55	135.00	300.0	0.0050	0.0646	Open
P1635	J13_56	J13_57	135.00	300.0	0.0050	0.0754	Open
P1636	J13_56	J14_56	135.00	100.0	0.0050	0.0549	Open
P1637	J13_57	J13_58	135.00	200.0	0.0050	0.1029	Open
P1638	J13_57	J14_57	135.00	200.0	0.0050	0.1083	Open
P1639	J13_58	J13_59	135.00	250.0	0.0050	0.0947	Open
P1640	J13_58	J14_58	135.00	200.0	0.0050	0.0146	Open
P1641	J13_59	J13_60	135.00	150.0	0.0050	0.0716	Open
P1642	J13_59	J14_59	135.00	100.0	0.0050	0.1447	Open
P1643	J13_60	J13_61	135.00	150.0	0.0050	0.0614	Open
P1644	J13_60	J14_60	135.00	150.0	0.0050	0.1479	Open
P1645	J13_61	J13_62	135.00	400.0	0.0050	0.0121	Open
P1646	J13_61	J14_61	135.00	450.0	0.0050	0.0468	Open
P1647	J13_62	J13_63	135.00	200.0	0.0050	0.0570	Open
P1648	J13_62	J14_62	135.00	300.0	0.0050	0.0709	Open
P1649	J13_63	J13_64	135.00	150.0	0.0050	0.1198	Open
P1650	J13_63	J14_63	135.00	300.0	0.0050	0.1347	Open
P1651	J13_64	J14_64	135.00	200.0	0.0050	0.0412	Open
P1652	J14_1	J14_2	135.00	350.0	0.0050	0.0309	Open
P1653	J14_1	J15_1	135.00	350.0	0.0050	0.0051	Open
P1654	J14_2	J14_3	135.00	200.0	0.0050	0.0284	Open
P1655	J14_2	J15_2	135.00	200.0	0.0050	0.0236	Open
P1656	J14_3	J14_4	135.00	300.0	0.0050	0.0642	Open
P1657	J14_3	J15_3	135.00	100.0	0.0050	0.1046	Open
P1658	J14_4	J14_5	135.00	250.0	0.0050	0.1469	Open
P1659	J14_4	J15_4	135.00	100.0	0.0050	0.0236	Open
P1660	J14_5	J14_6	135.00	300.0	0.0050	0.0528	Open
P1661	J14_5	J15_5	135.00	200.0	0.0050	0.1089	Open
P1662	J14_6	J14_7	135.00	150.0	0.0050	0.0390	Open
P1663	J14_6	J15_6	135.00	250.0	0.0050	0.1354	Open
P1664	J14_7	J14_8	135.00	250.0	0.0050	0.1365	Open
P1665	J14_7	J15_7	135.00	200.0	0.0050	0.0872	Open
P1666	J14_8	J14_9	135.00	200.0	0.0050	0.1453	Open
P1667	J14_8	J15_8	135.00	300.0	0.0050	0.0408	Open
P1668	J14_9	J14_10	135.00	100.0	0.0050	0.0470	Open
P1669	J14_9	J15_9	135.00	300.0	0.0050	0.0011	Open
P1670	J14_10	J14_11	135.00	250.0	0.0050	0.0809	Open
P1671	J14_10	J15_10	135.00	100.0	0.0050	0.0692	Open
P1672	J14_11	J14_12	135.00	400.0	0.0050	0.0467	Open
P1673	J14_11	J15_11	135.00	500.0	0.0050	0.0218	Open
P1674	J14_12	J14_13	135.00	300.0	0.0050	0.1306	Open
P1675	J14_12	J15_12	135.00	300.0	0.0050	0.0564	Open
P1676	J14_13	J14_14	135.00	300.0	0.0050	0.1240	Open
P1677	J14_13	J15_13	135.00	100.0	0.0050	0.1433	Open
P1678	J14_14	J14_15	135.00	250.0	0.0050	0.1354	Open
P1679	J14_14	J15_14	135.00	200.0	0.0050	0.0609	Open
P1680	J14_15	J14_16	135.00	150.0	0.0050	0.1346	Open
P1681	J14_15	J15_15	135.00	250.0	0.0050	0.1086	Open
P1682	J14_16	J14_17	135.00	100.0	0.0050	0.0360	Open
P1683	J14_16	J15_16	135.00	200.0	0.0050	0.0696	Open
P1684	J14_17	J14_18	135.00	100.0	0.0050	0.1031	Open
P1685	J14_17	J15_17	135.00	200.0	0.0050	0.0079	Open
P1686	J14_18	J14_19	135.00	200.0	0.0050	0.1091	Open
P1687	J14_18	J15_18	135.00	200.0	0.0050	0.1426	Open
P1688	J14_19	J14_20	135.00	100.0	0.0050	0.1120	Open
P1689	J14_19	J15_19	135.00	100.0	0.0050	0.1324	Open
P1690	J14_20	J14_21	135.00	150.0	0.0050	0.1208	Open
P1691	J14_20	J15_20	135.00	200.0	0.0050	0.0329	Open
P1692	J14_21	J14_22	135.00	500.0	0.0050	0.0332	Open
P1693	J14_21	J15_21	135.00	350.0	0.0050	0.0230	Open
P1694	J14_22	J14_23	135.00	100.0	0.0050	0.0425	Open
P1695	J14_22	J15_22	135.00	100.0	0.0050	0.1471	Open
P1696	J14_23	J14_24	135.00	150.0	0.0050	0.0467	Open
P1697	J14_23	J15_23	135.00	300.0	0.0050	0.0084	Open
P1698	J14_24	J14_25	135.00	300.0	0.0050	0.0120	Open
P1699	J14_24	J15_24	135.00	300.0	0.0050	0.0631	Open
P1700	J14_25	J14_26	135.00	200.0	0.0050	0.0474	Open
P1701	J14_25	J15_25	135.00	200.0	0.0050	0.0810	Open
P1702	J14_26	J14_27	135.00	250.0	0.0050	0.1270	Open
P1703	J14_26	J15_26	135.00	200.0	0.0050	0.0093	Open
P1704	J14_27	J14_28	135.00	150.0	0.0050	0.0704	Open
P1705	J14_27	J15_27	135.00	100.0	0.0050	0.1189	Open
P1706	J14_28	J14_29	135.00	250.0	0.0050	0.1155	Open
P1707	J14_28	J15_28	135.00	200.0	0.0050	0.1463	Open
P1708	J14_29	J14_30	135.00	250.0	0.0050	0.0742	Open
P1709	J14_29	J15_29	135.00	300.0	0.0050	0.0024	Open
P1710	J14_30	J14_31	135.00	300.0	0.0050	0.0752	Open
P1711	J14_30	J15_30	135.00	100.0	0.0050	0.0544	Open
P1712	J14_31	J14_32	135.00	300.0	0.0050	0.0220	Open
P1713	J14_31	J15_31	135.00	350.0	0.0050	0.0303	Open
P1714	J14_32	J14_33	135.00	150.0	0.0050	0.0271	Open
P1715	J14_32	J15_32	135.00	100.0	0.0050	0.0861	Open
P1716	J14_33	J14_34	135.00	300.0	0.0050	0.1251	Open
P1717	J14_33	J15_33	135.00	300.0	0.0050	0.0509	Open
P1718	J14_34	J14_35	135.00	250.0	0.0050	0.1275	Open
P1719	J14_34	J15_34	135.00	300.0	0.0050	0.0739	Open
P1720	J14_35	J14_36	135.00	200.0	0.0050	0.0635	Open
P1721	J14_35	J15_35	135.00	150.0	0.0050	0.0121	Open
P1722	J14_36	J14_37	135.00	200.0	0.0050	0.1112	Open
P1723	J14_36	J15_36	135.00	150.0	0.0050	0.0316	Open
P1724	J14_37	J14_38	135.00	150.0	0.0050	0.1037	Open
P1725	J14_37	J15_37	135.00	200.0	0.0050	0.0676	Open
P1726	J14_38	J14_39	135.00	300.0	0.0050	0.0603	Open
P1727	J14_38	J15_38	135.00	200.0	0.0050	0.1416	Open
P1728	J14_39	J14_40	135.00	200.0	0.0050	0.0653	Open
P1729	J14_39	J15_39	135.00	300.0	0.0050	0.0890	Open
P1730	J14_40	J14_41	135.00	200.0	0.0050	0.0233	Open
P1731	J14_40	J15_40	135.00	250.0	0.0050	0.1441	Open
P1732	J14_41	J14_42	135.00	600.0	0.0050	0.0058	Open
P1733	J14_41	J15_41	135.00	350.0	0.0050	0.0306	Open
P1734	J14_42	J14_43	135.00	200.0	0.0050	0.0148	Open
P1735	J14_42	J15_42	135.00	250.0	0.0050	0.0244	Open
P1736	J14_43	J14_44	135.00	200.0	0.0050	0.1306	Open
P1737	J14_43	J15_43	135.00	150.0	0.0050	0.0095	Open
P1738	J14_44	J14_45	135.00	300.0	0.0050	0.0457	Open
P1739	J14_44	J15_44	135.00	250.0	0.0050	0.0389	Open
P1740	J14_45	J14_46	135.00	100.0	0.0050	0.1459	Open
P1741	J14_45	J15_45	135.00	250.0	0.0050	0.0244	Open
P1742	J14_46	J14_47	135.00	250.0	0.0050	0.0744	Open
P1743	J14_46	J15_46	135.00	300.0	0.0050	0.1353	Open
P1744	J14_47	J14_48	135.00	200.0	0.0050	0.0687	Open
P1745	J14_47	J15_47	135.00	250.0	0.0050	0.0174	Open
P1746	J14_48	J14_49	135.00	250.0	0.0050	0.0308	Open
P1747	J14_48	J15_48	135.00	150.0	0.0050	0.1127	Open
P1748	J14_49	J14_50	135.00	300.0	0.0050	0.1425	Open
P1749	J14_49	J15_49	135.00	250.0	0.0050	0.0744	Open
P1750	J14_50	J14_51	135.00	300.0	0.0050	0.0994	Open
P1751	J14_50	J15_50	135.00	250.0	0.0050	0.0629	Open
P1752	J14_51	J14_52	135.00	450.0	0.0050	0.0115	Open
P1753	J14_51	J15_51	135.00	450.0	0.0050	0.0062	Open
P1754	J14_52	J14_53	135.00	250.0	0.0050	0.1308	Open
P1755	J14_52	J15_52	135.00	250.0	0.0050	0.0053	Open
P1756	J14_53	J14_54	135.00	200.0	0.0050	0.0559	Open
P1757	J14_53	J15_53	135.00	150.0	0.0050	0.0663	Open
P1758	J14_54	J14_55	135.00	100.0	0.0050	0.0382	Open
P1759	J14_54	J15_54	135.00	100.0	0.0050	0.0629	Open
P1760	J14_55	J14_56	135.00	150.0	0.0050	0.0794	Open
P1761	J14_55	J15_55	135.00	100.0	0.0050	0.1179	Open
P1762	J14_56	J14_57	135.00	250.0	0.0050	0.0023	Open
P1763	J14_56	J15_56	135.00	250.0	0.0050	0.0525	Open
P1764	J14_57	J14_58	135.00	200.0	0.0050	0.0601	Open
P1765	J14_57	J15_57	135.00	150.0	0.0050	0.0302	Open
P1766	J14_58	J14_59	135.00	150.0	0.0050	0.1258	Open
P1767	J14_58	J15_58	135.00	150.0	0.0050	0.1031	Open
P1768	J14_59	J14_60	135.00	250.0	0.0050	0.0791	Open
P1769	J14_59	J15_59	135.00	250.0	0.0050	0.0183	Open
P1770	J14_60	J14_61	135.00	100.0	0.0050	0.1135	Open
P1771	J14_60	J15_60	135.00	300.0	0.0050	0.1106	Open
P1772	J14_61	J14_62	135.00	500.0	0.0050	0.0084	Open
P1773	J14_61	J15_61	135.00	600.0	0.0050	0.0387	Open
P1774	J14_62	J14_63	135.00	100.0	0.0050	0.0413	Open
P1775	J14_62	J15_62	135.00	150.0	0.0050	0.0510	Open
P1776	J14_63	J14_64	135.00	100.0	0.0050	0.1113	Open
P1777	J14_63	J15_63	135.00	150.0	0.0050	0.1248	Open
P1778	J14_64	J15_64	135.00	100.0	0.0050	0.0429	Open
P1779	J15_1	J15_2	135.00	300.0	0.0050	0.0399	Open
P1780	J15_1	J16_1	135.00	350.0	0.0050	0.0361	Open
P1781	J15_2	J15_3	135.00	200.0	0.0050	0.0981	Open
P1782	J15_2	J16_2	135.00	250.0	0.0050	0.0877	Open
P1783	J15_3	J15_4	135.00	150.0	0.0050	0.0559	Open
P1784	J15_3	J16_3	135.00	150.0	0.0050	0.0955	Open
P1785	J15_4	J15_5	135.00	200.0	0.0050	0.1168	Open
P1786	J15_4	J16_4	135.00	300.0	0.0050	0.1134	Open
P1787	J15_5	J15_6	135.00	200.0	0.0050	0.0943	Open
P1788	J15_5	J16_5	135.00	100.0	0.0050	0.0932	Open
P1789	J15_6	J15_7	135.00	150.0	0.0050	0.0838	Open
P1790	J15_6	J16_6	135.00	250.0	0.0050	0.0712	Open
P1791	J15_7	J15_8	135.00	150.0	0.0050	0.1041	Open
P1792	J15_7	J16_7	135.00	100.0	0.0050	0.1222	Open
P1793	J15_8	J15_9	135.00	100.0	0.0050	0.1211	Open
P1794	J15_8	J16_8	135.00	300.0	0.0050	0.1085	Open
P1795	J15_9	J15_10	135.00	250.0	0.0050	0.0296	Open
P1796	J15_9	J16_9	135.00	150.0	0.0050	0.0703	Open
P1797	J15_10	J15_11	135.00	300.0	0.0050	0.0324	Open
P1798	J15_10	J16_10	135.00	300.0	0.0050	0.1040	Open
P1799	J15_11	J15_12	135.00	350.0	0.0050	0.0143	Open
P1800	J15_11	J16_11	135.00	400.0	0.0050	0.0099	Open
P1801	J15_12	J15_13	135.00	300.0	0.0050	0.1341	Open
P1802	J15_12	J16_12	135.00	150.0	0.0050	0.1486	Open
P1803	J15_13	J15_14	135.00	200.0	0.0050	0.0625	Open
P1804	J15_13	J16_13	135.00	300.0	0.0050	0.1410	Open
P1805	J15_14	J15_15	135.00	150.0	0.0050	0.0957	Open
P1806	J15_14	J16_14	135.00	200.0	0.0050	0.1041	Open
P1807	J15_15	J15_16	135.00	250.0	0.0050	0.0968	Open
P1808	J15_15	J16_15	135.00	250.0	0.0050	0.0435	Open
P1809	J15_16	J15_17	135.00	250.0	0.0050	0.1258	Open
P1810	J15_16	J16_16	135.00	200.0	0.0050	0.0855	Open
P1811	J15_17	J15_18	135.00	200.0	0.0050	0.0019	Open
P1812	J15_17	J16_17	135.00	300.0	0.0050	0.0692	Open
P1813	J15_18	J15_19	135.00	200.0	0.0050	0.1183	Open
P1814	J15_18	J16_18	135.00	250.0	0.0050	0.1211	Open
P1815	J15_19	J15_20	135.00	150.0	0.0050	0.1297	Open
P1816	J15_19	J16_19	135.00	150.0	0.0050	0.0561	Open
P1817	J15_20	J15_21	135.00	150.0	0.0050	0.1340	Open
P1818	J15_20	J16_20	135.00	150.0	0.0050	0.0521	Open
P1819	J15_21	J15_22	135.00	300.0	0.0050	0.0479	Open
P1820	J15_21	J16_21	135.00	500.0	0.0050	0.0361	Open
P1821	J15_22	J15_23	135.00	150.0	0.0050	0.1160	Open
P1822	J15_22	J16_22	135.00	150.0	0.0050	0.0487	Open
P1823	J15_23	J15_24	135.00	100.0	0.0050	0.0785	Open
P1824	J15_23	J16_23	135.00	200.0	0.0050	0.1461	Open
P1825	J15_24	J15_25	135.00	100.0	0.0050	0.1488	Open
P1826	J15_24	J16_24	135.00	100.0	0.0050	0.0387	Open
P1827	J15_25	J15_26	135.00	300.0	0.0050	0.1193	Open
P1828	J15_25	J16_25	135.00	100.0	0.0050	0.1079	Open
P1829	J15_26	J15_27	135.00	100.0	0.0050	0.1180	Open
P1830	J15_26	J16_26	135.00	150.0	0.0050	0.0101	Open
P1831	J15_27	J15_28	135.00	150.0	0.0050	0.1107	Open
P1832	J15_27	J16_27	135.00	200.0	0.0050	0.1473	Open
P1833	J15_28	J15_29	135.00	300.0	0.0050	0.1260	Open
P1834	J15_28	J16_28	135.00	200.0	0.0050	0.1415	Open
P1835	J15_29	J15_30	135.00	250.0	0.0050	0.1204	Open
P1836	J15_29	J16_29	135.00	250.0	0.0050	0.0872	Open
P1837	J15_30	J15_31	135.00	150.0	0.0050	0.0498	Open
P1838	J15_30	J16_30	135.00	200.0	0.0050	0.1010	Open
P1839	J15_31	J15_32	135.00	450.0	0.0050	0.0246	Open
P1840	J15_31	J16_31	135.00	350.0	0.0050	0.0447	Open
P1841	J15_32	J15_33	135.00	300.0	0.0050	0.0680	Open
P1842	J15_32	J16_32	135.00	150.0	0.0050	0.0795	Open
P1843	J15_33	J15_34	135.00	200.0	0.0050	0.0673	Open
P1844	J15_33	J16_33	135.00	100.0	0.0050	0.0878	Open
P1845	J15_34	J15_35	135.00	300.0	0.0050	0.0932	Open
P1846	J15_34	J16_34	135.00	100.0	0.0050	0.0702	Open
P1847	J15_35	J15_36	135.00	200.0	0.0050	0.1085	Open
P1848	J15_35	J16_35	135.00	200.0	0.0050	0.0702	Open
P1849	J15_36	J15_37	135.00	100.0	0.0050	0.0562	Open
P1850	J15_36	J16_36	135.00	200.0	0.0050	0.0448	Open
P1851	J15_37	J15_38	135.00	300.0	0.0050	0.0956	Open
P1852	J15_37	J16_37	135.00	150.0	0.0050	0.0182	Open
P1853	J15_38	J15_39	135.00	300.0	0.0050	0.1491	Open
P1854	J15_38	J16_38	135.00	300.0	0.0050	0.0310	Open
P1855	J15_39	J15_40	135.00	150.0	0.0050	0.0289	Open
P1856	J15_39	J16_39	135.00	150.0	0.0050	0.0365	Open
P1857	J15_40	J15_41	135.00	300.0	0.0050	0.0393	Open
P1858	J15_40	J16_40	135.00	250.0	0.0050	0.1116	Open
P1859	J15_41	J15_42	135.00	600.0	0.0050	0.0092	Open
P1860	J15_41	J16_41	135.00	450.0	0.0050	0.0200	Open
P1861	J15_42	J15_43	135.00	200.0	0.0050	0.0924	Open
P1862	J15_42	J16_42	135.00	300.0	0.0050	0.0293	Open
P1863	J15_43	J15_44	135.00	100.0	0.0050	0.0075	Open
P1864	J15_43	J16_43	135.00	150.0	0.0050	0.0424	Open
P1865	J15_44	J15_45	135.00	300.0	0.0050	0.0513	Open
P1866	J15_44	J16_44	135.00	250.0	0.0050	0.0826	Open
P1867	J15_45	J15_46	135.00	300.0	0.0050	0.0312	Open
P1868	J15_45	J16_45	135.00	100.0	0.0050	0.1386	Open
P1869	J15_46	J15_47	135.00	150.0	0.0050	0.1246	Open
P1870	J15_46	J16_46	135.00	250.0	0.0050	0.0854	Open
P1871	J15_47	J15_48	135.00	200.0	0.0050	0.1042	Open
P1872	J15_47	J16_47	135.00	150.0	0.0050	0.0652	Open
P1873	J15_48	J15_49	135.00	250.0	0.0050	0.0094	Open
P1874	J15_48	J16_48	135.00	250.0	0.0050	0.1056	Open
P1875	J15_49	J15_50	135.00	200.0	0.0050	0.1071	Open
P1876	J15_49	J16_49	135.00	200.0	0.0050	0.1019	Open
P1877	J15_50	J15_51	135.00	250.0	0.0050	0.1208	Open
P1878	J15_50	J16_50	135.00	200.0	0.0050	0.1382	Open
P1879	J15_51	J15_52	135.00	450.0	0.0050	0.0400	Open
P1880	J15_51	J16_51	135.00	600.0	0.0050	0.0452	Open
P1881	J15_52	J15_53	135.00	150.0	0.0050	0.0225	Open
P1882	J15_52	J16_52	135.00	150.0	0.0050	0.0370	Open
P1883	J15_53	J15_54	135.00	200.0	0.0050	0.0084	Open
P1884	J15_53	J16_53	135.00	300.0	0.0050	0.0926	Open
P1885	J15_54	J15_55	135.00	200.0	0.0050	0.1419	Open
P1886	J15_54	J16_54	135.00	250.0	0.0050	0.0675	Open
P1887	J15_55	J15_56	135.00	150.0	0.0050	0.1022	Open
P1888	J15_55	J16_55	135.00	250.0	0.0050	0.1437	Open
P1889	J15_56	J15_57	135.00	200.0	0.0050	0.0061	Open
P1890	J15_56	J16_56	135.00	150.0	0.0050	0.0223	Open
P1891	J15_57	J15_58	135.00	250.0	0.0050	0.1147	Open
P1892	J15_57	J16_57	135.00	100.0	0.0050	0.1273	Open
P1893	J15_58	J15_59	135.00	250.0	0.0050	0.1261	Open
P1894	J15_58	J16_58	135.00	200.0	0.0050	0.1176	Open
P1895	J15_59	J15_60	135.00	300.0	0.0050	0.1061	Open
P1896	J15_59	J16_59	135.00	300.0	0.0050	0.0765	Open
P1897	J15_60	J15_61	135.00	100.0	0.0050	0.0427	Open
P1898	J15_60	J16_60	135.00	250.0	0.0050	0.0917	Open
P1899	J15_61	J15_62	135.00	300.0	0.0050	0.0049	Open
P1900	J15_61	J16_61	135.00	600.0	0.0050	0.0233	Open
P1901	J15_62	J15_63	135.00	200.0	0.0050	0.1351	Open
P1902	J15_62	J16_62	135.00	300.0	0.0050	0.1231	Open
P1903	J15_63	J15_64	135.00	150.0	0.0050	0.0241	Open
P1904	J15_63	J16_63	135.00	100.0	0.0050	0.0595	Open
P1905	J15_64	J16_64	135.00	250.0	0.0050	0.0440	Open
P1906	J16_1	J16_2	135.00	300.0	0.0050	0.0438	Open
P1907	J16_1	J17_1	135.00	450.0	0.0050	0.0476	Open
P1908	J16_2	J16_3	135.00	250.0	0.0050	0.0450	Open
P1909	J16_2	J17_2	135.00	300.0	0.0050	0.0856	Open
P1910	J16_3	J16_4	135.00	250.0	0.0050	0.1440	Open
P1911	J16_3	J17_3	135.00	200.0	0.0050	0.0504	Open
P1912	J16_4	J16_5	135.00	300.0	0.0050	0.0094	Open
P1913	J16_4	J17_4	135.00	300.0	0.0050	0.1357	Open
P1914	J16_5	J16_6	135.00	250.0	0.0050	0.0086	Open
P1915	J16_5	J17_5	135.00	100.0	0.0050	0.1109	Open
P1916	J16_6	J16_7	135.00	150.0	0.0050	0.0528	Open
P1917	J16_6	J17_6	135.00	200.0	0.0050	0.1021	Open
P1918	J16_7	J16_8	135.00	100.0	0.0050	0.1312	Open
P1919	J16_7	J17_7	135.00	200.0	0.0050	0.0743	Open
P1920	J16_8	J16_9	135.00	300.0	0.0050	0.0284	Open
P1921	J16_8	J17_8	135.00	250.0	0.0050	0.1280	Open
P1922	J16_9	J16_10	135.00	200.0	0.0050	0.0359	Open
P1923	J16_9	J17_9	135.00	200.0	0.0050	0.0829	Open
P1924	J16_10	J16_11	135.00	100.0	0.0050	0.0411	Open
P1925	J16_10	J17_10	135.00	200.0	0.0050	0.1448	Open
P1926	J16_11	J16_12	135.00	600.0	0.0050	0.0218	Open
P1927	J16_11	J17_11	135.00	450.0	0.0050	0.0079	Open
P1928	J16_12	J16_13	135.00	150.0	0.0050	0.1109	Open
P1929	J16_12	J17_12	135.00	150.0	0.0050	0.0480	Open
P1930	J16_13	J16_14	135.00	250.0	0.0050	0.0774	Open
P1931	J16_13	J17_13	135.00	100.0	0.0050	0.1405	Open
P1932	J16_14	J16_15	135.00	100.0	0.0050	0.1484	Open
P1933	J16_14	J17_14	135.00	100.0	0.0050	0.0258	Open
P1934	J16_15	J16_16	135.00	300.0	0.0050	0.0070	Open
P1935	J16_15	J17_15	135.00	100.0	0.0050	0.0566	Open
P1936	J16_16	J16_17	135.00	100.0	0.0050	0.0782	Open
P1937	J16_16	J17_16	135.00	100.0	0.0050	0.1116	Open
P1938	J16_17	J16_18	135.00	200.0	0.0050	0.0158	Open
P1939	J16_17	J17_17	135.00	150.0	0.0050	0.0597	Open
P1940	J16_18	J16_19	135.00	300.0	0.0050	0.1074	Open
P1941	J16_18	J17_18	135.00	150.0	0.0050	0.0459	Open
P1942	J16_19	J16_20	135.00	300.0	0.0050	0.0039	Open
P1943	J16_19	J17_19	135.00	200.0	0.0050	0.0201	Open
P1944	J16_20	J16_21	135.00	300.0	0.0050	0.0749	Open
P1945	J16_20	J17_20	135.00	150.0	0.0050	0.0287	Open
P1946	J16_21	J16_22	135.00	600.0	0.0050	0.0303	Open
P1947	J16_21	J17_21	135.00	450.0	0.0050	0.0103	Open
P1948	J16_22	J16_23	135.00	100.0	0.0050	0.1163	Open
P1949	J16_22	J17_22	135.00	150.0	0.0050	0.0083	Open
P1950	J16_23	J16_24	135.00	100.0	0.0050	0.0380	Open
P1951	J16_23	J17_23	135.00	300.0	0.0050	0.1490	Open
P1952	J16_24	J16_25	135.00	250.0	0.0050	0.1272	Open
P1953	J16_24	J17_24	135.00	100.0	0.0050	0.1395	Open
P1954	J16_25	J16_26	135.00	250.0	0.0050	0.1002	Open
P1955	J16_25	J17_25	135.00	100.0	0.0050	0.0897	Open
P1956	J16_26	J16_27	135.00	300.0	0.0050	0.0818	Open
P1957	J16_26	J17_26	135.00	300.0	0.0050	0.1427	Open
P1958	J16_27	J16_28	135.00	300.0	0.0050	0.1247	Open
P1959	J16_27	J17_27	135.00	300.0	0.0050	0.0908	Open
P1960	J16_28	J16_29	135.00	200.0	0.0050	0.1454	Open
P1961	J16_28	J17_28	135.00	250.0	0.0050	0.0984	Open
P1962	J16_29	J16_30	135.00	300.0	0.0050	0.1008	Open
P1963	J16_29	J17_29	135.00	250.0	0.0050	0.0330	Open
P1964	J16_30	J16_31	135.00	150.0	0.0050	0.0143	Open
P1965	J16_30	J17_30	135.00	200.0	0.0050	0.0140	Open
P1966	J16_31	J16_32	135.00	450.0	0.0050	0.0342	Open
P1967	J16_31	J17_31	135.00	600.0	0.0050	0.0280	Open
P1968	J16_32	J16_33	135.00	200.0	0.0050	0.0738	Open
P1969	J16_32	J17_32	135.00	200.0	0.0050	0.0782	Open
P1970	J16_33	J16_34	135.00	100.0	0.0050	0.0076	Open
P1971	J16_33	J17_33	135.00	300.0	0.0050	0.0983	Open
P1972	J16_34	J16_35	135.00	200.0	0.0050	0.0063	Open
P1973	J16_34	J17_34	135.00	300.0	0.0050	0.0763	Open
P1974	J16_35	J16_36	135.00	200.0	0.0050	0.0944	Open
P1975	J16_35	J17_35	135.00	150.0	0.0050	0.0317	Open
P1976	J16_36	J16_37	135.00	150.0	0.0050	0.0982	Open
P1977	J16_36	J17_36	135.00	200.0	0.0050	0.1425	Open
P1978	J16_37	J16_38	135.00	150.0	0.0050	0.0387	Open
P1979	J16_37	J17_37	135.00	100.0	0.0050	0.1119	Open
P1980	J16_38	J16_39	135.00	250.0	0.0050	0.0045	Open
P1981	J16_38	J17_38	135.00	200.0	0.0050	0.0632	Open
P1982	J16_39	J16_40	135.00	200.0	0.0050	0.0053	Open
P1983	J16_39	J17_39	135.00	250.0	0.0050	0.1416	Open
P1984	J16_40	J16_41	135.00	200.0	0.0050	0.0115	Open
P1985	J16_40	J17_40	135.00	250.0	0.0050	0.0279	Open
P1986	J16_41	J16_42	135.00	450.0	0.0050	0.0150	Open
P1987	J16_41	J17_41	135.00	500.0	0.0050	0.0268	Open
P1988	J16_42	J16_43	135.00	300.0	0.0050	0.0400	Open
P1989	J16_42	J17_42	135.00	100.0	0.0050	0.0337	Open
P1990	J16_43	J16_44	135.00	200.0	0.0050	0.0830	Open
P1991	J16_43	J17_43	135.00	150.0	0.0050	0.0224	Open
P1992	J16_44	J16_45	135.00	300.0	0.0050	0.0910	Open
P1993	J16_44	J17_44	135.00	250.0	0.0050	0.1398	Open
P1994	J16_45	J16_46	135.00	250.0	0.0050	0.0928	Open
P1995	J16_45	J17_45	135.00	300.0	0.0050	0.1095	Open
P1996	J16_46	J16_47	135.00	200.0	0.0050	0.1357	Open
P1997	J16_46	J17_46	135.00	200.0	0.0050	0.0079	Open
P1998	J16_47	J16_48	135.00	150.0	0.0050	0.0527	Open
P1999	J16_47	J17_47	135.00	200.0	0.0050	0.0951	Open
P2000	J16_48	J16_49	135.00	250.0	0.0050	0.1258	Open
P2001	J16_48	J17_48	135.00	150.0	0.0050	0.0208	Open
P2002	J16_49	J16_50	135.00	150.0	0.0050	0.0845	Open
P2003	J16_49	J17_49	135.00	250.0	0.0050	0.0665	Open
P2004	J16_50	J16_51	135.00	200.0	0.0050	0.0095	Open
P2005	J16_50	J17_50	135.00	150.0	0.0050	0.0288	Open
P2006	J16_51	J16_52	135.00	500.0	0.0050	0.0217	Open
P2007	J16_51	J17_51	135.00	350.0	0.0050	0.0213	Open
P2008	J16_52	J16_53	135.00	250.0	0.0050	0.0442	Open
P2009	J16_52	J17_52	135.00	100.0	0.0050	0.0412	Open
P2010	J16_53	J16_54	135.00	300.0	0.0050	0.1393	Open
P2011	J16_53	J17_53	135.00	300.0	0.0050	0.0890	Open
P2012	J16_54	J16_55	135.00	300.0	0.0050	0.0177	Open
P2013	J16_54	J17_54	135.00	150.0	0.0050	0.0430	Open
P2014	J16_55	J16_56	135.00	150.0	0.0050	0.0454	Open
P2015	J16_55	J17_55	135.00	100.0	0.0050	0.0116	Open
P2016	J16_56	J16_57	135.00	300.0	0.0050	0.1105	Open
P2017	J16_56	J17_56	135.00	100.0	0.0050	0.0289	Open
P2018	J16_57	J16_58	135.00	100.0	0.0050	0.0640	Open
P2019	J16_57	J17_57	135.00	100.0	0.0050	0.0178	Open
P2020	J16_58	J16_59	135.00	300.0	0.0050	0.0415	Open
P2021	J16_58	J17_58	135.00	300.0	0.0050	0.1293	Open
P2022	J16_59	J16_60	135.00	200.0	0.0050	0.1009	Open
P2023	J16_59	J17_59	135.00	250.0	0.0050	0.1205	Open
P2024	J16_60	J16_61	135.00	250.0	0.0050	0.1401	Open
P2025	J16_60	J17_60	135.00	250.0	0.0050	0.0568	Open
P2026	J16_61	J16_62	135.00	400.0	0.0050	0.0118	Open
P2027	J16_61	J17_61	135.00	600.0	0.0050	0.0335	Open
P2028	J16_62	J16_63	135.00	250.0	0.0050	0.1467	Open
P2029	J16_62	J17_62	135.00	200.0	0.0050	0.0934	Open
P2030	J16_63	J16_64	135.00	300.0	0.0050	0.1321	Open
P2031	J16_63	J17_63	135.00	150.0	0.0050	0.1136	Open
P2032	J16_64	J17_64	135.00	250.0	0.0050	0.1390	Open
P2033	J17_1	J17_2	135.00	600.0	0.0050	0.0183	Open
P2034	J17_1	J18_1	135.00	400.0	0.0050	0.0295	Open
P2035	J17_2	J17_3	135.00	300.0	0.0050	0.1479	Open
P2036	J17_2	J18_2	135.00	200.0	0.0050	0.0215	Open
P2037	J17_3	J17_4	135.00	100.0	0.0050	0.1483	Open
P2038	J17_3	J18_3	135.00	200.0	0.0050	0.0329	Open
P2039	J17_4	J17_5	135.00	200.0	0.0050	0.0715	Open
P2040	J17_4	J18_4	135.00	300.0	0.0050	0.0396	Open
P2041	J17_5	J17_6	135.00	300.0	0.0050	0.0519	Open
P2042	J17_5	J18_5	135.00	200.0	0.0050	0.0224	Open
P2043	J17_6	J17_7	135.00	200.0	0.0050	0.0209	Open
P2044	J17_6	J18_6	135.00	250.0	0.0050	0.0857	Open
P2045	J17_7	J17_8	135.00	100.0	0.0050	0.0400	Open
P2046	J17_7	J18_7	135.00	150.0	0.0050	0.1328	Open
P2047	J17_8	J17_9	135.00	300.0	0.0050	0.1026	Open
P2048	J17_8	J18_8	135.00	250.0	0.0050	0.1475	Open
P2049	J17_9	J17_10	135.00	200.0	0.0050	0.0723	Open
P2050	J17_9	J18_9	135.00	300.0	0.0050	0.1284	Open
P2051	J17_10	J17_11	135.00	250.0	0.0050	0.0928	Open
P2052	J17_10	J18_10	135.00	250.0	0.0050	0.0488	Open
P2053	J17_11	J17_12	135.00	600.0	0.0050	0.0408	Open
P2054	J17_11	J18_11	135.00	600.0	0.0050	0.0023	Open
P2055	J17_12	J17_13	135.00	300.0	0.0050	0.0983	Open
P2056	J17_12	J18_12	135.00	150.0	0.0050	0.0768	Open
P2057	J17_13	J17_14	135.00	100.0	0.0050	0.0154	Open
P2058	J17_13	J18_13	135.00	250.0	0.0050	0.0936	Open
P2059	J17_14	J17_15	135.00	100.0	0.0050	0.0166	Open
P2060	J17_14	J18_14	135.00	250.0	0.0050	0.0684	Open
P2061	J17_15	J17_16	135.00	200.0	0.0050	0.0729	Open
P2062	J17_15	J18_15	135.00	300.0	0.0050	0.0696	Open
P2063	J17_16	J17_17	135.00	150.0	0.0050	0.1287	Open
P2064	J17_16	J18_16	135.00	250.0	0.0050	0.0757	Open
P2065	J17_17	J17_18	135.00	150.0	0.0050	0.0380	Open
P2066	J17_17	J18_17	135.00	200.0	0.0050	0.0345	Open
P2067	J17_18	J17_19	135.00	250.0	0.0050	0.1447	Open
P2068	J17_18	J18_18	135.00	100.0	0.0050	0.0220	Open
P2069	J17_19	J17_20	135.00	150.0	0.0050	0.0490	Open
P2070	J17_19	J18_19	135.00	300.0	0.0050	0.0821	Open
P2071	J17_20	J17_21	135.00	150.0	0.0050	0.1347	Open
P2072	J17_20	J18_20	135.00	100.0	0.0050	0.0466	Open
P2073	J17_21	J17_22	135.00	500.0	0.0050	0.0411	Open
P2074	J17_21	J18_21	135.00	350.0	0.0050	0.0299	Open
P2075	J17_22	J17_23	135.00	150.0	0.0050	0.0867	Open
P2076	J17_22	J18_22	135.00	100.0	0.0050	0.1282	Open
P2077	J17_23	J17_24	135.00	300.0	0.0050	0.0291	Open
P2078	J17_23	J18_23	135.00	250.0	0.0050	0.1085	Open
P2079	J17_24	J17_25	135.00	150.0	0.0050	0.1252	Open
P2080	J17_24	J18_24	135.00	250.0	0.0050	0.1406	Open
P2081	J17_25	J17_26	135.00	150.0	0.0050	0.0752	Open
P2082	J17_25	J18_25	135.00	200.0	0.0050	0.1241	Open
P2083	J17_26	J17_27	135.00	200.0	0.0050	0.1043	Open
P2084	J17_26	J18_26	135.00	250.0	0.0050	0.0020	Open
P2085	J17_27	J17_28	135.00	150.0	0.0050	0.0129	Open
P2086	J17_27	J18_27	135.00	200.0	0.0050	0.0408	Open
P2087	J17_28	J17_29	135.00	150.0	0.0050	0.0416	Open
P2088	J17_28	J18_28	135.00	250.0	0.0050	0.0482	Open
P2089	J17_29	J17_30	135.00	250.0	0.0050	0.0944	Open
P2090	J17_29	J18_29	135.00	150.0	0.0050	0.0250	Open
P2091	J17_30	J17_31	135.00	100.0	0.0050	0.0173	Open
P2092	J17_30	J18_30	135.00	250.0	0.0050	0.1494	Open
P2093	J17_31	J17_32	135.00	500.0	0.0050	0.0163	Open
P2094	J17_31	J18_31	135.00	600.0	0.0050	0.0000	Open
P2095	J17_32	J17_33	135.00	300.0	0.0050	0.0020	Open
P2096	J17_32	J18_32	135.00	300.0	0.0050	0.0448	Open
P2097	J17_33	J17_34	135.00	300.0	0.0050	0.0486	Open
P2098	J17_33	J18_33	135.00	250.0	0.0050	0.1313	Open
P2099	J17_34	J17_35	135.00	300.0	0.0050	0.0344	Open
P2100	J17_34	J18_34	135.00	100.0	0.0050	0.0956	Open
P2101	J17_35	J17_36	135.00	200.0	0.0050	0.1148	Open
P2102	J17_35	J18_35	135.00	150.0	0.0050	0.0685	Open
P2103	J17_36	J17_37	135.00	300.0	0.0050	0.1205	Open
P2104	J17_36	J18_36	135.00	100.0	0.0050	0.1240	Open
P2105	J17_37	J17_38	135.00	150.0	0.0050	0.1298	Open
P2106	J17_37	J18_37	135.00	100.0	0.0050	0.0046	Open
P2107	J17_38	J17_39	135.00	200.0	0.0050	0.1192	Open
P2108	J17_38	J18_38	135.00	100.0	0.0050	0.0256	Open
P2109	J17_39	J17_40	135.00	250.0	0.0050	0.0457	Open
P2110	J17_39	J18_39	135.00	100.0	0.0050	0.0697	Open
P2111	J17_40	J17_41	135.00	200.0	0.0050	0.0135	Open
P2112	J17_40	J18_40	135.00	250.0	0.0050	0.0611	Open
P2113	J17_41	J17_42	135.00	450.0	0.0050	0.0073	Open
P2114	J17_41	J18_41	135.00	400.0	0.0050	0.0286	Open
P2115	J17_42	J17_43	135.00	150.0	0.0050	0.0269	Open
P2116	J17_42	J18_42	135.00	200.0	0.0050	0.1465	Open
P2117	J17_43	J17_44	135.00	150.0	0.0050	0.1225	Open
P2118	J17_43	J18_43	135.00	200.0	0.0050	0.0783	Open
P2119	J17_44	J17_45	135.00	200.0	0.0050	0.0836	Open
P2120	J17_44	J18_44	135.00	200.0	0.0050	0.0106	Open
P2121	J17_45	J17_46	135.00	250.0	0.0050	0.0041	Open
P2122	J17_45	J18_45	135.00	100.0	0.0050	0.0827	Open
P2123	J17_46	J17_47	135.00	250.0	0.0050	0.1425	Open
P2124	J17_46	J18_46	135.00	100.0	0.0050	0.0085	Open
P2125	J17_47	J17_48	135.00	200.0	0.0050	0.0553	Open
P2126	J17_47	J18_47	135.00	150.0	0.0050	0.1264	Open
P2127	J17_48	J17_49	135.00	250.0	0.0050	0.0269	Open
P2128	J17_48	J18_48	135.00	100.0	0.0050	0.0730	Open
P2129	J17_49	J17_50	135.00	200.0	0.0050	0.1425	Open
P2130	J17_49	J18_49	135.00	100.0	0.0050	0.0746	Open
P2131	J17_50	J17_51	135.00	150.0	0.0050	0.1026	Open
P2132	J17_50	J18_50	135.00	100.0	0.0050	0.1470	Open
P2133	J17_51	J17_52	135.00	600.0	0.0050	0.0282	Open
P2134	J17_51	J18_51	135.00	450.0	0.0050	0.0214	Open
P2135	J17_52	J17_53	135.00	300.0	0.0050	0.0347	Open
P2136	J17_52	J18_52	135.00	300.0	0.0050	0.1130	Open
P2137	J17_53	J17_54	135.00	300.0	0.0050	0.0712	Open
P2138	J17_53	J18_53	135.00	300.0	0.0050	0.1358	Open
P2139	J17_54	J17_55	135.00	200.0	0.0050	0.0627	Open
P2140	J17_54	J18_54	135.00	100.0	0.0050	0.0611	Open
P2141	J17_55	J17_56	135.00	100.0	0.0050	0.0537	Open
P2142	J17_55	J18_55	135.00	100.0	0.0050	0.1181	Open
P2143	J17_56	J17_57	135.00	150.0	0.0050	0.1040	Open
P2144	J17_56	J18_56	135.00	250.0	0.0050	0.0222	Open
P2145	J17_57	J17_58	135.00	250.0	0.0050	0.0245	Open
P2146	J17_57	J18_57	135.00	150.0	0.0050	0.1430	Open
P2147	J17_58	J17_59	135.00	100.0	0.0050	0.0308	Open
P2148	J17_58	J18_58	135.00	150.0	0.0050	0.0225	Open
P2149	J17_59	J17_60	135.00	300.0	0.0050	0.0168	Open
P2150	J17_59	J18_59	135.00	100.0	0.0050	0.0264	Open
P2151	J17_60	J17_61	135.00	250.0	0.0050	0.1001	Open
P2152	J17_60	J18_60	135.00	300.0	0.0050	0.0992	Open
P2153	J17_61	J17_62	135.00	400.0	0.0050	0.0470	Open
P2154	J17_61	J18_61	135.00	600.0	0.0050	0.0067	Open
P2155	J17_62	J17_63	135.00	200.0	0.0050	0.0062	Open
P2156	J17_62	J18_62	135.00	200.0	0.0050	0.0232	Open
P2157	J17_63	J17_64	135.00	250.0	0.0050	0.1243	Open
P2158	J17_63	J18_63	135.00	300.0	0.0050	0.1453	Open
P2159	J17_64	J18_64	135.00	150.0	0.0050	0.0236	Open
P2160	J18_1	J18_2	135.00	350.0	0.0050	0.0431	Open
P2161	J18_1	J19_1	135.00	400.0	0.0050	0.0479	Open
P2162	J18_2	J18_3	135.00	250.0	0.0050	0.0439	Open
P2163	J18_2	J19_2	135.00	200.0	0.0050	0.0278	Open
P2164	J18_3	J18_4	135.00	200.0	0.0050	0.0052	Open
P2165	J18_3	J19_3	135.00	250.0	0.0050	0.0851	Open
P2166	J18_4	J18_5	135.00	250.0	0.0050	0.0696	Open
P2167	J18_4	J19_4	135.00	300.0	0.0050	0.0747	Open
P2168	J18_5	J18_6	135.00	200.0	0.0050	0.0255	Open
P2169	J18_5	J19_5	135.00	300.0	0.0050	0.1252	Open
P2170	J18_6	J18_7	135.00	150.0	0.0050	0.0552	Open
P2171	J18_6	J19_6	135.00	250.0	0.0050	0.0873	Open
P2172	J18_7	J18_8	135.00	150.0	0.0050	0.0010	Open
P2173	J18_7	J19_7	135.00	200.0	0.0050	0.0213	Open
P2174	J18_8	J18_9	135.00	300.0	0.0050	0.1298	Open
P2175	J18_8	J19_8	135.00	250.0	0.0050	0.1011	Open
P2176	J18_9	J18_10	135.00	250.0	0.0050	0.0065	Open
P2177	J18_9	J19_9	135.00	100.0	0.0050	0.0760	Open
P2178	J18_10	J18_11	135.00	100.0	0.0050	0.1398	Open
P2179	J18_10	J19_10	135.00	250.0	0.0050	0.0918	Open
P2180	J18_11	J18_12	135.00	600.0	0.0050	0.0051	Open
P2181	J18_11	J19_11	135.00	350.0	0.0050	0.0277	Open
P2182	J18_12	J18_13	135.00	200.0	0.0050	0.0832	Open
P2183	J18_12	J19_12	135.00	200.0	0.0050	0.0761	Open
P2184	J18_13	J18_14	135.00	150.0	0.0050	0.1262	Open
P2185	J18_13	J19_13	135.00	100.0	0.0050	0.1215	Open
P2186	J18_14	J18_15	135.00	100.0	0.0050	0.0158	Open
P2187	J18_14	J19_14	135.00	250.0	0.0050	0.0994	Open
P2188	J18_15	J18_16	135.00	300.0	0.0050	0.0267	Open
P2189	J18_15	J19_15	135.00	300.0	0.0050	0.1385	Open
P2190	J18_16	J18_17	135.00	150.0	0.0050	0.0001	Open
P2191	J18_16	J19_16	135.00	250.0	0.0050	0.1052	Open
P2192	J18_17	J18_18	135.00	300.0	0.0050	0.0312	Open
P2193	J18_17	J19_17	135.00	200.0	0.0050	0.1286	Open
P2194	J18_18	J18_19	135.00	300.0	0.0050	0.0145	Open
P2195	J18_18	J19_18	135.00	250.0	0.0050	0.1399	Open
P2196	J18_19	J18_20	135.00	200.0	0.0050	0.1094	Open
P2197	J18_19	J19_19	135.00	100.0	0.0050	0.0454	Open
P2198	J18_20	J18_21	135.00	300.0	0.0050	0.0322	Open
P2199	J18_20	J19_20	135.00	250.0	0.0050	0.0324	Open
P2200	J18_21	J18_22	135.00	450.0	0.0050	0.0162	Open
P2201	J18_21	J19_21	135.00	500.0	0.0050	0.0482	Open
P2202	J18_22	J18_23	135.00	100.0	0.0050	0.0150	Open
P2203	J18_22	J19_22	135.00	150.0	0.0050	0.0230	Open
P2204	J18_23	J18_24	135.00	250.0	0.0050	0.1411	Open
P2205	J18_23	J19_23	135.00	100.0	0.0050	0.0060	Open
P2206	J18_24	J18_25	135.00	200.0	0.0050	0.0112	Open
P2207	J18_24	J19_24	135.00	150.0	0.0050	0.0877	Open
P2208	J18_25	J18_26	135.00	100.0	0.0050	0.0300	Open
P2209	J18_25	J19_25	135.00	250.0	0.0050	0.0014	Open
P2210	J18_26	J18_27	135.00	250.0	0.0050	0.0460	Open
P2211	J18_26	J19_26	135.00	100.0	0.0050	0.1467	Open
P2212	J18_27	J18_28	135.00	250.0	0.0050	0.0032	Open
P2213	J18_27	J19_27	135.00	100.0	0.0050	0.0526	Open
P2214	J18_28	J18_29	135.00	200.0	0.0050	0.0923	Open
P2215	J18_28	J19_28	135.00	300.0	0.0050	0.1225	Open
P2216	J18_29	J18_30	135.00	300.0	0.0050	0.0962	Open
P2217	J18_29	J19_29	135.00	200.0	0.0050	0.0661	Open
P2218	J18_30	J18_31	135.00	250.0	0.0050	0.0215	Open
P2219	J18_30	J19_30	135.00	250.0	0.0050	0.0140	Open
P2220	J18_31	J18_32	135.00	400.0	0.0050	0.0123	Open
P2221	J18_31	J19_31	135.00	500.0	0.0050	0.0052	Open
P2222	J18_32	J18_33	135.00	250.0	0.0050	0.0305	Open
P2223	J18_32	J19_32	135.00	100.0	0.0050	0.0136	Open
P2224	J18_33	J18_34	135.00	250.0	0.0050	0.0770	Open
P2225	J18_33	J19_33	135.00	300.0	0.0050	0.0810	Open
P2226	J18_34	J18_35	135.00	200.0	0.0050	0.1340	Open
P2227	J18_34	J19_34	135.00	100.0	0.0050	0.0481	Open
P2228	J18_35	J18_36	135.00	300.0	0.0050	0.0455	Open
P2229	J18_35	J19_35	135.00	300.0	0.0050	0.0456	Open
P2230	J18_36	J18_37	135.00	250.0	0.0050	0.0093	Open
P2231	J18_36	J19_36	135.00	300.0	0.0050	0.1185	Open
P2232	J18_37	J18_38	135.00	300.0	0.0050	0.0962	Open
P2233	J18_37	J19_37	135.00	300.0	0.0050	0.0855	Open
P2234	J18_38	J18_39	135.00	250.0	0.0050	0.0280	Open
P2235	J18_38	J19_38	135.00	100.0	0.0050	0.1475	Open
P2236	J18_39	J18_40	135.00	100.0	0.0050	0.0859	Open
P2237	J18_39	J19_39	135.00	200.0	0.0050	0.0726	Open
P2238	J18_40	J18_41	135.00	150.0	0.0050	0.0859	Open
P2239	J18_40	J19_40	135.00	250.0	0.0050	0.0747	Open
P2240	J18_41	J18_42	135.00	400.0	0.0050	0.0325	Open
P2241	J18_41	J19_41	135.00	400.0	0.0050	0.0320	Open
P2242	J18_42	J18_43	135.00	100.0	0.0050	0.1418	Open
P2243	J18_42	J19_42	135.00	150.0	0.0050	0.1128	Open
P2244	J18_43	J18_44	135.00	100.0	0.0050	0.0902	Open
P2245	J18_43	J19_43	135.00	300.0	0.0050	0.0844	Open
P2246	J18_44	J18_45	135.00	200.0	0.0050	0.1143	Open
P2247	J18_44	J19_44	135.00	300.0	0.0050	0.1024	Open
P2248	J18_45	J18_46	135.00	300.0	0.0050	0.0495	Open
P2249	J18_45	J19_45	135.00	250.0	0.0050	0.0840	Open
P2250	J18_46	J18_47	135.00	250.0	0.0050	0.0393	Open
P2251	J18_46	J19_46	135.00	100.0	0.0050	0.0020	Open
P2252	J18_47	J18_48	135.00	100.0	0.0050	0.0100	Open
P2253	J18_47	J19_47	135.00	100.0	0.0050	0.0320	Open
P2254	J18_48	J18_49	135.00	300.0	0.0050	0.0728	Open
P2255	J18_48	J19_48	135.00	250.0	0.0050	0.1305	Open
P2256	J18_49	J18_50	135.00	200.0	0.0050	0.0867	Open
P2257	J18_49	J19_49	135.00	150.0	0.0050	0.1306	Open
P2258	J18_50	J18_51	135.00	250.0	0.0050	0.0395	Open
P2259	J18_50	J19_50	135.00	250.0	0.0050	0.1011	Open
P2260	J18_51	J18_52	135.00	600.0	0.0050	0.0181	Open
P2261	J18_51	J19_51	135.00	450.0	0.0050	0.0043	Open
P2262	J18_52	J18_53	135.00	100.0	0.0050	0.1201	Open
P2263	J18_52	J19_52	135.00	150.0	0.0050	0.1323	Open
P2264	J18_53	J18_54	135.00	200.0	0.0050	0.0387	Open
P2265	J18_53	J19_53	135.00	200.0	0.0050	0.0055	Open
P2266	J18_54	J18_55	135.00	300.0	0.0050	0.0593	Open
P2267	J18_54	J19_54	135.00	250.0	0.0050	0.0824	Open
P2268	J18_55	J18_56	135.00	100.0	0.0050	0.1096	Open
P2269	J18_55	J19_55	135.00	150.0	0.0050	0.0554	Open
P2270	J18_56	J18_57	135.00	150.0	0.0050	0.0393	Open
P2271	J18_56	J19_56	135.00	100.0	0.0050	0.0185	Open
P2272	J18_57	J18_58	135.00	250.0	0.0050	0.0652	Open
P2273	J18_57	J19_57	135.00	150.0	0.0050	0.1165	Open
P2274	J18_58	J18_59	135.00	100.0	0.0050	0.0783	Open
P2275	J18_58	J19_58	135.00	250.0	0.0050	0.1173	Open
P2276	J18_59	J18_60	135.00	100.0	0.0050	0.0999	Open
P2277	J18_59	J19_59	135.00	150.0	0.0050	0.0146	Open
P2278	J18_60	J18_61	135.00	200.0	0.0050	0.0922	Open
P2279	J18_60	J19_60	135.00	200.0	0.0050	0.1406	Open
P2280	J18_61	J18_62	135.00	300.0	0.0050	0.0331	Open
P2281	J18_61	J19_61	135.00	500.0	0.0050	0.0008	Open
P2282	J18_62	J18_63	135.00	100.0	0.0050	0.0605	Open
P2283	J18_62	J19_62	135.00	300.0	0.0050	0.1382	Open
P2284	J18_63	J18_64	135.00	200.0	0.0050	0.0666	Open
P2285	J18_63	J19_63	135.00	100.0	0.0050	0.1127	Open
P2286	J18_64	J19_64	135.00	250.0	0.0050	0.1204	Open
P2287	J19_1	J19_2	135.00	450.0	0.0050	0.0498	Open
P2288	J19_1	J20_1	135.00	450.0	0.0050	0.0458	Open
P2289	J19_2	J19_3	135.00	250.0	0.0050	0.0269	Open
P2290	J19_2	J20_2	135.00	150.0	0.0050	0.0107	Open
P2291	J19_3	J19_4	135.00	200.0	0.0050	0.0295	Open
P2292	J19_3	J20_3	135.00	300.0	0.0050	0.0080	Open
P2293	J19_4	J19_5	135.00	250.0	0.0050	0.0736	Open
P2294	J19_4	J20_4	135.00	300.0	0.0050	0.1203	Open
P2295	J19_5	J19_6	135.00	250.0	0.0050	0.0625	Open
P2296	J19_5	J20_5	135.00	100.0	0.0050	0.1194	Open
P2297	J19_6	J19_7	135.00	200.0	0.0050	0.0414	Open
P2298	J19_6	J20_6	135.00	200.0	0.0050	0.0148	Open
P2299	J19_7	J19_8	135.00	100.0	0.0050	0.0850	Open
P2300	J19_7	J20_7	135.00	200.0	0.0050	0.0711	Open
P2301	J19_8	J19_9	135.00	300.0	0.0050	0.1241	Open
P2302	J19_8	J20_8	135.00	100.0	0.0050	0.0708	Open
P2303	J19_9	J19_10	135.00	200.0	0.0050	0.1275	Open
P2304	J19_9	J20_9	135.00	100.0	0.0050	0.0097	Open
P2305	J19_10	J19_11	135.00	250.0	0.0050	0.0122	Open
P2306	J19_10	J20_10	135.00	300.0	0.0050	0.0862	Open
P2307	J19_11	J19_12	135.00	400.0	0.0050	0.0007	Open
P2308	J19_11	J20_11	135.00	600.0	0.0050	0.0471	Open
P2309	J19_12	J19_13	135.00	300.0	0.0050	0.0803	Open
P2310	J19_12	J20_12	135.00	150.0	0.0050	0.0680	Open
P2311	J19_13	J19_14	135.00	200.0	0.0050	0.1027	Open
P2312	J19_13	J20_13	135.00	150.0	0.0050	0.0898	Open
P2313	J19_14	J19_15	135.00	250.0	0.0050	0.0770	Open
P2314	J19_14	J20_14	135.00	300.0	0.0050	0.0978	Open
P2315	J19_15	J19_16	135.00	300.0	0.0050	0.0479	Open
P2316	J19_15	J20_15	135.00	200.0	0.0050	0.0795	Open
P2317	J19_16	J19_17	135.00	150.0	0.0050	0.0027	Open
P2318	J19_16	J20_16	135.00	250.0	0.0050	0.1057	Open
P2319	J19_17	J19_18	135.00	150.0	0.0050	0.0665	Open
P2320	J19_17	J20_17	135.00	300.0	0.0050	0.1058	Open
P2321	J19_18	J19_19	135.00	100.0	0.0050	0.0021	Open
P2322	J19_18	J20_18	135.00	300.0	0.0050	0.0679	Open
P2323	J19_19	J19_20	135.00	150.0	0.0050	0.0245	Open
P2324	J19_19	J20_19	135.00	100.0	0.0050	0.0812	Open
P2325	J19_20	J19_21	135.00	250.0	0.0050	0.1107	Open
P2326	J19_20	J20_20	135.00	150.0	0.0050	0.1002	Open
P2327	J19_21	J19_22	135.00	300.0	0.0050	0.0276	Open
P2328	J19_21	J20_21	135.00	300.0	0.0050	0.0451	Open
P2329	J19_22	J19_23	135.00	300.0	0.0050	0.1241	Open
P2330	J19_22	J20_22	135.00	200.0	0.0050	0.0339	Open
P2331	J19_23	J19_24	135.00	250.0	0.0050	0.0115	Open
P2332	J19_23	J20_23	135.00	250.0	0.0050	0.0800	Open
P2333	J19_24	J19_25	135.00	100.0	0.0050	0.0501	Open
P2334	J19_24	J20_24	135.00	200.0	0.0050	0.0165	Open
P2335	J19_25	J19_26	135.00	150.0	0.0050	0.0146	Open
P2336	J19_25	J20_25	135.00	100.0	0.0050	0.1003	Open
P2337	J19_26	J19_27	135.00	200.0	0.0050	0.0938	Open
P2338	J19_26	J20_26	135.00	100.0	0.0050	0.1266	Open
P2339	J19_27	J19_28	135.00	100.0	0.0050	0.0795	Open
P2340	J19_27	J20_27	135.00	100.0	0.0050	0.1158	Open
P2341	J19_28	J19_29	135.00	100.0	0.0050	0.0755	Open
P2342	J19_28	J20_28	135.00	300.0	0.0050	0.1086	Open
P2343	J19_29	J19_30	135.00	200.0	0.0050	0.0671	Open
P2344	J19_29	J20_29	135.00	200.0	0.0050	0.0018	Open
P2345	J19_30	J19_31	135.00	150.0	0.0050	0.0489	Open
P2346	J19_30	J20_30	135.00	200.0	0.0050	0.1267	Open
P2347	J19_31	J19_32	135.00	350.0	0.0050	0.0004	Open
P2348	J19_31	J20_31	135.00	500.0	0.0050	0.0205	Open
P2349	J19_32	J19_33	135.00	200.0	0.0050	0.0591	Open
P2350	J19_32	J20_32	135.00	250.0	0.0050	0.0982	Open
P2351	J19_33	J19_34	135.00	250.0	0.0050	0.0174	Open
P2352	J19_33	J20_33	135.00	150.0	0.0050	0.0963	Open
P2353	J19_34	J19_35	135.00	300.0	0.0050	0.1302	Open
P2354	J19_34	J20_34	135.00	300.0	0.0050	0.1334	Open
P2355	J19_35	J19_36	135.00	100.0	0.0050	0.0790	Open
P2356	J19_35	J20_35	135.00	200.0	0.0050	0.0924	Open
P2357	J19_36	J19_37	135.00	300.0	0.0050	0.0449	Open
P2358	J19_36	J20_36	135.00	200.0	0.0050	0.0844	Open
P2359	J19_37	J19_38	135.00	100.0	0.0050	0.0690	Open
P2360	J19_37	J20_37	135.00	200.0	0.0050	0.0644	Open
P2361	J19_38	J19_39	135.00	300.0	0.0050	0.0739	Open
P2362	J19_38	J20_38	135.00	200.0	0.0050	0.0977	Open
P2363	J19_39	J19_40	135.00	100.0	0.0050	0.0708	Open
P2364	J19_39	J20_39	135.00	250.0	0.0050	0.1454	Open
P2365	J19_40	J19_41	135.00	200.0	0.0050	0.0632	Open
P2366	J19_40	J20_40	135.00	250.0	0.0050	0.0924	Open
P2367	J19_41	J19_42	135.00	600.0	0.0050	0.0296	Open
P2368	J19_41	J20_41	135.00	600.0	0.0050	0.0008	Open
P2369	J19_42	J19_43	135.00	250.0	0.0050	0.1306	Open
P2370	J19_42	J20_42	135.00	250.0	0.0050	0.0634	Open
P2371	J19_43	J19_44	135.00	250.0	0.0050	0.1403	Open
P2372	J19_43	J20_43	135.00	150.0	0.0050	0.0953	Open
P2373	J19_44	J19_45	135.00	300.0	0.0050	0.0105	Open
P2374	J19_44	J20_44	135.00	100.0	0.0050	0.0618	Open
P2375	J19_45	J19_46	135.00	100.0	0.0050	0.0823	Open
P2376	J19_45	J20_45	135.00	200.0	0.0050	0.0880	Open
P2377	J19_46	J19_47	135.00	250.0	0.0050	0.0300	Open
P2378	J19_46	J20_46	135.00	200.0	0.0050	0.1110	Open
P2379	J19_47	J19_48	135.00	150.0	0.0050	0.0868	Open
P2380	J19_47	J20_47	135.00	300.0	0.0050	0.0415	Open
P2381	J19_48	J19_49	135.00	300.0	0.0050	0.1362	Open
P2382	J19_48	J20_48	135.00	250.0	0.0050	0.0579	Open
P2383	J19_49	J19_50	135.00	150.0	0.0050	0.1148	Open
P2384	J19_49	J20_49	135.00	200.0	0.0050	0.0332	Open
P2385	J19_50	J19_51	135.00	150.0	0.0050	0.1108	Open
P2386	J19_50	J20_50	135.00	150.0	0.0050	0.0957	Open
P2387	J19_51	J19_52	135.00	600.0	0.0050	0.0210	Open
P2388	J19_51	J20_51	135.00	400.0	0.0050	0.0003	Open
P2389	J19_52	J19_53	135.00	200.0	0.0050	0.0292	Open
P2390	J19_52	J20_52	135.00	300.0	0.0050	0.1325	Open
P2391	J19_53	J19_54	135.00	250.0	0.0050	0.0311	Open
P2392	J19_53	J20_53	135.00	100.0	0.0050	0.0298	Open
P2393	J19_54	J19_55	135.00	100.0	0.0050	0.0682	Open
P2394	J19_54	J20_54	135.00	100.0	0.0050	0.0067	Open
P2395	J19_55	J19_56	135.00	100.0	0.0050	0.0078	Open
P2396	J19_55	J20_55	135.00	100.0	0.0050	0.0824	Open
P2397	J19_56	J19_57	135.00	250.0	0.0050	0.0743	Open
P2398	J19_56	J20_56	135.00	150.0	0.0050	0.1087	Open
P2399	J19_57	J19_58	135.00	100.0	0.0050	0.0310	Open
P2400	J19_57	J20_57	135.00	250.0	0.0050	0.0087	Open
P2401	J19_58	J19_59	135.00	200.0	0.0050	0.0488	Open
P2402	J19_58	J20_58	135.00	300.0	0.0050	0.0841	Open
P2403	J19_59	J19_60	135.00	300.0	0.0050	0.0704	Open
P2404	J19_59	J20_59	135.00	250.0	0.0050	0.0982	Open
P2405	J19_60	J19_61	135.00	200.0	0.0050	0.1465	Open
P2406	J19_60	J20_60	135.00	100.0	0.0050	0.1148	Open
P2407	J19_61	J19_62	135.00	400.0	0.0050	0.0110	Open
P2408	J19_61	J20_61	135.00	350.0	0.0050	0.0466	Open
P2409	J19_62	J19_63	135.00	250.0	0.0050	0.0620	Open
P2410	J19_62	J20_62	135.00	150.0	0.0050	0.0955	Open
P2411	J19_63	J19_64	135.00	300.0	0.0050	0.1009	Open
P2412	J19_63	J20_63	135.00	150.0	0.0050	0.0019	Open
P2413	J19_64	J20_64	135.00	250.0	0.0050	0.1457	Open
P2414	J20_1	J20_2	135.00	500.0	0.0050	0.0399	Open
P2415	J20_1	J21_1	135.00	400.0	0.0050	0.0365	Open
P2416	J20_2	J20_3	135.00	250.0	0.0050	0.0660	Open
P2417	J20_2	J21_2	135.00	100.0	0.0050	0.1032	Open
P2418	J20_3	J20_4	135.00	200.0	0.0050	0.0883	Open
P2419	J20_3	J21_3	135.00	100.0	0.0050	0.0489	Open
P2420	J20_4	J20_5	135.00	100.0	0.0050	0.0503	Open
P2421	J20_4	J21_4	135.00	250.0	0.0050	0.0047	Open
P2422	J20_5	J20_6	135.00	150.0	0.0050	0.0847	Open
P2423	J20_5	J21_5	135.00	300.0	0.0050	0.0961	Open
P2424	J20_6	J20_7	135.00	100.0	0.0050	0.0992	Open
P2425	J20_6	J21_6	135.00	300.0	0.0050	0.0931	Open
P2426	J20_7	J20_8	135.00	300.0	0.0050	0.0026	Open
P2427	J20_7	J21_7	135.00	250.0	0.0050	0.0715	Open
P2428	J20_8	J20_9	135.00	150.0	0.0050	0.1018	Open
P2429	J20_8	J21_8	135.00	100.0	0.0050	0.1221	Open
P2430	J20_9	J20_10	135.00	250.0	0.0050	0.0376	Open
P2431	J20_9	J21_9	135.00	100.0	0.0050	0.1058	Open
P2432	J20_10	J20_11	135.00	150.0	0.0050	0.1329	Open
P2433	J20_10	J21_10	135.00	250.0	0.0050	0.1353	Open
P2434	J20_11	J20_12	135.00	350.0	0.0050	0.0154	Open
P2435	J20_11	J21_11	135.00	450.0	0.0050	0.0474	Open
P2436	J20_12	J20_13	135.00	200.0	0.0050	0.0052	Open
P2437	J20_12	J21_12	135.00	150.0	0.0050	0.0924	Open
P2438	J20_13	J20_14	135.00	200.0	0.0050	0.1494	Open
P2439	J20_13	J21_13	135.00	250.0	0.0050	0.0788	Open
P2440	J20_14	J20_15	135.00	100.0	0.0050	0.0581	Open
P2441	J20_14	J21_14	135.00	150.0	0.0050	0.0469	Open
P2442	J20_15	J20_16	135.00	300.0	0.0050	0.0732	Open
P2443	J20_15	J21_15	135.00	300.0	0.0050	0.0356	Open
P2444	J20_16	J20_17	135.00	150.0	0.0050	0.0882	Open
P2445	J20_16	J21_16	135.00	150.0	0.0050	0.0850	Open
P2446	J20_17	J20_18	135.00	150.0	0.0050	0.1297	Open
P2447	J20_17	J21_17	135.00	150.0	0.0050	0.0953	Open
P2448	J20_18	J20_19	135.00	150.0	0.0050	0.0798	Open
P2449	J20_18	J21_18	135.00	250.0	0.0050	0.1305	Open
P2450	J20_19	J20_20	135.00	150.0	0.0050	0.0030	Open
P2451	J20_19	J21_19	135.00	250.0	0.0050	0.1224	Open
P2452	J20_20	J20_21	135.00	300.0	0.0050	0.0688	Open
P2453	J20_20	J21_20	135.00	250.0	0.0050	0.1201	Open
P2454	J20_21	J20_22	135.00	450.0	0.0050	0.0188	Open
P2455	J20_21	J21_21	135.00	400.0	0.0050	0.0065	Open
P2456	J20_22	J20_23	135.00	250.0	0.0050	0.0320	Open
P2457	J20_22	J21_22	135.00	100.0	0.0050	0.0120	Open
P2458	J20_23	J20_24	135.00	150.0	0.0050	0.0008	Open
P2459	J20_23	J21_23	135.00	150.0	0.0050	0.0025	Open
P2460	J20_24	J20_25	135.00	300.0	0.0050	0.0003	Open
P2461	J20_24	J21_24	135.00	300.0	0.0050	0.1442	Open
P2462	J20_25	J20_26	135.00	250.0	0.0050	0.0346	Open
P2463	J20_25	J21_25	135.00	100.0	0.0050	0.0614	Open
P2464	J20_26	J20_27	135.00	100.0	0.0050	0.0389	Open
P2465	J20_26	J21_26	135.00	300.0	0.0050	0.1154	Open
P2466	J20_27	J20_28	135.00	150.0	0.0050	0.0463	Open
P2467	J20_27	J21_27	135.00	250.0	0.0050	0.0056	Open
P2468	J20_28	J20_29	135.00	150.0	0.0050	0.0403	Open
P2469	J20_28	J21_28	135.00	200.0	0.0050	0.0142	Open
P2470	J20_29	J20_30	135.00	150.0	0.0050	0.0359	Open
P2471	J20_29	J21_29	135.00	100.0	0.0050	0.0023	Open
P2472	J20_30	J20_31	135.00	100.0	0.0050	0.0121	Open
P2473	J20_30	J21_30	135.00	150.0	0.0050	0.0891	Open
P2474	J20_31	J20_32	135.00	600.0	0.0050	0.0030	Open
P2475	J20_31	J21_31	135.00	350.0	0.0050	0.0158	Open
P2476	J20_32	J20_33	135.00	200.0	0.0050	0.1019	Open
P2477	J20_32	J21_32	135.00	250.0	0.0050	0.1422	Open
P2478	J20_33	J20_34	135.00	150.0	0.0050	0.0761	Open
P2479	J20_33	J21_33	135.00	100.0	0.0050	0.0743	Open
P2480	J20_34	J20_35	135.00	100.0	0.0050	0.0655	Open
P2481	J20_34	J21_34	135.00	150.0	0.0050	0.0043	Open
P2482	J20_35	J20_36	135.00	200.0	0.0050	0.0539	Open
P2483	J20_35	J21_35	135.00	100.0	0.0050	0.0271	Open
P2484	J20_36	J20_37	135.00	200.0	0.0050	0.0083	Open
P2485	J20_36	J21_36	135.00	250.0	0.0050	0.0589	Open
P2486	J20_37	J20_38	135.00	250.0	0.0050	0.0388	Open
P2487	J20_37	J21_37	135.00	250.0	0.0050	0.1116	Open
P2488	J20_38	J20_39	135.00	200.0	0.0050	0.0943	Open
P2489	J20_38	J21_38	135.00	200.0	0.0050	0.0386	Open
P2490	J20_39	J20_40	135.00	100.0	0.0050	0.0644	Open
P2491	J20_39	J21_39	135.00	100.0	0.0050	0.0493	Open
P2492	J20_40	J20_41	135.00	250.0	0.0050	0.0130	Open
P2493	J20_40	J21_40	135.00	250.0	0.0050	0.0741	Open
P2494	J20_41	J20_42	135.00	600.0	0.0050	0.0121	Open
P2495	J20_41	J21_41	135.00	450.0	0.0050	0.0266	Open
P2496	J20_42	J20_43	135.00	300.0	0.0050	0.0925	Open
P2497	J20_42	J21_42	135.00	250.0	0.0050	0.1215	Open
P2498	J20_43	J20_44	135.00	300.0	0.0050	0.0659	Open
P2499	J20_43	J21_43	135.00	150.0	0.0050	0.1073	Open
P2500	J20_44	J20_45	135.00	250.0	0.0050	0.0350	Open
P2501	J20_44	J21_44	135.00	200.0	0.0050	0.1061	Open
P2502	J20_45	J20_46	135.00	300.0	0.0050	0.0565	Open
P2503	J20_45	J21_45	135.00	100.0	0.0050	0.1423	Open
P2504	J20_46	J20_47	135.00	200.0	0.0050	0.1189	Open
P2505	J20_46	J21_46	135.00	200.0	0.0050	0.0424	Open
P2506	J20_47	J20_48	135.00	300.0	0.0050	0.0223	Open
P2507	J20_47	J21_47	135.00	100.0	0.0050	0.0933	Open
P2508	J20_48	J20_49	135.00	100.0	0.0050	0.1202	Open
P2509	J20_48	J21_48	135.00	100.0	0.0050	0.0129	Open
P2510	J20_49	J20_50	135.00	250.0	0.0050	0.1014	Open
P2511	J20_49	J21_49	135.00	100.0	0.0050	0.1417	Open
P2512	J20_50	J20_51	135.00	200.0	0.0050	0.0666	Open
P2513	J20_50	J21_50	135.00	250.0	0.0050	0.0463	Open
P2514	J20_51	J20_52	135.00	500.0	0.0050	0.0217	Open
P2515	J20_51	J21_51	135.00	350.0	0.0050	0.0200	Open
P2516	J20_52	J20_53	135.00	100.0	0.0050	0.0388	Open
P2517	J20_52	J21_52	135.00	200.0	0.0050	0.0006	Open
P2518	J20_53	J20_54	135.00	100.0	0.0050	0.0833	Open
P2519	J20_53	J21_53	135.00	300.0	0.0050	0.1102	Open
P2520	J20_54	J20_55	135.00	150.0	0.0050	0.0498	Open
P2521	J20_54	J21_54	135.00	100.0	0.0050	0.0764	Open
P2522	J20_55	J20_56	135.00	200.0	0.0050	0.0882	Open
P2523	J20_55	J21_55	135.00	200.0	0.0050	0.1333	Open
P2524	J20_56	J20_57	135.00	250.0	0.0050	0.1086	Open
P2525	J20_56	J21_56	135.00	300.0	0.0050	0.0257	Open
P2526	J20_57	J20_58	135.00	300.0	0.0050	0.0569	Open
P2527	J20_57	J21_57	135.00	250.0	0.0050	0.0207	Open
P2528	J20_58	J20_59	135.00	100.0	0.0050	0.0754	Open
P2529	J20_58	J21_58	135.00	300.0	0.0050	0.0551	Open
P2530	J20_59	J20_60	135.00	200.0	0.0050	0.0747	Open
P2531	J20_59	J21_59	135.00	250.0	0.0050	0.0082	Open
P2532	J20_60	J20_61	135.00	250.0	0.0050	0.1142	Open
P2533	J20_60	J21_60	135.00	200.0	0.0050	0.0850	Open
P2534	J20_61	J20_62	135.00	400.0	0.0050	0.0249	Open
P2535	J20_61	J21_61	135.00	600.0	0.0050	0.0379	Open
P2536	J20_62	J20_63	135.00	300.0	0.0050	0.0979	Open
P2537	J20_62	J21_62	135.00	150.0	0.0050	0.0145	Open
P2538	J20_63	J20_64	135.00	200.0	0.0050	0.1044	Open
P2539	J20_63	J21_63	135.00	150.0	0.0050	0.0694	Open
P2540	J20_64	J21_64	135.00	250.0	0.0050	0.1089	Open
P2541	J21_1	J21_2	135.00	600.0	0.0050	0.0054	Open
P2542	J21_1	J22_1	135.00	400.0	0.0050	0.0441	Open
P2543	J21_2	J21_3	135.00	500.0	0.0050	0.0135	Open
P2544	J21_2	J22_2	135.00	350.0	0.0050	0.0329	Open
P2545	J21_3	J21_4	135.00	500.0	0.0050	0.0387	Open
P2546	J21_3	J22_3	135.00	350.0	0.0050	0.0312	Open
P2547	J21_4	J21_5	135.00	350.0	0.0050	0.0002	Open
P2548	J21_4	J22_4	135.00	400.0	0.0050	0.0201	Open
P2549	J21_5	J21_6	135.00	500.0	0.0050	0.0069	Open
P2550	J21_5	J22_5	135.00	450.0	0.0050	0.0329	Open
P2551	J21_6	J21_7	135.00	300.0	0.0050	0.0311	Open
P2552	J21_6	J22_6	135.00	500.0	0.0050	0.0369	Open
P2553	J21_7	J21_8	135.00	300.0	0.0050	0.0225	Open
P2554	J21_7	J22_7	135.00	600.0	0.0050	0.0242	Open
P2555	J21_8	J21_9	135.00	450.0	0.0050	0.0318	Open
P2556	J21_8	J22_8	135.00	600.0	0.0050	0.0364	Open
P2557	J21_9	J21_10	135.00	500.0	0.0050	0.0034	Open
P2558	J21_9	J22_9	135.00	500.0	0.0050	0.0150	Open
P2559	J21_10	J21_11	135.00	450.0	0.0050	0.0256	Open
P2560	J21_10	J22_10	135.00	400.0	0.0050	0.0231	Open
P2561	J21_11	J21_12	135.00	600.0	0.0050	0.0309	Open
P2562	J21_11	J22_11	135.00	300.0	0.0050	0.0292	Open
P2563	J21_12	J21_13	135.00	600.0	0.0050	0.0051	Open
P2564	J21_12	J22_12	135.00	600.0	0.0050	0.0383	Open
P2565	J21_13	J21_14	135.00	600.0	0.0050	0.0402	Open
P2566	J21_13	J22_13	135.00	500.0	0.0050	0.0301	Open
P2567	J21_14	J21_15	135.00	300.0	0.0050	0.0425	Open
P2568	J21_14	J22_14	135.00	300.0	0.0050	0.0328	Open
P2569	J21_15	J21_16	135.00	350.0	0.0050	0.0326	Open
P2570	J21_15	J22_15	135.00	450.0	0.0050	0.0325	Open
P2571	J21_16	J21_17	135.00	450.0	0.0050	0.0492	Open
P2572	J21_16	J22_16	135.00	400.0	0.0050	0.0324	Open
P2573	J21_17	J21_18	135.00	500.0	0.0050	0.0337	Open
P2574	J21_17	J22_17	135.00	600.0	0.0050	0.0105	Open
P2575	J21_18	J21_19	135.00	600.0	0.0050	0.0276	Open
P2576	J21_18	J22_18	135.00	300.0	0.0050	0.0221	Open
P2577	J21_19	J21_20	135.00	600.0	0.0050	0.0381	Open
P2578	J21_19	J22_19	135.00	600.0	0.0050	0.0053	Open
P2579	J21_20	J21_21	135.00	450.0	0.0050	0.0197	Open
P2580	J21_20	J22_20	135.00	500.0	0.0050	0.0341	Open
P2581	J21_21	J21_22	135.00	450.0	0.0050	0.0396	Open
P2582	J21_21	J22_21	135.00	600.0	0.0050	0.0039	Open
P2583	J21_22	J21_23	135.00	400.0	0.0050	0.0073	Open
P2584	J21_22	J22_22	135.00	400.0	0.0050	0.0153	Open
P2585	J21_23	J21_24	135.00	300.0	0.0050	0.0487	Open
P2586	J21_23	J22_23	135.00	500.0	0.0050	0.0428	Open
P2587	J21_24	J21_25	135.00	350.0	0.0050	0.0090	Open
P2588	J21_24	J22_24	135.00	300.0	0.0050	0.0364	Open
P2589	J21_25	J21_26	135.00	600.0	0.0050	0.0099	Open
P2590	J21_25	J22_25	135.00	400.0	0.0050	0.0442	Open
P2591	J21_26	J21_27	135.00	600.0	0.0050	0.0065	Open
P2592	J21_26	J22_26	135.00	300.0	0.0050	0.0494	Open
P2593	J21_27	J21_28	135.00	600.0	0.0050	0.0290	Open
P2594	J21_27	J22_27	135.00	600.0	0.0050	0.0246	Open
P2595	J21_28	J21_29	135.00	450.0	0.0050	0.0086	Open
P2596	J21_28	J22_28	135.00	600.0	0.0050	0.0488	Open
P2597	J21_29	J21_30	135.00	600.0	0.0050	0.0190	Open
P2598	J21_29	J22_29	135.00	300.0	0.0050	0.0495	Open
P2599	J21_30	J21_31	135.00	300.0	0.0050	0.0369	Open
P2600	J21_30	J22_30	135.00	450.0	0.0050	0.0468	Open
P2601	J21_31	J21_32	135.00	500.0	0.0050	0.0190	Open
P2602	J21_31	J22_31	135.00	400.0	0.0050	0.0416	Open
P2603	J21_32	J21_33	135.00	350.0	0.0050	0.0269	Open
P2604	J21_32	J22_32	135.00	450.0	0.0050	0.0045	Open
P2605	J21_33	J21_34	135.00	500.0	0.0050	0.0249	Open
P2606	J21_33	J22_33	135.00	600.0	0.0050	0.0015	Open
P2607	J21_34	J21_35	135.00	600.0	0.0050	0.0467	Open
P2608	J21_34	J22_34	135.00	350.0	0.0050	0.0388	Open
P2609	J21_35	J21_36	135.00	400.0	0.0050	0.0298	Open
P2610	J21_35	J22_35	135.00	400.0	0.0050	0.0152	Open
P2611	J21_36	J21_37	135.00	600.0	0.0050	0.0330	Open
P2612	J21_36	J22_36	135.00	600.0	0.0050	0.0380	Open
P2613	J21_37	J21_38	135.00	400.0	0.0050	0.0271	Open
P2614	J21_37	J22_37	135.00	500.0	0.0050	0.0152	Open
P2615	J21_38	J21_39	135.00	450.0	0.0050	0.0141	Open
P2616	J21_38	J22_38	135.00	450.0	0.0050	0.0088	Open
P2617	J21_39	J21_40	135.00	450.0	0.0050	0.0166	Open
P2618	J21_39	J22_39	135.00	600.0	0.0050	0.0193	Open
P2619	J21_40	J21_41	135.00	500.0	0.0050	0.0053	Open
P2620	J21_40	J22_40	135.00	300.0	0.0050	0.0321	Open
P2621	J21_41	J21_42	135.00	600.0	0.0050	0.0338	Open
P2622	J21_41	J22_41	135.00	400.0	0.0050	0.0218	Open
P2623	J21_42	J21_43	135.00	350.0	0.0050	0.0397	Open
P2624	J21_42	J22_42	135.00	400.0	0.0050	0.0185	Open
P2625	J21_43	J21_44	135.00	500.0	0.0050	0.0032	Open
P2626	J21_43	J22_43	135.00	450.0	0.0050	0.0175	Open
P2627	J21_44	J21_45	135.00	500.0	0.0050	0.0403	Open
P2628	J21_44	J22_44	135.00	600.0	0.0050	0.0171	Open
P2629	J21_45	J21_46	135.00	300.0	0.0050	0.0305	Open
P2630	J21_45	J22_45	135.00	600.0	0.0050	0.0420	Open
P2631	J21_46	J21_47	135.00	400.0	0.0050	0.0264	Open
P2632	J21_46	J22_46	135.00	450.0	0.0050	0.0370	Open
P2633	J21_47	J21_48	135.00	400.0	0.0050	0.0410	Open
P2634	J21_47	J22_47	135.00	500.0	0.0050	0.0153	Open
P2635	J21_48	J21_49	135.00	500.0	0.0050	0.0443	Open
P2636	J21_48	J22_48	135.00	450.0	0.0050	0.0359	Open
P2637	J21_49	J21_50	135.00	350.0	0.0050	0.0468	Open
P2638	J21_49	J22_49	135.00	300.0	0.0050	0.0111	Open
P2639	J21_50	J21_51	135.00	350.0	0.0050	0.0264	Open
P2640	J21_50	J22_50	135.00	300.0	0.0050	0.0268	Open
P2641	J21_51	J21_52	135.00	500.0	0.0050	0.0003	Open
P2642	J21_51	J22_51	135.00	450.0	0.0050	0.0204	Open
P2643	J21_52	J21_53	135.00	350.0	0.0050	0.0262	Open
P2644	J21_52	J22_52	135.00	400.0	0.0050	0.0369	Open
P2645	J21_53	J21_54	135.00	500.0	0.0050	0.0340	Open
P2646	J21_53	J22_53	135.00	450.0	0.0050	0.0394	Open
P2647	J21_54	J21_55	135.00	400.0	0.0050	0.0459	Open
P2648	J21_54	J22_54	135.00	400.0	0.0050	0.0060	Open
P2649	J21_55	J21_56	135.00	400.0	0.0050	0.0087	Open
P2650	J21_55	J22_55	135.00	300.0	0.0050	0.0335	Open
P2651	J21_56	J21_57	135.00	500.0	0.0050	0.0318	Open
P2652	J21_56	J22_56	135.00	450.0	0.0050	0.0322	Open
P2653	J21_57	J21_58	135.00	350.0	0.0050	0.0029	Open
P2654	J21_57	J22_57	135.00	300.0	0.0050	0.0116	Open
P2655	J21_58	J21_59	135.00	300.0	0.0050	0.0467	Open
P2656	J21_58	J22_58	135.00	300.0	0.0050	0.0496	Open
P2657	J21_59	J21_60	135.00	600.0	0.0050	0.0109	Open
P2658	J21_59	J22_59	135.00	400.0	0.0050	0.0411	Open
P2659	J21_60	J21_61	135.00	350.0	0.0050	0.0055	Open
P2660	J21_60	J22_60	135.00	350.0	0.0050	0.0052	Open
P2661	J21_61	J21_62	135.00	350.0	0.0050	0.0002	Open
P2662	J21_61	J22_61	135.00	600.0	0.0050	0.0353	Open
P2663	J21_62	J21_63	135.00	350.0	0.0050	0.0189	Open
P2664	J21_62	J22_62	135.00	300.0	0.0050	0.0036	Open
P2665	J21_63	J21_64	135.00	300.0	0.0050	0.0365	Open
P2666	J21_63	J22_63	135.00	300.0	0.0050	0.0080	Open
P2667	J21_64	J22_64	135.00	300.0	0.0050	0.0084	Open
P2668	J22_1	J22_2	135.00	500.0	0.0050	0.0372	Open
P2669	J22_1	J23_1	135.00	500.0	0.0050	0.0269	Open
P2670	J22_2	J22_3	135.00	300.0	0.0050	0.1292	Open
P2671	J22_2	J23_2	135.00	100.0	0.0050	0.1004	Open
P2672	J22_3	J22_4	135.00	300.0	0.0050	0.0848	Open
P2673	J22_3	J23_3	135.00	200.0	0.0050	0.1071	Open
P2674	J22_4	J22_5	135.00	250.0	0.0050	0.0384	Open
P2675	J22_4	J23_4	135.00	300.0	0.0050	0.1252	Open
P2676	J22_5	J22_6	135.00	150.0	0.0050	0.0291	Open
P2677	J22_5	J23_5	135.00	300.0	0.0050	0.1344	Open
P2678	J22_6	J22_7	135.00	100.0	0.0050	0.0852	Open
P2679	J22_6	J23_6	135.00	200.0	0.0050	0.1138	Open
P2680	J22_7	J22_8	135.00	100.0	0.0050	0.0910	Open
P2681	J22_7	J23_7	135.00	100.0	0.0050	0.0055	Open
P2682	J22_8	J22_9	135.00	200.0	0.0050	0.0853	Open
P2683	J22_8	J23_8	135.00	250.0	0.0050	0.1500	Open
P2684	J22_9	J22_10	135.00	150.0	0.0050	0.0638	Open
P2685	J22_9	J23_9	135.00	200.0	0.0050	0.1430	Open
P2686	J22_10	J22_11	135.00	300.0	0.0050	0.0263	Open
P2687	J22_10	J23_10	135.00	200.0	0.0050	0.0327	Open
P2688	J22_11	J22_12	135.00	450.0	0.0050	0.0109	Open
P2689	J22_11	J23_11	135.00	500.0	0.0050	0.0485	Open
P2690	J22_12	J22_13	135.00	150.0	0.0050	0.1025	Open
P2691	J22_12	J23_12	135.00	300.0	0.0050	0.0325	Open
P2692	J22_13	J22_14	135.00	300.0	0.0050	0.0392	Open
P2693	J22_13	J23_13	135.00	150.0	0.0050	0.0226	Open
P2694	J22_14	J22_15	135.00	300.0	0.0050	0.1058	Open
P2695	J22_14	J23_14	135.00	250.0	0.0050	0.0671	Open
P2696	J22_15	J22_16	135.00	300.0	0.0050	0.1166	Open
P2697	J22_15	J23_15	135.00	100.0	0.0050	0.0376	Open
P2698	J22_16	J22_17	135.00	100.0	0.0050	0.1481	Open
P2699	J22_16	J23_16	135.00	250.0	0.0050	0.1324	Open
P2700	J22_17	J22_18	135.00	100.0	0.0050	0.0358	Open
P2701	J22_17	J23_17	135.00	200.0	0.0050	0.0270	Open
P2702	J22_18	J22_19	135.00	150.0	0.0050	0.1083	Open
P2703	J22_18	J23_18	135.00	300.0	0.0050	0.0567	Open
P2704	J22_19	J22_20	135.00	300.0	0.0050	0.1456	Open
P2705	J22_19	J23_19	135.00	150.0	0.0050	0.1183	Open
P2706	J22_20	J22_21	135.00	150.0	0.0050	0.0963	Open
P2707	J22_20	J23_20	135.00	150.0	0.0050	0.0334	Open
P2708	J22_21	J22_22	135.00	500.0	0.0050	0.0184	Open
P2709	J22_21	J23_21	135.00	350.0	0.0050	0.0072	Open
P2710	J22_22	J22_23	135.00	150.0	0.0050	0.0130	Open
P2711	J22_22	J23_22	135.00	150.0	0.0050	0.0596	Open
P2712	J22_23	J22_24	135.00	200.0	0.0050	0.1240	Open
P2713	J22_23	J23_23	135.00	300.0	0.0050	0.0097	Open
P2714	J22_24	J22_25	135.00	150.0	0.0050	0.0751	Open
P2715	J22_24	J23_24	135.00	250.0	0.0050	0.0845	Open
P2716	J22_25	J22_26	135.00	250.0	0.0050	0.0189	Open
P2717	J22_25	J23_25	135.00	200.0	0.0050	0.0345	Open
P2718	J22_26	J22_27	135.00	100.0	0.0050	0.0413	Open
P2719	J22_26	J23_26	135.00	150.0	0.0050	0.0164	Open
P2720	J22_27	J22_28	135.00	150.0	0.0050	0.0990	Open
P2721	J22_27	J23_27	135.00	250.0	0.0050	0.0629	Open
P2722	J22_28	J22_29	135.00	200.0	0.0050	0.0324	Open
P2723	J22_28	J23_28	135.00	250.0	0.0050	0.1064	Open
P2724	J22_29	J22_30	135.00	200.0	0.0050	0.0277	Open
P2725	J22_29	J23_29	135.00	200.0	0.0050	0.0840	Open
P2726	J22_30	J22_31	135.00	100.0	0.0050	0.1424	Open
P2727	J22_30	J23_30	135.00	200.0	0.0050	0.1183	Open
P2728	J22_31	J22_32	135.00	600.0	0.0050	0.0422	Open
P2729	J22_31	J23_31	135.00	500.0	0.0050	0.0336	Open
P2730	J22_32	J22_33	135.00	150.0	0.0050	0.0015	Open
P2731	J22_32	J23_32	135.00	150.0	0.0050	0.0212	Open
P2732	J22_33	J22_34	135.00	150.0	0.0050	0.0721	Open
P2733	J22_33	J23_33	135.00	250.0	0.0050	0.1483	Open
P2734	J22_34	J22_35	135.00	250.0	0.0050	0.0512	Open
P2735	J22_34	J23_34	135.00	200.0	0.0050	0.0408	Open
P2736	J22_35	J22_36	135.00	150.0	0.0050	0.0399	Open
P2737	J22_35	J23_35	135.00	250.0	0.0050	0.0452	Open
P2738	J22_36	J22_37	135.00	100.0	0.0050	0.0478	Open
P2739	J22_36	J23_36	135.00	150.0	0.0050	0.0263	Open
P2740	J22_37	J22_38	135.00	300.0	0.0050	0.1130	Open
P2741	J22_37	J23_37	135.00	200.0	0.0050	0.1295	Open
P2742	J22_38	J22_39	135.00	150.0	0.0050	0.1272	Open
P2743	J22_38	J23_38	135.00	250.0	0.0050	0.1007	Open
P2744	J22_39	J22_40	135.00	150.0	0.0050	0.0901	Open
P2745	J22_39	J23_39	135.00	200.0	0.0050	0.1112	Open
P2746	J22_40	J22_41	135.00	200.0	0.0050	0.1159	Open
P2747	J22_40	J23_40	135.00	200.0	0.0050	0.0746	Open
P2748	J22_41	J22_42	135.00	600.0	0.0050	0.0402	Open
P2749	J22_41	J23_41	135.00	450.0	0.0050	0.0267	Open
P2750	J22_42	J22_43	135.00	100.0	0.0050	0.0697	Open
P2751	J22_42	J23_42	135.00	250.0	0.0050	0.0064	Open
P2752	J22_43	J22_44	135.00	200.0	0.0050	0.0355	Open
P2753	J22_43	J23_43	135.00	300.0	0.0050	0.1422	Open
P2754	J22_44	J22_45	135.00	100.0	0.0050	0.0878	Open
P2755	J22_44	J23_44	135.00	300.0	0.0050	0.0346	Open
P2756	J22_45	J22_46	135.00	100.0	0.0050	0.0493	Open
P2757	J22_45	J23_45	135.00	300.0	0.0050	0.0123	Open
P2758	J22_46	J22_47	135.00	150.0	0.0050	0.0267	Open
P2759	J22_46	J23_46	135.00	100.0	0.0050	0.1000	Open
P2760	J22_47	J22_48	135.00	100.0	0.0050	0.0180	Open
P2761	J22_47	J23_47	135.00	150.0	0.0050	0.0756	Open
P2762	J22_48	J22_49	135.00	300.0	0.0050	0.1198	Open
P2763	J22_48	J23_48	135.00	200.0	0.0050	0.0501	Open
P2764	J22_49	J22_50	135.00	300.0	0.0050	0.1300	Open
P2765	J22_49	J23_49	135.00	100.0	0.0050	0.0891	Open
P2766	J22_50	J22_51	135.00	250.0	0.0050	0.0595	Open
P2767	J22_50	J23_50	135.00	200.0	0.0050	0.0196	Open
P2768	J22_51	J22_52	135.00	600.0	0.0050	0.0470	Open
P2769	J22_51	J23_51	135.00	400.0	0.0050	0.0165	Open
P2770	J22_52	J22_53	135.00	150.0	0.0050	0.0825	Open
P2771	J22_52	J23_52	135.00	100.0	0.0050	0.0326	Open
P2772	J22_53	J22_54	135.00	200.0	0.0050	0.0127	Open
P2773	J22_53	J23_53	135.00	300.0	0.0050	0.1011	Open
P2774	J22_54	J22_55	135.00	250.0	0.0050	0.0313	Open
P2775	J22_54	J23_54	135.00	150.0	0.0050	0.1190	Open
P2776	J22_55	J22_56	135.00	300.0	0.0050	0.0649	Open
P2777	J22_55	J23_55	135.00	250.0	0.0050	0.0699	Open
P2778	J22_56	J22_57	135.00	150.0	0.0050	0.0644	Open
P2779	J22_56	J23_56	135.00	200.0	0.0050	0.0751	Open
P2780	J22_57	J22_58	135.00	300.0	0.0050	0.1101	Open
P2781	J22_57	J23_57	135.00	100.0	0.0050	0.1051	Open
P2782	J22_58	J22_59	135.00	300.0	0.0050	0.1195	Open
P2783	J22_58	J23_58	135.00	100.0	0.0050	0.0526	Open
P2784	J22_59	J22_60	135.00	150.0	0.0050	0.1085	Open
P2785	J22_59	J23_59	135.00	200.0	0.0050	0.0313	Open
P2786	J22_60	J22_61	135.00	250.0	0.0050	0.1461	Open
P2787	J22_60	J23_60	135.00	150.0	0.0050	0.0580	Open
P2788	J22_61	J22_62	135.00	400.0	0.0050	0.0158	Open
P2789	J22_61	J23_61	135.00	600.0	0.0050	0.0034	Open
P2790	J22_62	J22_63	135.00	250.0	0.0050	0.1049	Open
P2791	J22_62	J23_62	135.00	200.0	0.0050	0.0955	Open
P2792	J22_63	J22_64	135.00	300.0	0.0050	0.1059	Open
P2793	J22_63	J23_63	135.00	150.0	0.0050	0.1270	Open
P2794	J22_64	J23_64	135.00	300.0	0.0050	0.0847	Open
P2795	J23_1	J23_2	135.00	500.0	0.0050	0.0473	Open
P2796	J23_1	J24_1	135.00	600.0	0.0050	0.0026	Open
P2797	J23_2	J23_3	135.00	300.0	0.0050	0.0106	Open
P2798	J23_2	J24_2	135.00	100.0	0.0050	0.1106	Open
P2799	J23_3	J23_4	135.00	300.0	0.0050	0.0829	Open
P2800	J23_3	J24_3	135.00	100.0	0.0050	0.0520	Open
P2801	J23_4	J23_5	135.00	300.0	0.0050	0.0649	Open
P2802	J23_4	J24_4	135.00	150.0	0.0050	0.0411	Open
P2803	J23_5	J23_6	135.00	100.0	0.0050	0.0076	Open
P2804	J23_5	J24_5	135.00	100.0	0.0050	0.0607	Open
P2805	J23_6	J23_7	135.00	300.0	0.0050	0.0966	Open
P2806	J23_6	J24_6	135.00	300.0	0.0050	0.0338	Open
P2807	J23_7	J23_8	135.00	200.0	0.0050	0.0373	Open
P2808	J23_7	J24_7	135.00	150.0	0.0050	0.1434	Open
P2809	J23_8	J23_9	135.00	100.0	0.0050	0.1466	Open
P2810	J23_8	J24_8	135.00	250.0	0.0050	0.0118	Open
P2811	J23_9	J23_10	135.00	100.0	0.0050	0.0715	Open
P2812	J23_9	J24_9	135.00	300.0	0.0050	0.1413	Open
P2813	J23_10	J23_11	135.00	250.0	0.0050	0.0710	Open
P2814	J23_10	J24_10	135.00	100.0	0.0050	0.0467	Open
P2815	J23_11	J23_12	135.00	600.0	0.0050	0.0238	Open
P2816	J23_11	J24_11	135.00	300.0	0.0050	0.0289	Open
P2817	J23_12	J23_13	135.00	250.0	0.0050	0.0241	Open
P2818	J23_12	J24_12	135.00	100.0	0.0050	0.1393	Open
P2819	J23_13	J23_14	135.00	250.0	0.0050	0.0792	Open
P2820	J23_13	J24_13	135.00	250.0	0.0050	0.0895	Open
P2821	J23_14	J23_15	135.00	150.0	0.0050	0.0722	Open
P2822	J23_14	J24_14	135.00	100.0	0.0050	0.0937	Open
P2823	J23_15	J23_16	135.00	150.0	0.0050	0.1356	Open
P2824	J23_15	J24_15	135.00	200.0	0.0050	0.1391	Open
P2825	J23_16	J23_17	135.00	100.0	0.0050	0.0807	Open
P2826	J23_16	J24_16	135.00	100.0	0.0050	0.0463	Open
P2827	J23_17	J23_18	135.00	300.0	0.0050	0.1290	Open
P2828	J23_17	J24_17	135.00	100.0	0.0050	0.1234	Open
P2829	J23_18	J23_19	135.00	150.0	0.0050	0.1209	Open
P2830	J23_18	J24_18	135.00	100.0	0.0050	0.1493	Open
P2831	J23_19	J23_20	135.00	100.0	0.0050	0.1205	Open
P2832	J23_19	J24_19	135.00	250.0	0.0050	0.0435	Open
P2833	J23_20	J23_21	135.00	300.0	0.0050	0.1313	Open
P2834	J23_20	J24_20	135.00	100.0	0.0050	0.1011	Open
P2835	J23_21	J23_22	135.00	400.0	0.0050	0.0303	Open
P2836	J23_21	J24_21	135.00	300.0	0.0050	0.0130	Open
P2837	J23_22	J23_23	135.00	250.0	0.0050	0.1257	Open
P2838	J23_22	J24_22	135.00	100.0	0.0050	0.1224	Open
P2839	J23_23	J23_24	135.00	250.0	0.0050	0.0949	Open
P2840	J23_23	J24_23	135.00	150.0	0.0050	0.0254	Open
P2841	J23_24	J23_25	135.00	100.0	0.0050	0.1320	Open
P2842	J23_24	J24_24	135.00	300.0	0.0050	0.1239	Open
P2843	J23_25	J23_26	135.00	150.0	0.0050	0.0032	Open
P2844	J23_25	J24_25	135.00	200.0	0.0050	0.1276	Open
P2845	J23_26	J23_27	135.00	100.0	0.0050	0.0456	Open
P2846	J23_26	J24_26	135.00	300.0	0.0050	0.1360	Open
P2847	J23_27	J23_28	135.00	150.0	0.0050	0.0038	Open
P2848	J23_27	J24_27	135.00	150.0	0.0050	0.0792	Open
P2849	J23_28	J23_29	135.00	250.0	0.0050	0.1357	Open
P2850	J23_28	J24_28	135.00	100.0	0.0050	0.0612	Open
P2851	J23_29	J23_30	135.00	200.0	0.0050	0.0580	Open
P2852	J23_29	J24_29	135.00	200.0	0.0050	0.0690	Open
P2853	J23_30	J23_31	135.00	300.0	0.0050	0.0238	Open
P2854	J23_30	J24_30	135.00	100.0	0.0050	0.1194	Open
P2855	J23_31	J23_32	135.00	400.0	0.0050	0.0485	Open
P2856	J23_31	J24_31	135.00	450.0	0.0050	0.0104	Open
P2857	J23_32	J23_33	135.00	100.0	0.0050	0.0522	Open
P2858	J23_32	J24_32	135.00	100.0	0.0050	0.0876	Open
P2859	J23_33	J23_34	135.00	100.0	0.0050	0.0714	Open
P2860	J23_33	J24_33	135.00	250.0	0.0050	0.0561	Open
P2861	J23_34	J23_35	135.00	200.0	0.0050	0.0965	Open
P2862	J23_34	J24_34	135.00	150.0	0.0050	0.0396	Open
P2863	J23_35	J23_36	135.00	150.0	0.0050	0.1246	Open
P2864	J23_35	J24_35	135.00	250.0	0.0050	0.1090	Open
P2865	J23_36	J23_37	135.00	150.0	0.0050	0.1368	Open
P2866	J23_36	J24_36	135.00	250.0	0.0050	0.0786	Open
P2867	J23_37	J23_38	135.00	100.0	0.0050	0.0508	Open
P2868	J23_37	J24_37	135.00	300.0	0.0050	0.0877	Open
P2869	J23_38	J23_39	135.00	150.0	0.0050	0.0679	Open
P2870	J23_38	J24_38	135.00	150.0	0.0050	0.0873	Open
P2871	J23_39	J23_40	135.00	200.0	0.0050	0.0238	Open
P2872	J23_39	J24_39	135.00	300.0	0.0050	0.1330	Open
P2873	J23_40	J23_41	135.00	250.0	0.0050	0.1098	Open
P2874	J23_40	J24_40	135.00	300.0	0.0050	0.0519	Open
P2875	J23_41	J23_42	135.00	600.0	0.0050	0.0254	Open
P2876	J23_41	J24_41	135.00	300.0	0.0050	0.0332	Open
P2877	J23_42	J23_43	135.00	300.0	0.0050	0.1329	Open
P2878	J23_42	J24_42	135.00	300.0	0.0050	0.0384	Open
P2879	J23_43	J23_44	135.00	200.0	0.0050	0.0900	Open
P2880	J23_43	J24_43	135.00	300.0	0.0050	0.0507	Open
P2881	J23_44	J23_45	135.00	200.0	0.0050	0.0991	Open
P2882	J23_44	J24_44	135.00	100.0	0.0050	0.1418	Open
P2883	J23_45	J23_46	135.00	300.0	0.0050	0.0812	Open
P2884	J23_45	J24_45	135.00	150.0	0.0050	0.1232	Open
P2885	J23_46	J23_47	135.00	300.0	0.0050	0.0774	Open
P2886	J23_46	J24_46	135.00	100.0	0.0050	0.0311	Open
P2887	J23_47	J23_48	135.00	300.0	0.0050	0.0172	Open
P2888	J23_47	J24_47	135.00	300.0	0.0050	0.1241	Open
P2889	J23_48	J23_49	135.00	300.0	0.0050	0.0586	Open
P2890	J23_48	J24_48	135.00	200.0	0.0050	0.1208	Open
P2891	J23_49	J23_50	135.00	200.0	0.0050	0.0617	Open
P2892	J23_49	J24_49	135.00	200.0	0.0050	0.0441	Open
P2893	J23_50	J23_51	135.00	250.0	0.0050	0.1249	Open
P2894	J23_50	J24_50	135.00	250.0	0.0050	0.1081	Open
P2895	J23_51	J23_52	135.00	500.0	0.0050	0.0440	Open
P2896	J23_51	J24_51	135.00	400.0	0.0050	0.0255	Open
P2897	J23_52	J23_53	135.00	200.0	0.0050	0.1430	Open
P2898	J23_52	J24_52	135.00	150.0	0.0050	0.1393	Open
P2899	J23_53	J23_54	135.00	100.0	0.0050	0.0034	Open
P2900	J23_53	J24_53	135.00	300.0	0.0050	0.1165	Open
P2901	J23_54	J23_55	135.00	200.0	0.0050	0.0256	Open
P2902	J23_54	J24_54	135.00	300.0	0.0050	0.0239	Open
P2903	J23_55	J23_56	135.00	200.0	0.0050	0.0091	Open
P2904	J23_55	J24_55	135.00	300.0	0.0050	0.1176	Open
P2905	J23_56	J23_57	135.00	150.0	0.0050	0.1072	Open
P2906	J23_56	J24_56	135.00	100.0	0.0050	0.0657	Open
P2907	J23_57	J23_58	135.00	200.0	0.0050	0.1179	Open
P2908	J23_57	J24_57	135.00	150.0	0.0050	0.0999	Open
P2909	J23_58	J23_59	135.00	150.0	0.0050	0.0623	Open
P2910	J23_58	J24_58	135.00	150.0	0.0050	0.0437	Open
P2911	J23_59	J23_60	135.00	150.0	0.0050	0.1267	Open
P2912	J23_59	J24_59	135.00	100.0	0.0050	0.0265	Open
P2913	J23_60	J23_61	135.00	300.0	0.0050	0.0695	Open
P2914	J23_60	J24_60	135.00	200.0	0.0050	0.1380	Open
P2915	J23_61	J23_62	135.00	450.0	0.0050	0.0142	Open
P2916	J23_61	J24_61	135.00	600.0	0.0050	0.0071	Open
P2917	J23_62	J23_63	135.00	150.0	0.0050	0.0140	Open
P2918	J23_62	J24_62	135.00	300.0	0.0050	0.1460	Open
P2919	J23_63	J23_64	135.00	250.0	0.0050	0.1057	Open
P2920	J23_63	J24_63	135.00	300.0	0.0050	0.0277	Open
P2921	J23_64	J24_64	135.00	300.0	0.0050	0.0699	Open
P2922	J24_1	J24_2	135.00	500.0	0.0050	0.0028	Open
P2923	J24_1	J25_1	135.00	500.0	0.0050	0.0390	Open
P2924	J24_2	J24_3	135.00	300.0	0.0050	0.1434	Open
P2925	J24_2	J25_2	135.00	150.0	0.0050	0.0180	Open
P2926	J24_3	J24_4	135.00	100.0	0.0050	0.0972	Open
P2927	J24_3	J25_3	135.00	200.0	0.0050	0.0411	Open
P2928	J24_4	J24_5	135.00	300.0	0.0050	0.1432	Open
P2929	J24_4	J25_4	135.00	100.0	0.0050	0.1420	Open
P2930	J24_5	J24_6	135.00	300.0	0.0050	0.1461	Open
P2931	J24_5	J25_5	135.00	300.0	0.0050	0.1111	Open
P2932	J24_6	J24_7	135.00	150.0	0.0050	0.0414	Open
P2933	J24_6	J25_6	135.00	200.0	0.0050	0.1127	Open
P2934	J24_7	J24_8	135.00	200.0	0.0050	0.0881	Open
P2935	J24_7	J25_7	135.00	200.0	0.0050	0.0328	Open
P2936	J24_8	J24_9	135.00	200.0	0.0050	0.1095	Open
P2937	J24_8	J25_8	135.00	300.0	0.0050	0.1421	Open
P2938	J24_9	J24_10	135.00	150.0	0.0050	0.0941	Open
P2939	J24_9	J25_9	135.00	150.0	0.0050	0.0213	Open
P2940	J24_10	J24_11	135.00	200.0	0.0050	0.0903	Open
P2941	J24_10	J25_10	135.00	300.0	0.0050	0.0660	Open
P2942	J24_11	J24_12	135.00	300.0	0.0050	0.0055	Open
P2943	J24_11	J25_11	135.00	400.0	0.0050	0.0153	Open
P2944	J24_12	J24_13	135.00	250.0	0.0050	0.0297	Open
P2945	J24_12	J25_12	135.00	150.0	0.0050	0.0707	Open
P2946	J24_13	J24_14	135.00	100.0	0.0050	0.1336	Open
P2947	J24_13	J25_13	135.00	150.0	0.0050	0.1040	Open
P2948	J24_14	J24_15	135.00	200.0	0.0050	0.0534	Open
P2949	J24_14	J25_14	135.00	150.0	0.0050	0.0636	Open
P2950	J24_15	J24_16	135.00	300.0	0.0050	0.0884	Open
P2951	J24_15	J25_15	135.00	100.0	0.0050	0.0493	Open
P2952	J24_16	J24_17	135.00	100.0	0.0050	0.0238	Open
P2953	J24_16	J25_16	135.00	100.0	0.0050	0.1118	Open
P2954	J24_17	J24_18	135.00	250.0	0.0050	0.0740	Open
P2955	J24_17	J25_17	135.00	250.0	0.0050	0.0765	Open
P2956	J24_18	J24_19	135.00	200.0	0.0050	0.0538	Open
P2957	J24_18	J25_18	135.00	300.0	0.0050	0.1242	Open
P2958	J24_19	J24_20	135.00	300.0	0.0050	0.1190	Open
P2959	J24_19	J25_19	135.00	150.0	0.0050	0.0165	Open
P2960	J24_20	J24_21	135.00	300.0	0.0050	0.0203	Open
P2961	J24_20	J25_20	135.00	250.0	0.0050	0.0578	Open
P2962	J24_21	J24_22	135.00	450.0	0.0050	0.0237	Open
P2963	J24_21	J25_21	135.00	500.0	0.0050	0.0031	Open
P2964	J24_22	J24_23	135.00	300.0	0.0050	0.0824	Open
P2965	J24_22	J25_22	135.00	250.0	0.0050	0.1456	Open
P2966	J24_23	J24_24	135.00	200.0	0.0050	0.0364	Open
P2967	J24_23	J25_23	135.00	100.0	0.0050	0.1474	Open
P2968	J24_24	J24_25	135.00	250.0	0.0050	0.0865	Open
P2969	J24_24	J25_24	135.00	300.0	0.0050	0.0685	Open
P2970	J24_25	J24_26	135.00	100.0	0.0050	0.0136	Open
P2971	J24_25	J25_25	135.00	150.0	0.0050	0.0237	Open
P2972	J24_26	J24_27	135.00	100.0	0.0050	0.1062	Open
P2973	J24_26	J25_26	135.00	300.0	0.0050	0.1336	Open
P2974	J24_27	J24_28	135.00	150.0	0.0050	0.1382	Open
P2975	J24_27	J25_27	135.00	150.0	0.0050	0.1478	Open
P2976	J24_28	J24_29	135.00	150.0	0.0050	0.0914	Open
P2977	J24_28	J25_28	135.00	200.0	0.0050	0.0963	Open
P2978	J24_29	J24_30	135.00	200.0	0.0050	0.0333	Open
P2979	J24_29	J25_29	135.00	200.0	0.0050	0.0013	Open
P2980	J24_30	J24_31	135.00	200.0	0.0050	0.0985	Open
P2981	J24_30	J25_30	135.00	100.0	0.0050	0.0044	Open
P2982	J24_31	J24_32	135.00	300.0	0.0050	0.0331	Open
P2983	J24_31	J25_31	135.00	400.0	0.0050	0.0372	Open
P2984	J24_32	J24_33	135.00	150.0	0.0050	0.1084	Open
P2985	J24_32	J25_32	135.00	200.0	0.0050	0.1330	Open
P2986	J24_33	J24_34	135.00	200.0	0.0050	0.1310	Open
P2987	J24_33	J25_33	135.00	250.0	0.0050	0.0069	Open
P2988	J24_34	J24_35	135.00	150.0	0.0050	0.0365	Open
P2989	J24_34	J25_34	135.00	250.0	0.0050	0.0209	Open
P2990	J24_35	J24_36	135.00	150.0	0.0050	0.0506	Open
P2991	J24_35	J25_35	135.00	100.0	0.0050	0.1169	Open
P2992	J24_36	J24_37	135.00	200.0	0.0050	0.0694	Open
P2993	J24_36	J25_36	135.00	100.0	0.0050	0.1372	Open
P2994	J24_37	J24_38	135.00	200.0	0.0050	0.1290	Open
P2995	J24_37	J25_37	135.00	100.0	0.0050	0.1314	Open
P2996	J24_38	J24_39	135.00	250.0	0.0050	0.0321	Open
P2997	J24_38	J25_38	135.00	100.0	0.0050	0.1312	Open
P2998	J24_39	J24_40	135.00	200.0	0.0050	0.1257	Open
P2999	J24_39	J25_39	135.00	200.0	0.0050	0.0352	Open
P3000	J24_40	J24_41	135.00	300.0	0.0050	0.1211	Open
P3001	J24_40	J25_40	135.00	200.0	0.0050	0.0994	Open
P3002	J24_41	J24_42	135.00	450.0	0.0050	0.0095	Open
P3003	J24_41	J25_41	135.00	350.0	0.0050	0.0301	Open
P3004	J24_42	J24_43	135.00	300.0	0.0050	0.0222	Open
P3005	J24_42	J25_42	135.00	250.0	0.0050	0.1115	Open
P3006	J24_43	J24_44	135.00	100.0	0.0050	0.1039	Open
P3007	J24_43	J25_43	135.00	300.0	0.0050	0.0375	Open
P3008	J24_44	J24_45	135.00	200.0	0.0050	0.0777	Open
P3009	J24_44	J25_44	135.00	200.0	0.0050	0.0431	Open
P3010	J24_45	J24_46	135.00	300.0	0.0050	0.1193	Open
P3011	J24_45	J25_45	135.00	100.0	0.0050	0.1428	Open
P3012	J24_46	J24_47	135.00	150.0	0.0050	0.0207	Open
P3013	J24_46	J25_46	135.00	300.0	0.0050	0.1481	Open
P3014	J24_47	J24_48	135.00	100.0	0.0050	0.0304	Open
P3015	J24_47	J25_47	135.00	100.0	0.0050	0.0064	Open
P3016	J24_48	J24_49	135.00	100.0	0.0050	0.0916	Open
P3017	J24_48	J25_48	135.00	300.0	0.0050	0.0327	Open
P3018	J24_49	J24_50	135.00	100.0	0.0050	0.0321	Open
P3019	J24_49	J25_49	135.00	200.0	0.0050	0.1187	Open
P3020	J24_50	J24_51	135.00	250.0	0.0050	0.0770	Open
P3021	J24_50	J25_50	135.00	300.0	0.0050	0.0224	Open
P3022	J24_51	J24_52	135.00	400.0	0.0050	0.0257	Open
P3023	J24_51	J25_51	135.00	600.0	0.0050	0.0094	Open
P3024	J24_52	J24_53	135.00	200.0	0.0050	0.0354	Open
P3025	J24_52	J25_52	135.00	150.0	0.0050	0.0391	Open
P3026	J24_53	J24_54	135.00	100.0	0.0050	0.0418	Open
P3027	J24_53	J25_53	135.00	100.0	0.0050	0.1350	Open
P3028	J24_54	J24_55	135.00	250.0	0.0050	0.1075	Open
P3029	J24_54	J25_54	135.00	200.0	0.0050	0.1322	Open
P3030	J24_55	J24_56	135.00	250.0	0.0050	0.0762	Open
P3031	J24_55	J25_55	135.00	200.0	0.0050	0.0366	Open
P3032	J24_56	J24_57	135.00	200.0	0.0050	0.0680	Open
P3033	J24_56	J25_56	135.00	300.0	0.0050	0.0579	Open
P3034	J24_57	J24_58	135.00	300.0	0.0050	0.1040	Open
P3035	J24_57	J25_57	135.00	300.0	0.0050	0.0588	Open
P3036	J24_58	J24_59	135.00	250.0	0.0050	0.1029	Open
P3037	J24_58	J25_58	135.00	100.0	0.0050	0.0591	Open
P3038	J24_59	J24_60	135.00	300.0	0.0050	0.0101	Open
P3039	J24_59	J25_59	135.00	150.0	0.0050	0.0086	Open
P3040	J24_60	J24_61	135.00	250.0	0.0050	0.1197	Open
P3041	J24_60	J25_60	135.00	200.0	0.0050	0.0369	Open
P3042	J24_61	J24_62	135.00	350.0	0.0050	0.0121	Open
P3043	J24_61	J25_61	135.00	300.0	0.0050	0.0245	Open
P3044	J24_62	J24_63	135.00	300.0	0.0050	0.0047	Open
P3045	J24_62	J25_62	135.00	250.0	0.0050	0.1156	Open
P3046	J24_63	J24_64	135.00	300.0	0.0050	0.0721	Open
P3047	J24_63	J25_63	135.00	250.0	0.0050	0.0432	Open
P3048	J24_64	J25_64	135.00	250.0	0.0050	0.0178	Open
P3049	J25_1	J25_2	135.00	400.0	0.0050	0.0256	Open
P3050	J25_1	J26_1	135.00	600.0	0.0050	0.0108	Open
P3051	J25_2	J25_3	135.00	300.0	0.0050	0.1357	Open
P3052	J25_2	J26_2	135.00	200.0	0.0050	0.1066	Open
P3053	J25_3	J25_4	135.00	100.0	0.0050	0.1272	Open
P3054	J25_3	J26_3	135.00	200.0	0.0050	0.0254	Open
P3055	J25_4	J25_5	135.00	150.0	0.0050	0.0989	Open
P3056	J25_4	J26_4	135.00	300.0	0.0050	0.0172	Open
P3057	J25_5	J25_6	135.00	250.0	0.0050	0.0728	Open
P3058	J25_5	J26_5	135.00	150.0	0.0050	0.0516	Open
P3059	J25_6	J25_7	135.00	100.0	0.0050	0.1093	Open
P3060	J25_6	J26_6	135.00	200.0	0.0050	0.1193	Open
P3061	J25_7	J25_8	135.00	150.0	0.0050	0.0809	Open
P3062	J25_7	J26_7	135.00	200.0	0.0050	0.1137	Open
P3063	J25_8	J25_9	135.00	200.0	0.0050	0.0927	Open
P3064	J25_8	J26_8	135.00	250.0	0.0050	0.0725	Open
P3065	J25_9	J25_10	135.00	250.0	0.0050	0.1443	Open
P3066	J25_9	J26_9	135.00	100.0	0.0050	0.0132	Open
P3067	J25_10	J25_11	135.00	300.0	0.0050	0.0655	Open
P3068	J25_10	J26_10	135.00	100.0	0.0050	0.1263	Open
P3069	J25_11	J25_12	135.00	350.0	0.0050	0.0047	Open
P3070	J25_11	J26_11	135.00	600.0	0.0050	0.0120	Open
P3071	J25_12	J25_13	135.00	200.0	0.0050	0.0893	Open
P3072	J25_12	J26_12	135.00	100.0	0.0050	0.1242	Open
P3073	J25_13	J25_14	135.00	200.0	0.0050	0.0002	Open
P3074	J25_13	J26_13	135.00	300.0	0.0050	0.1008	Open
P3075	J25_14	J25_15	135.00	100.0	0.0050	0.0374	Open
P3076	J25_14	J26_14	135.00	250.0	0.0050	0.1083	Open
P3077	J25_15	J25_16	135.00	200.0	0.0050	0.0017	Open
P3078	J25_15	J26_15	135.00	200.0	0.0050	0.0105	Open
P3079	J25_16	J25_17	135.00	300.0	0.0050	0.0414	Open
P3080	J25_16	J26_16	135.00	300.0	0.0050	0.1447	Open
P3081	J25_17	J25_18	135.00	100.0	0.0050	0.0830	Open
P3082	J25_17	J26_17	135.00	150.0	0.0050	0.1474	Open
P3083	J25_18	J25_19	135.00	100.0	0.0050	0.1082	Open
P3084	J25_18	J26_18	135.00	100.0	0.0050	0.1414	Open
P3085	J25_19	J25_20	135.00	150.0	0.0050	0.0018	Open
P3086	J25_19	J26_19	135.00	300.0	0.0050	0.1033	Open
P3087	J25_20	J25_21	135.00	250.0	0.0050	0.0903	Open
P3088	J25_20	J26_20	135.00	150.0	0.0050	0.0057	Open
P3089	J25_21	J25_22	135.00	450.0	0.0050	0.0194	Open
P3090	J25_21	J26_21	135.00	600.0	0.0050	0.0145	Open
P3091	J25_22	J25_23	135.00	250.0	0.0050	0.0664	Open
P3092	J25_22	J26_22	135.00	200.0	0.0050	0.1274	Open
P3093	J25_23	J25_24	135.00	200.0	0.0050	0.0819	Open
P3094	J25_23	J26_23	135.00	100.0	0.0050	0.1222	Open
P3095	J25_24	J25_25	135.00	150.0	0.0050	0.0134	Open
P3096	J25_24	J26_24	135.00	250.0	0.0050	0.1219	Open
P3097	J25_25	J25_26	135.00	200.0	0.0050	0.0294	Open
P3098	J25_25	J26_25	135.00	250.0	0.0050	0.0523	Open
P3099	J25_26	J25_27	135.00	200.0	0.0050	0.1385	Open
P3100	J25_26	J26_26	135.00	300.0	0.0050	0.0451	Open
P3101	J25_27	J25_28	135.00	150.0	0.0050	0.1153	Open
P3102	J25_27	J26_27	135.00	200.0	0.0050	0.0305	Open
P3103	J25_28	J25_29	135.00	200.0	0.0050	0.0879	Open
P3104	J25_28	J26_28	135.00	150.0	0.0050	0.0465	Open
P3105	J25_29	J25_30	135.00	250.0	0.0050	0.1372	Open
P3106	J25_29	J26_29	135.00	250.0	0.0050	0.1230	Open
P3107	J25_30	J25_31	135.00	250.0	0.0050	0.0079	Open
P3108	J25_30	J26_30	135.00	250.0	0.0050	0.0974	Open
P3109	J25_31	J25_32	135.00	300.0	0.0050	0.0249	Open
P3110	J25_31	J26_31	135.00	600.0	0.0050	0.0107	Open
P3111	J25_32	J25_33	135.00	250.0	0.0050	0.0431	Open
P3112	J25_32	J26_32	135.00	100.0	0.0050	0.0193	Open
P3113	J25_33	J25_34	135.00	300.0	0.0050	0.0009	Open
P3114	J25_33	J26_33	135.00	150.0	0.0050	0.1048	Open
P3115	J25_34	J25_35	135.00	300.0	0.0050	0.1433	Open
P3116	J25_34	J26_34	135.00	250.0	0.0050	0.0153	Open
P3117	J25_35	J25_36	135.00	150.0	0.0050	0.1423	Open
P3118	J25_35	J26_35	135.00	100.0	0.0050	0.0129	Open
P3119	J25_36	J25_37	135.00	150.0	0.0050	0.0913	Open
P3120	J25_36	J26_36	135.00	150.0	0.0050	0.0141	Open
P3121	J25_37	J25_38	135.00	100.0	0.0050	0.0840	Open
P3122	J25_37	J26_37	135.00	150.0	0.0050	0.1101	Open
P3123	J25_38	J25_39	135.00	250.0	0.0050	0.1174	Open
P3124	J25_38	J26_38	135.00	150.0	0.0050	0.0988	Open
P3125	J25_39	J25_40	135.00	100.0	0.0050	0.0193	Open
P3126	J25_39	J26_39	135.00	150.0	0.0050	0.0648	Open
P3127	J25_40	J25_41	135.00	250.0	0.0050	0.0236	Open
P3128	J25_40	J26_40	135.00	300.0	0.0050	0.1156	Open
P3129	J25_41	J25_42	135.00	600.0	0.0050	0.0148	Open
P3130	J25_41	J26_41	135.00	300.0	0.0050	0.0052	Open
P3131	J25_42	J25_43	135.00	200.0	0.0050	0.0699	Open
P3132	J25_42	J26_42	135.00	300.0	0.0050	0.0437	Open
P3133	J25_43	J25_44	135.00	250.0	0.0050	0.0987	Open
P3134	J25_43	J26_43	135.00	150.0	0.0050	0.0420	Open
P3135	J25_44	J25_45	135.00	100.0	0.0050	0.1072	Open
P3136	J25_44	J26_44	135.00	250.0	0.0050	0.0506	Open
P3137	J25_45	J25_46	135.00	150.0	0.0050	0.0329	Open
P3138	J25_45	J26_45	135.00	300.0	0.0050	0.1060	Open
P3139	J25_46	J25_47	135.00	300.0	0.0050	0.0151	Open
P3140	J25_46	J26_46	135.00	300.0	0.0050	0.0112	Open
P3141	J25_47	J25_48	135.00	250.0	0.0050	0.1286	Open
P3142	J25_47	J26_47	135.00	200.0	0.0050	0.1067	Open
P3143	J25_48	J25_49	135.00	200.0	0.0050	0.0010	Open
P3144	J25_48	J26_48	135.00	200.0	0.0050	0.0162	Open
P3145	J25_49	J25_50	135.00	250.0	0.0050	0.1159	Open
P3146	J25_49	J26_49	135.00	250.0	0.0050	0.0217	Open
P3147	J25_50	J25_51	135.00	100.0	0.0050	0.0425	Open
P3148	J25_50	J26_50	135.00	150.0	0.0050	0.0319	Open
P3149	J25_51	J25_52	135.00	300.0	0.0050	0.0139	Open
P3150	J25_51	J26_51	135.00	500.0	0.0050	0.0291	Open
P3151	J25_52	J25_53	135.00	250.0	0.0050	0.0158	Open
P3152	J25_52	J26_52	135.00	300.0	0.0050	0.0070	Open
P3153	J25_53	J25_54	135.00	300.0	0.0050	0.0346	Open
P3154	J25_53	J26_53	135.00	150.0	0.0050	0.0271	Open
P3155	J25_54	J25_55	135.00	150.0	0.0050	0.1427	Open
P3156	J25_54	J26_54	135.00	150.0	0.0050	0.0547	Open
P3157	J25_55	J25_56	135.00	300.0	0.0050	0.1385	Open
P3158	J25_55	J26_55	135.00	100.0	0.0050	0.0475	Open
P3159	J25_56	J25_57	135.00	300.0	0.0050	0.1461	Open
P3160	J25_56	J26_56	135.00	200.0	0.0050	0.0335	Open
P3161	J25_57	J25_58	135.00	200.0	0.0050	0.0400	Open
P3162	J25_57	J26_57	135.00	300.0	0.0050	0.1015	Open
P3163	J25_58	J25_59	135.00	150.0	0.0050	0.1367	Open
P3164	J25_58	J26_58	135.00	150.0	0.0050	0.0643	Open
P3165	J25_59	J25_60	135.00	300.0	0.0050	0.0404	Open
P3166	J25_59	J26_59	135.00	250.0	0.0050	0.0271	Open
P3167	J25_60	J25_61	135.00	150.0	0.0050	0.1046	Open
P3168	J25_60	J26_60	135.00	100.0	0.0050	0.1042	Open
P3169	J25_61	J25_62	135.00	300.0	0.0050	0.0055	Open
P3170	J25_61	J26_61	135.00	350.0	0.0050	0.0351	Open
P3171	J25_62	J25_63	135.00	100.0	0.0050	0.0478	Open
P3172	J25_62	J26_62	135.00	100.0	0.0050	0.0420	Open
P3173	J25_63	J25_64	135.00	300.0	0.0050	0.0571	Open
P3174	J25_63	J26_63	135.00	200.0	0.0050	0.0389	Open
P3175	J25_64	J26_64	135.00	150.0	0.0050	0.0363	Open
P3176	J26_1	J26_2	135.00	450.0	0.0050	0.0133	Open
P3177	J26_1	J27_1	135.00	500.0	0.0050	0.0396	Open
P3178	J26_2	J26_3	135.00	250.0	0.0050	0.0269	Open
P3179	J26_2	J27_2	135.00	200.0	0.0050	0.1242	Open
P3180	J26_3	J26_4	135.00	300.0	0.0050	0.0688	Open
P3181	J26_3	J27_3	135.00	300.0	0.0050	0.1441	Open
P3182	J26_4	J26_5	135.00	250.0	0.0050	0.1410	Open
P3183	J26_4	J27_4	135.00	100.0	0.0050	0.0130	Open
P3184	J26_5	J26_6	135.00	250.0	0.0050	0.1034	Open
P3185	J26_5	J27_5	135.00	200.0	0.0050	0.1385	Open
P3186	J26_6	J26_7	135.00	300.0	0.0050	0.0945	Open
P3187	J26_6	J27_6	135.00	150.0	0.0050	0.0441	Open
P3188	J26_7	J26_8	135.00	150.0	0.0050	0.1360	Open
P3189	J26_7	J27_7	135.00	150.0	0.0050	0.1018	Open
P3190	J26_8	J26_9	135.00	300.0	0.0050	0.1466	Open
P3191	J26_8	J27_8	135.00	300.0	0.0050	0.0790	Open
P3192	J26_9	J26_10	135.00	100.0	0.0050	0.0287	Open
P3193	J26_9	J27_9	135.00	200.0	0.0050	0.0534	Open
P3194	J26_10	J26_11	135.00	200.0	0.0050	0.0810	Open
P3195	J26_10	J27_10	135.00	300.0	0.0050	0.0897	Open
P3196	J26_11	J26_12	135.00	350.0	0.0050	0.0155	Open
P3197	J26_11	J27_11	135.00	300.0	0.0050	0.0060	Open
P3198	J26_12	J26_13	135.00	100.0	0.0050	0.0215	Open
P3199	J26_12	J27_12	135.00	150.0	0.0050	0.1077	Open
P3200	J26_13	J26_14	135.00	250.0	0.0050	0.0929	Open
P3201	J26_13	J27_13	135.00	100.0	0.0050	0.1207	Open
P3202	J26_14	J26_15	135.00	250.0	0.0050	0.0993	Open
P3203	J26_14	J27_14	135.00	150.0	0.0050	0.0599	Open
P3204	J26_15	J26_16	135.00	250.0	0.0050	0.0859	Open
P3205	J26_15	J27_15	135.00	300.0	0.0050	0.0189	Open
P3206	J26_16	J26_17	135.00	200.0	0.0050	0.1002	Open
P3207	J26_16	J27_16	135.00	250.0	0.0050	0.1240	Open
P3208	J26_17	J26_18	135.00	100.0	0.0050	0.1062	Open
P3209	J26_17	J27_17	135.00	150.0	0.0050	0.0543	Open
P3210	J26_18	J26_19	135.00	150.0	0.0050	0.0311	Open
P3211	J26_18	J27_18	135.00	100.0	0.0050	0.1296	Open
P3212	J26_19	J26_20	135.00	200.0	0.0050	0.0613	Open
P3213	J26_19	J27_19	135.00	100.0	0.0050	0.0489	Open
P3214	J26_20	J26_21	135.00	100.0	0.0050	0.0387	Open
P3215	J26_20	J27_20	135.00	250.0	0.0050	0.1308	Open
P3216	J26_21	J26_22	135.00	350.0	0.0050	0.0149	Open
P3217	J26_21	J27_21	135.00	500.0	0.0050	0.0320	Open
P3218	J26_22	J26_23	135.00	250.0	0.0050	0.0560	Open
P3219	J26_22	J27_22	135.00	250.0	0.0050	0.1332	Open
P3220	J26_23	J26_24	135.00	250.0	0.0050	0.0129	Open
P3221	J26_23	J27_23	135.00	300.0	0.0050	0.0916	Open
P3222	J26_24	J26_25	135.00	250.0	0.0050	0.1436	Open
P3223	J26_24	J27_24	135.00	100.0	0.0050	0.0161	Open
P3224	J26_25	J26_26	135.00	100.0	0.0050	0.1030	Open
P3225	J26_25	J27_25	135.00	300.0	0.0050	0.0566	Open
P3226	J26_26	J26_27	135.00	250.0	0.0050	0.0916	Open
P3227	J26_26	J27_26	135.00	250.0	0.0050	0.0065	Open
P3228	J26_27	J26_28	135.00	100.0	0.0050	0.0925	Open
P3229	J26_27	J27_27	135.00	150.0	0.0050	0.1448	Open
P3230	J26_28	J26_29	135.00	150.0	0.0050	0.1152	Open
P3231	J26_28	J27_28	135.00	100.0	0.0050	0.1260	Open
P3232	J26_29	J26_30	135.00	150.0	0.0050	0.1450	Open
P3233	J26_29	J27_29	135.00	300.0	0.0050	0.0597	Open
P3234	J26_30	J26_31	135.00	250.0	0.0050	0.0222	Open
P3235	J26_30	J27_30	135.00	100.0	0.0050	0.0418	Open
P3236	J26_31	J26_32	135.00	450.0	0.0050	0.0396	Open
P3237	J26_31	J27_31	135.00	500.0	0.0050	0.0062	Open
P3238	J26_32	J26_33	135.00	150.0	0.0050	0.0068	Open
P3239	J26_32	J27_32	135.00	150.0	0.0050	0.0695	Open
P3240	J26_33	J26_34	135.00	100.0	0.0050	0.1387	Open
P3241	J26_33	J27_33	135.00	100.0	0.0050	0.0968	Open
P3242	J26_34	J26_35	135.00	300.0	0.0050	0.0522	Open
P3243	J26_34	J27_34	135.00	150.0	0.0050	0.0212	Open
P3244	J26_35	J26_36	135.00	250.0	0.0050	0.0367	Open
P3245	J26_35	J27_35	135.00	250.0	0.0050	0.0123	Open
P3246	J26_36	J26_37	135.00	250.0	0.0050	0.0219	Open
P3247	J26_36	J27_36	135.00	300.0	0.0050	0.1108	Open
P3248	J26_37	J26_38	135.00	300.0	0.0050	0.0098	Open
P3249	J26_37	J27_37	135.00	150.0	0.0050	0.0369	Open
P3250	J26_38	J26_39	135.00	100.0	0.0050	0.1160	Open
P3251	J26_38	J27_38	135.00	200.0	0.0050	0.0849	Open
P3252	J26_39	J26_40	135.00	250.0	0.0050	0.0794	Open
P3253	J26_39	J27_39	135.00	150.0	0.0050	0.0021	Open
P3254	J26_40	J26_41	135.00	150.0	0.0050	0.1231	Open
P3255	J26_40	J27_40	135.00	250.0	0.0050	0.0772	Open
P3256	J26_41	J26_42	135.00	500.0	0.0050	0.0128	Open
P3257	J26_41	J27_41	135.00	600.0	0.0050	0.0075	Open
P3258	J26_42	J26_43	135.00	150.0	0.0050	0.0104	Open
P3259	J26_42	J27_42	135.00	250.0	0.0050	0.0278	Open
P3260	J26_43	J26_44	135.00	150.0	0.0050	0.0583	Open
P3261	J26_43	J27_43	135.00	250.0	0.0050	0.1093	Open
P3262	J26_44	J26_45	135.00	150.0	0.0050	0.1248	Open
P3263	J26_44	J27_44	135.00	150.0	0.0050	0.0502	Open
P3264	J26_45	J26_46	135.00	200.0	0.0050	0.1274	Open
P3265	J26_45	J27_45	135.00	300.0	0.0050	0.0218	Open
P3266	J26_46	J26_47	135.00	100.0	0.0050	0.0201	Open
P3267	J26_46	J27_46	135.00	300.0	0.0050	0.1346	Open
P3268	J26_47	J26_48	135.00	250.0	0.0050	0.0792	Open
P3269	J26_47	J27_47	135.00	150.0	0.0050	0.0340	Open
P3270	J26_48	J26_49	135.00	150.0	0.0050	0.0814	Open
P3271	J26_48	J27_48	135.00	300.0	0.0050	0.1137	Open
P3272	J26_49	J26_50	135.00	300.0	0.0050	0.1290	Open
P3273	J26_49	J27_49	135.00	250.0	0.0050	0.0881	Open
P3274	J26_50	J26_51	135.00	250.0	0.0050	0.1156	Open
P3275	J26_50	J27_50	135.00	200.0	0.0050	0.0365	Open
P3276	J26_51	J26_52	135.00	600.0	0.0050	0.0138	Open
P3277	J26_51	J27_51	135.00	450.0	0.0050	0.0190	Open
P3278	J26_52	J26_53	135.00	300.0	0.0050	0.0610	Open
P3279	J26_52	J27_52	135.00	100.0	0.0050	0.1207	Open
P3280	J26_53	J26_54	135.00	200.0	0.0050	0.0389	Open
P3281	J26_53	J27_53	135.00	200.0	0.0050	0.1081	Open
P3282	J26_54	J26_55	135.00	100.0	0.0050	0.0627	Open
P3283	J26_54	J27_54	135.00	300.0	0.0050	0.0212	Open
P3284	J26_55	J26_56	135.00	100.0	0.0050	0.0558	Open
P3285	J26_55	J27_55	135.00	100.0	0.0050	0.0910	Open
P3286	J26_56	J26_57	135.00	150.0	0.0050	0.0330	Open
P3287	J26_56	J27_56	135.00	150.0	0.0050	0.0580	Open
P3288	J26_57	J26_58	135.00	200.0	0.0050	0.0634	Open
P3289	J26_57	J27_57	135.00	300.0	0.0050	0.1078	Open
P3290	J26_58	J26_59	135.00	200.0	0.0050	0.1441	Open
P3291	J26_58	J27_58	135.00	300.0	0.0050	0.0716	Open
P3292	J26_59	J26_60	135.00	250.0	0.0050	0.0878	Open
P3293	J26_59	J27_59	135.00	250.0	0.0050	0.1041	Open
P3294	J26_60	J26_61	135.00	250.0	0.0050	0.1494	Open
P3295	J26_60	J27_60	135.00	100.0	0.0050	0.1138	Open
P3296	J26_61	J26_62	135.00	300.0	0.0050	0.0269	Open
P3297	J26_61	J27_61	135.00	500.0	0.0050	0.0026	Open
P3298	J26_62	J26_63	135.00	300.0	0.0050	0.0285	Open
P3299	J26_62	J27_62	135.00	100.0	0.0050	0.0383	Open
P3300	J26_63	J26_64	135.00	250.0	0.0050	0.1362	Open
P3301	J26_63	J27_63	135.00	150.0	0.0050	0.0991	Open
P3302	J26_64	J27_64	135.00	250.0	0.0050	0.0051	Open
P3303	J27_1	J27_2	135.00	500.0	0.0050	0.0144	Open
P3304	J27_1	J28_1	135.00	300.0	0.0050	0.0077	Open
P3305	J27_2	J27_3	135.00	150.0	0.0050	0.1255	Open
P3306	J27_2	J28_2	135.00	150.0	0.0050	0.0053	Open
P3307	J27_3	J27_4	135.00	300.0	0.0050	0.0915	Open
P3308	J27_3	J28_3	135.00	100.0	0.0050	0.0068	Open
P3309	J27_4	J27_5	135.00	200.0	0.0050	0.1078	Open
P3310	J27_4	J28_4	135.00	250.0	0.0050	0.1404	Open
P3311	J27_5	J27_6	135.00	200.0	0.0050	0.1465	Open
P3312	J27_5	J28_5	135.00	150.0	0.0050	0.0363	Open
P3313	J27_6	J27_7	135.00	250.0	0.0050	0.0636	Open
P3314	J27_6	J28_6	135.00	200.0	0.0050	0.0776	Open
P3315	J27_7	J27_8	135.00	150.0	0.0050	0.1303	Open
P3316	J27_7	J28_7	135.00	300.0	0.0050	0.0396	Open
P3317	J27_8	J27_9	135.00	300.0	0.0050	0.0856	Open
P3318	J27_8	J28_8	135.00	200.0	0.0050	0.0792	Open
P3319	J27_9	J27_10	135.00	100.0	0.0050	0.0265	Open
P3320	J27_9	J28_9	135.00	100.0	0.0050	0.1450	Open
P3321	J27_10	J27_11	135.00	150.0	0.0050	0.1272	Open
P3322	J27_10	J28_10	135.00	150.0	0.0050	0.0843	Open
P3323	J27_11	J27_12	135.00	350.0	0.0050	0.0170	Open
P3324	J27_11	J28_11	135.00	500.0	0.0050	0.0172	Open
P3325	J27_12	J27_13	135.00	250.0	0.0050	0.0826	Open
P3326	J27_12	J28_12	135.00	100.0	0.0050	0.0519	Open
P3327	J27_13	J27_14	135.00	150.0	0.0050	0.0555	Open
P3328	J27_13	J28_13	135.00	150.0	0.0050	0.0587	Open
P3329	J27_14	J27_15	135.00	150.0	0.0050	0.0146	Open
P3330	J27_14	J28_14	135.00	300.0	0.0050	0.1458	Open
P3331	J27_15	J27_16	135.00	200.0	0.0050	0.0016	Open
P3332	J27_15	J28_15	135.00	250.0	0.0050	0.0626	Open
P3333	J27_16	J27_17	135.00	150.0	0.0050	0.0383	Open
P3334	J27_16	J28_16	135.00	200.0	0.0050	0.0039	Open
P3335	J27_17	J27_18	135.00	150.0	0.0050	0.0070	Open
P3336	J27_17	J28_17	135.00	200.0	0.0050	0.1464	Open
P3337	J27_18	J27_19	135.00	200.0	0.0050	0.1044	Open
P3338	J27_18	J28_18	135.00	100.0	0.0050	0.1493	Open
P3339	J27_19	J27_20	135.00	150.0	0.0050	0.0108	Open
P3340	J27_19	J28_19	135.00	300.0	0.0050	0.1001	Open
P3341	J27_20	J27_21	135.00	250.0	0.0050	0.0770	Open
P3342	J27_20	J28_20	135.00	250.0	0.0050	0.0523	Open
P3343	J27_21	J27_22	135.00	450.0	0.0050	0.0046	Open
P3344	J27_21	J28_21	135.00	400.0	0.0050	0.0345	Open
P3345	J27_22	J27_23	135.00	200.0	0.0050	0.1206	Open
P3346	J27_22	J28_22	135.00	150.0	0.0050	0.1269	Open
P3347	J27_23	J27_24	135.00	200.0	0.0050	0.0841	Open
P3348	J27_23	J28_23	135.00	100.0	0.0050	0.1281	Open
P3349	J27_24	J27_25	135.00	250.0	0.0050	0.0861	Open
P3350	J27_24	J28_24	135.00	100.0	0.0050	0.1141	Open
P3351	J27_25	J27_26	135.00	100.0	0.0050	0.0712	Open
P3352	J27_25	J28_25	135.00	150.0	0.0050	0.0375	Open
P3353	J27_26	J27_27	135.00	150.0	0.0050	0.0833	Open
P3354	J27_26	J28_26	135.00	150.0	0.0050	0.1209	Open
P3355	J27_27	J27_28	135.00	200.0	0.0050	0.0133	Open
P3356	J27_27	J28_27	135.00	250.0	0.0050	0.0657	Open
P3357	J27_28	J27_29	135.00	100.0	0.0050	0.0429	Open
P3358	J27_28	J28_28	135.00	200.0	0.0050	0.0220	Open
P3359	J27_29	J27_30	135.00	150.0	0.0050	0.1438	Open
P3360	J27_29	J28_29	135.00	150.0	0.0050	0.0968	Open
P3361	J27_30	J27_31	135.00	200.0	0.0050	0.0839	Open
P3362	J27_30	J28_30	135.00	150.0	0.0050	0.0224	Open
P3363	J27_31	J27_32	135.00	450.0	0.0050	0.0286	Open
P3364	J27_31	J28_31	135.00	450.0	0.0050	0.0271	Open
P3365	J27_32	J27_33	135.00	200.0	0.0050	0.0520	Open
P3366	J27_32	J28_32	135.00	100.0	0.0050	0.0277	Open
P3367	J27_33	J27_34	135.00	100.0	0.0050	0.0628	Open
P3368	J27_33	J28_33	135.00	300.0	0.0050	0.0524	Open
P3369	J27_34	J27_35	135.00	250.0	0.0050	0.1011	Open
P3370	J27_34	J28_34	135.00	250.0	0.0050	0.0580	Open
P3371	J27_35	J27_36	135.00	150.0	0.0050	0.0860	Open
P3372	J27_35	J28_35	135.00	300.0	0.0050	0.0831	Open
P3373	J27_36	J27_37	135.00	250.0	0.0050	0.0458	Open
P3374	J27_36	J28_36	135.00	150.0	0.0050	0.0086	Open
P3375	J27_37	J27_38	135.00	150.0	0.0050	0.0477	Open
P3376	J27_37	J28_37	135.00	300.0	0.0050	0.0949	Open
P3377	J27_38	J27_39	135.00	150.0	0.0050	0.0080	Open
P3378	J27_38	J28_38	135.00	250.0	0.0050	0.1448	Open
P3379	J27_39	J27_40	135.00	150.0	0.0050	0.1009	Open
P3380	J27_39	J28_39	135.00	100.0	0.0050	0.1292	Open
P3381	J27_40	J27_41	135.00	300.0	0.0050	0.0859	Open
P3382	J27_40	J28_40	135.00	100.0	0.0050	0.1323	Open
P3383	J27_41	J27_42	135.00	600.0	0.0050	0.0134	Open
P3384	J27_41	J28_41	135.00	350.0	0.0050	0.0452	Open
P3385	J27_42	J27_43	135.00	250.0	0.0050	0.0627	Open
P3386	J27_42	J28_42	135.00	100.0	0.0050	0.1143	Open
P3387	J27_43	J27_44	135.00	200.0	0.0050	0.0494	Open
P3388	J27_43	J28_43	135.00	100.0	0.0050	0.1179	Open
P3389	J27_44	J27_45	135.00	250.0	0.0050	0.0336	Open
P3390	J27_44	J28_44	135.00	100.0	0.0050	0.0074	Open
P3391	J27_45	J27_46	135.00	300.0	0.0050	0.0980	Open
P3392	J27_45	J28_45	135.00	150.0	0.0050	0.1294	Open
P3393	J27_46	J27_47	135.00	200.0	0.0050	0.0953	Open
P3394	J27_46	J28_46	135.00	250.0	0.0050	0.0792	Open
P3395	J27_47	J27_48	135.00	300.0	0.0050	0.0247	Open
P3396	J27_47	J28_47	135.00	100.0	0.0050	0.0120	Open
P3397	J27_48	J27_49	135.00	200.0	0.0050	0.1433	Open
P3398	J27_48	J28_48	135.00	100.0	0.0050	0.0880	Open
P3399	J27_49	J27_50	135.00	200.0	0.0050	0.0667	Open
P3400	J27_49	J28_49	135.00	150.0	0.0050	0.0198	Open
P3401	J27_50	J27_51	135.00	150.0	0.0050	0.1019	Open
P3402	J27_50	J28_50	135.00	150.0	0.0050	0.0979	Open
P3403	J27_51	J27_52	135.00	400.0	0.0050	0.0472	Open
P3404	J27_51	J28_51	135.00	300.0	0.0050	0.0226	Open
P3405	J27_52	J27_53	135.00	150.0	0.0050	0.1444	Open
P3406	J27_52	J28_52	135.00	150.0	0.0050	0.1264	Open
P3407	J27_53	J27_54	135.00	300.0	0.0050	0.1462	Open
P3408	J27_53	J28_53	135.00	200.0	0.0050	0.0880	Open
P3409	J27_54	J27_55	135.00	200.0	0.0050	0.1381	Open
P3410	J27_54	J28_54	135.00	200.0	0.0050	0.0531	Open
P3411	J27_55	J27_56	135.00	100.0	0.0050	0.0091	Open
P3412	J27_55	J28_55	135.00	300.0	0.0050	0.0507	Open
P3413	J27_56	J27_57	135.00	100.0	0.0050	0.1404	Open
P3414	J27_56	J28_56	135.00	200.0	0.0050	0.0045	Open
P3415	J27_57	J27_58	135.00	250.0	0.0050	0.1447	Open
P3416	J27_57	J28_57	135.00	200.0	0.0050	0.0044	Open
P3417	J27_58	J27_59	135.00	200.0	0.0050	0.1274	Open
P3418	J27_58	J28_58	135.00	300.0	0.0050	0.0195	Open
P3419	J27_59	J27_60	135.00	150.0	0.0050	0.0644	Open
P3420	J27_59	J28_59	135.00	100.0	0.0050	0.0557	Open
P3421	J27_60	J27_61	135.00	200.0	0.0050	0.0173	Open
P3422	J27_60	J28_60	135.00	200.0	0.0050	0.1083	Open
P3423	J27_61	J27_62	135.00	500.0	0.0050	0.0240	Open
P3424	J27_61	J28_61	135.00	500.0	0.0050	0.0185	Open
P3425	J27_62	J27_63	135.00	300.0	0.0050	0.0539	Open
P3426	J27_62	J28_62	135.00	100.0	0.0050	0.0410	Open
P3427	J27_63	J27_64	135.00	100.0	0.0050	0.1155	Open
P3428	J27_63	J28_63	135.00	300.0	0.0050	0.0190	Open
P3429	J27_64	J28_64	135.00	150.0	0.0050	0.0629	Open
P3430	J28_1	J28_2	135.00	500.0	0.0050	0.0441	Open
P3431	J28_1	J29_1	135.00	450.0	0.0050	0.0398	Open
P3432	J28_2	J28_3	135.00	150.0	0.0050	0.0035	Open
P3433	J28_2	J29_2	135.00	200.0	0.0050	0.0273	Open
P3434	J28_3	J28_4	135.00	150.0	0.0050	0.0304	Open
P3435	J28_3	J29_3	135.00	250.0	0.0050	0.1303	Open
P3436	J28_4	J28_5	135.00	150.0	0.0050	0.0229	Open
P3437	J28_4	J29_4	135.00	300.0	0.0050	0.0402	Open
P3438	J28_5	J28_6	135.00	100.0	0.0050	0.0075	Open
P3439	J28_5	J29_5	135.00	200.0	0.0050	0.0866	Open
P3440	J28_6	J28_7	135.00	150.0	0.0050	0.0016	Open
P3441	J28_6	J29_6	135.00	200.0	0.0050	0.1343	Open
P3442	J28_7	J28_8	135.00	100.0	0.0050	0.0944	Open
P3443	J28_7	J29_7	135.00	150.0	0.0050	0.1494	Open
P3444	J28_8	J28_9	135.00	300.0	0.0050	0.1016	Open
P3445	J28_8	J29_8	135.00	100.0	0.0050	0.1096	Open
P3446	J28_9	J28_10	135.00	150.0	0.0050	0.0849	Open
P3447	J28_9	J29_9	135.00	150.0	0.0050	0.0664	Open
P3448	J28_10	J28_11	135.00	300.0	0.0050	0.0264	Open
P3449	J28_10	J29_10	135.00	150.0	0.0050	0.1120	Open
P3450	J28_11	J28_12	135.00	350.0	0.0050	0.0380	Open
P3451	J28_11	J29_11	135.00	350.0	0.0050	0.0206	Open
P3452	J28_12	J28_13	135.00	300.0	0.0050	0.1468	Open
P3453	J28_12	J29_12	135.00	250.0	0.0050	0.0240	Open
P3454	J28_13	J28_14	135.00	100.0	0.0050	0.0865	Open
P3455	J28_13	J29_13	135.00	200.0	0.0050	0.0178	Open
P3456	J28_14	J28_15	135.00	100.0	0.0050	0.1057	Open
P3457	J28_14	J29_14	135.00	300.0	0.0050	0.0498	Open
P3458	J28_15	J28_16	135.00	200.0	0.0050	0.0636	Open
P3459	J28_15	J29_15	135.00	150.0	0.0050	0.1097	Open
P3460	J28_16	J28_17	135.00	150.0	0.0050	0.0049	Open
P3461	J28_16	J29_16	135.00	250.0	0.0050	0.0790	Open
P3462	J28_17	J28_18	135.00	100.0	0.0050	0.0854	Open
P3463	J28_17	J29_17	135.00	100.0	0.0050	0.1238	Open
P3464	J28_18	J28_19	135.00	150.0	0.0050	0.0453	Open
P3465	J28_18	J29_18	135.00	250.0	0.0050	0.1097	Open
P3466	J28_19	J28_20	135.00	300.0	0.0050	0.1297	Open
P3467	J28_19	J29_19	135.00	150.0	0.0050	0.0675	Open
P3468	J28_20	J28_21	135.00	200.0	0.0050	0.0448	Open
P3469	J28_20	J29_20	135.00	100.0	0.0050	0.0465	Open
P3470	J28_21	J28_22	135.00	450.0	0.0050	0.0377	Open
P3471	J28_21	J29_21	135.00	300.0	0.0050	0.0314	Open
P3472	J28_22	J28_23	135.00	200.0	0.0050	0.0851	Open
P3473	J28_22	J29_22	135.00	200.0	0.0050	0.1397	Open
P3474	J28_23	J28_24	135.00	250.0	0.0050	0.0497	Open
P3475	J28_23	J29_23	135.00	100.0	0.0050	0.0191	Open
P3476	J28_24	J28_25	135.00	150.0	0.0050	0.1181	Open
P3477	J28_24	J29_24	135.00	200.0	0.0050	0.0008	Open
P3478	J28_25	J28_26	135.00	150.0	0.0050	0.1390	Open
P3479	J28_25	J29_25	135.00	300.0	0.0050	0.0509	Open
P3480	J28_26	J28_27	135.00	300.0	0.0050	0.0329	Open
P3481	J28_26	J29_26	135.00	250.0	0.0050	0.0645	Open
P3482	J28_27	J28_28	135.00	300.0	0.0050	0.1376	Open
P3483	J28_27	J29_27	135.00	300.0	0.0050	0.0611	Open
P3484	J28_28	J28_29	135.00	100.0	0.0050	0.0795	Open
P3485	J28_28	J29_28	135.00	250.0	0.0050	0.0162	Open
P3486	J28_29	J28_30	135.00	100.0	0.0050	0.1367	Open
P3487	J28_29	J29_29	135.00	100.0	0.0050	0.0927	Open
P3488	J28_30	J28_31	135.00	300.0	0.0050	0.0568	Open
P3489	J28_30	J29_30	135.00	300.0	0.0050	0.0438	Open
P3490	J28_31	J28_32	135.00	300.0	0.0050	0.0426	Open
P3491	J28_31	J29_31	135.00	400.0	0.0050	0.0145	Open
P3492	J28_32	J28_33	135.00	300.0	0.0050	0.0951	Open
P3493	J28_32	J29_32	135.00	300.0	0.0050	0.0748	Open
P3494	J28_33	J28_34	135.00	200.0	0.0050	0.0916	Open
P3495	J28_33	J29_33	135.00	150.0	0.0050	0.1491	Open
P3496	J28_34	J28_35	135.00	250.0	0.0050	0.1011	Open
P3497	J28_34	J29_34	135.00	250.0	0.0050	0.1185	Open
P3498	J28_35	J28_36	135.00	200.0	0.0050	0.0240	Open
P3499	J28_35	J29_35	135.00	200.0	0.0050	0.0215	Open
P3500	J28_36	J28_37	135.00	300.0	0.0050	0.0073	Open
P3501	J28_36	J29_36	135.00	100.0	0.0050	0.0391	Open
P3502	J28_37	J28_38	135.00	150.0	0.0050	0.0123	Open
P3503	J28_37	J29_37	135.00	200.0	0.0050	0.0393	Open
P3504	J28_38	J28_39	135.00	300.0	0.0050	0.0462	Open
P3505	J28_38	J29_38	135.00	300.0	0.0050	0.1219	Open
P3506	J28_39	J28_40	135.00	300.0	0.0050	0.0772	Open
P3507	J28_39	J29_39	135.00	150.0	0.0050	0.0576	Open
P3508	J28_40	J28_41	135.00	250.0	0.0050	0.0633	Open
P3509	J28_40	J29_40	135.00	250.0	0.0050	0.1492	Open
P3510	J28_41	J28_42	135.00	350.0	0.0050	0.0278	Open
P3511	J28_41	J29_41	135.00	400.0	0.0050	0.0219	Open
P3512	J28_42	J28_43	135.00	300.0	0.0050	0.0576	Open
P3513	J28_42	J29_42	135.00	300.0	0.0050	0.0129	Open
P3514	J28_43	J28_44	135.00	150.0	0.0050	0.1118	Open
P3515	J28_43	J29_43	135.00	200.0	0.0050	0.0192	Open
P3516	J28_44	J28_45	135.00	150.0	0.0050	0.0412	Open
P3517	J28_44	J29_44	135.00	200.0	0.0050	0.0603	Open
P3518	J28_45	J28_46	135.00	100.0	0.0050	0.0867	Open
P3519	J28_45	J29_45	135.00	150.0	0.0050	0.0096	Open
P3520	J28_46	J28_47	135.00	300.0	0.0050	0.0463	Open
P3521	J28_46	J29_46	135.00	250.0	0.0050	0.0662	Open
P3522	J28_47	J28_48	135.00	150.0	0.0050	0.0138	Open
P3523	J28_47	J29_47	135.00	100.0	0.0050	0.0622	Open
P3524	J28_48	J28_49	135.00	300.0	0.0050	0.1071	Open
P3525	J28_48	J29_48	135.00	250.0	0.0050	0.1249	Open
P3526	J28_49	J28_50	135.00	250.0	0.0050	0.1170	Open
P3527	J28_49	J29_49	135.00	100.0	0.0050	0.0083	Open
P3528	J28_50	J28_51	135.00	300.0	0.0050	0.0696	Open
P3529	J28_50	J29_50	135.00	200.0	0.0050	0.0885	Open
P3530	J28_51	J28_52	135.00	300.0	0.0050	0.0125	Open
P3531	J28_51	J29_51	135.00	300.0	0.0050	0.0459	Open
P3532	J28_52	J28_53	135.00	150.0	0.0050	0.0475	Open
P3533	J28_52	J29_52	135.00	100.0	0.0050	0.1019	Open
P3534	J28_53	J28_54	135.00	250.0	0.0050	0.1411	Open
P3535	J28_53	J29_53	135.00	250.0	0.0050	0.1019	Open
P3536	J28_54	J28_55	135.00	200.0	0.0050	0.0368	Open
P3537	J28_54	J29_54	135.00	300.0	0.0050	0.0280	Open
P3538	J28_55	J28_56	135.00	100.0	0.0050	0.1242	Open
P3539	J28_55	J29_55	135.00	250.0	0.0050	0.0078	Open
P3540	J28_56	J28_57	135.00	100.0	0.0050	0.1300	Open
P3541	J28_56	J29_56	135.00	100.0	0.0050	0.0767	Open
P3542	J28_57	J28_58	135.00	250.0	0.0050	0.0858	Open
P3543	J28_57	J29_57	135.00	100.0	0.0050	0.0251	Open
P3544	J28_58	J28_59	135.00	300.0	0.0050	0.0724	Open
P3545	J28_58	J29_58	135.00	250.0	0.0050	0.0258	Open
P3546	J28_59	J28_60	135.00	150.0	0.0050	0.1331	Open
P3547	J28_59	J29_59	135.00	100.0	0.0050	0.1124	Open
P3548	J28_60	J28_61	135.00	300.0	0.0050	0.0067	Open
P3549	J28_60	J29_60	135.00	250.0	0.0050	0.1374	Open
P3550	J28_61	J28_62	135.00	350.0	0.0050	0.0040	Open
P3551	J28_61	J29_61	135.00	300.0	0.0050	0.0093	Open
P3552	J28_62	J28_63	135.00	150.0	0.0050	0.0256	Open
P3553	J28_62	J29_62	135.00	200.0	0.0050	0.0496	Open
P3554	J28_63	J28_64	135.00	250.0	0.0050	0.0623	Open
P3555	J28_63	J29_63	135.00	200.0	0.0050	0.1196	Open
P3556	J28_64	J29_64	135.00	150.0	0.0050	0.1343	Open
P3557	J29_1	J29_2	135.00	300.0	0.0050	0.0482	Open
P3558	J29_1	J30_1	135.00	450.0	0.0050	0.0035	Open
P3559	J29_2	J29_3	135.00	200.0	0.0050	0.0612	Open
P3560	J29_2	J30_2	135.00	300.0	0.0050	0.0804	Open
P3561	J29_3	J29_4	135.00	200.0	0.0050	0.0231	Open
P3562	J29_3	J30_3	135.00	250.0	0.0050	0.0407	Open
P3563	J29_4	J29_5	135.00	300.0	0.0050	0.0520	Open
P3564	J29_4	J30_4	135.00	200.0	0.0050	0.1192	Open
P3565	J29_5	J29_6	135.00	250.0	0.0050	0.0275	Open
P3566	J29_5	J30_5	135.00	100.0	0.0050	0.0966	Open
P3567	J29_6	J29_7	135.00	150.0	0.0050	0.0215	Open
P3568	J29_6	J30_6	135.00	150.0	0.0050	0.0703	Open
P3569	J29_7	J29_8	135.00	250.0	0.0050	0.1330	Open
P3570	J29_7	J30_7	135.00	150.0	0.0050	0.0574	Open
P3571	J29_8	J29_9	135.00	200.0	0.0050	0.0790	Open
P3572	J29_8	J30_8	135.00	250.0	0.0050	0.0771	Open
P3573	J29_9	J29_10	135.00	200.0	0.0050	0.0039	Open
P3574	J29_9	J30_9	135.00	150.0	0.0050	0.0411	Open
P3575	J29_10	J29_11	135.00	150.0	0.0050	0.0410	Open
P3576	J29_10	J30_10	135.00	250.0	0.0050	0.0150	Open
P3577	J29_11	J29_12	135.00	500.0	0.0050	0.0185	Open
P3578	J29_11	J30_11	135.00	450.0	0.0050	0.0254	Open
P3579	J29_12	J29_13	135.00	250.0	0.0050	0.0597	Open
P3580	J29_12	J30_12	135.00	300.0	0.0050	0.0805	Open
P3581	J29_13	J29_14	135.00	300.0	0.0050	0.1238	Open
P3582	J29_13	J30_13	135.00	150.0	0.0050	0.1464	Open
P3583	J29_14	J29_15	135.00	250.0	0.0050	0.1328	Open
P3584	J29_14	J30_14	135.00	200.0	0.0050	0.1431	Open
P3585	J29_15	J29_16	135.00	200.0	0.0050	0.0425	Open
P3586	J29_15	J30_15	135.00	100.0	0.0050	0.1411	Open
P3587	J29_16	J29_17	135.00	200.0	0.0050	0.0364	Open
P3588	J29_16	J30_16	135.00	250.0	0.0050	0.0057	Open
P3589	J29_17	J29_18	135.00	250.0	0.0050	0.0375	Open
P3590	J29_17	J30_17	135.00	150.0	0.0050	0.0313	Open
P3591	J29_18	J29_19	135.00	100.0	0.0050	0.0249	Open
P3592	J29_18	J30_18	135.00	250.0	0.0050	0.1349	Open
P3593	J29_19	J29_20	135.00	250.0	0.0050	0.0507	Open
P3594	J29_19	J30_19	135.00	100.0	0.0050	0.0137	Open
P3595	J29_20	J29_21	135.00	100.0	0.0050	0.1367	Open
P3596	J29_20	J30_20	135.00	100.0	0.0050	0.0389	Open
P3597	J29_21	J29_22	135.00	300.0	0.0050	0.0267	Open
P3598	J29_21	J30_21	135.00	400.0	0.0050	0.0167	Open
P3599	J29_22	J29_23	135.00	300.0	0.0050	0.0764	Open
P3600	J29_22	J30_22	135.00	150.0	0.0050	0.0385	Open
P3601	J29_23	J29_24	135.00	200.0	0.0050	0.1403	Open
P3602	J29_23	J30_23	135.00	200.0	0.0050	0.1290	Open
P3603	J29_24	J29_25	135.00	100.0	0.0050	0.1235	Open
P3604	J29_24	J30_24	135.00	200.0	0.0050	0.0949	Open
P3605	J29_25	J29_26	135.00	200.0	0.0050	0.0521	Open
P3606	J29_25	J30_25	135.00	150.0	0.0050	0.1424	Open
P3607	J29_26	J29_27	135.00	200.0	0.0050	0.0914	Open
P3608	J29_26	J30_26	135.00	150.0	0.0050	0.1324	Open
P3609	J29_27	J29_28	135.00	250.0	0.0050	0.0009	Open
P3610	J29_27	J30_27	135.00	150.0	0.0050	0.0450	Open
P3611	J29_28	J29_29	135.00	150.0	0.0050	0.0283	Open
P3612	J29_28	J30_28	135.00	250.0	0.0050	0.1311	Open
P3613	J29_29	J29_30	135.00	150.0	0.0050	0.0788	Open
P3614	J29_29	J30_29	135.00	100.0	0.0050	0.1213	Open
P3615	J29_30	J29_31	135.00	100.0	0.0050	0.0666	Open
P3616	J29_30	J30_30	135.00	200.0	0.0050	0.1377	Open
P3617	J29_31	J29_32	135.00	350.0	0.0050	0.0351	Open
P3618	J29_31	J30_31	135.00	350.0	0.0050	0.0412	Open
P3619	J29_32	J29_33	135.00	150.0	0.0050	0.0699	Open
P3620	J29_32	J30_32	135.00	100.0	0.0050	0.1115	Open
P3621	J29_33	J29_34	135.00	200.0	0.0050	0.1050	Open
P3622	J29_33	J30_33	135.00	150.0	0.0050	0.1455	Open
P3623	J29_34	J29_35	135.00	150.0	0.0050	0.0682	Open
P3624	J29_34	J30_34	135.00	100.0	0.0050	0.0198	Open
P3625	J29_35	J29_36	135.00	100.0	0.0050	0.0900	Open
P3626	J29_35	J30_35	135.00	100.0	0.0050	0.0949	Open
P3627	J29_36	J29_37	135.00	150.0	0.0050	0.0265	Open
P3628	J29_36	J30_36	135.00	300.0	0.0050	0.0083	Open
P3629	J29_37	J29_38	135.00	200.0	0.0050	0.0205	Open
P3630	J29_37	J30_37	135.00	250.0	0.0050	0.0296	Open
P3631	J29_38	J29_39	135.00	100.0	0.0050	0.0732	Open
P3632	J29_38	J30_38	135.00	150.0	0.0050	0.1370	Open
P3633	J29_39	J29_40	135.00	250.0	0.0050	0.1057	Open
P3634	J29_39	J30_39	135.00	150.0	0.0050	0.0002	Open
P3635	J29_40	J29_41	135.00	300.0	0.0050	0.1017	Open
P3636	J29_40	J30_40	135.00	250.0	0.0050	0.0979	Open
P3637	J29_41	J29_42	135.00	500.0	0.0050	0.0359	Open
P3638	J29_41	J30_41	135.00	400.0	0.0050	0.0088	Open
P3639	J29_42	J29_43	135.00	100.0	0.0050	0.0131	Open
P3640	J29_42	J30_42	135.00	250.0	0.0050	0.0426	Open
P3641	J29_43	J29_44	135.00	200.0	0.0050	0.0219	Open
P3642	J29_43	J30_43	135.00	300.0	0.0050	0.1347	Open
P3643	J29_44	J29_45	135.00	200.0	0.0050	0.0023	Open
P3644	J29_44	J30_44	135.00	200.0	0.0050	0.0219	Open
P3645	J29_45	J29_46	135.00	200.0	0.0050	0.1167	Open
P3646	J29_45	J30_45	135.00	100.0	0.0050	0.1371	Open
P3647	J29_46	J29_47	135.00	200.0	0.0050	0.0799	Open
P3648	J29_46	J30_46	135.00	100.0	0.0050	0.1112	Open
P3649	J29_47	J29_48	135.00	150.0	0.0050	0.0802	Open
P3650	J29_47	J30_47	135.00	100.0	0.0050	0.0783	Open
P3651	J29_48	J29_49	135.00	100.0	0.0050	0.0683	Open
P3652	J29_48	J30_48	135.00	200.0	0.0050	0.1344	Open
P3653	J29_49	J29_50	135.00	250.0	0.0050	0.0418	Open
P3654	J29_49	J30_49	135.00	100.0	0.0050	0.0857	Open
P3655	J29_50	J29_51	135.00	100.0	0.0050	0.0680	Open
P3656	J29_50	J30_50	135.00	150.0	0.0050	0.0725	Open
P3657	J29_51	J29_52	135.00	400.0	0.0050	0.0258	Open
P3658	J29_51	J30_51	135.00	300.0	0.0050	0.0274	Open
P3659	J29_52	J29_53	135.00	250.0	0.0050	0.0284	Open
P3660	J29_52	J30_52	135.00	250.0	0.0050	0.0631	Open
P3661	J29_53	J29_54	135.00	300.0	0.0050	0.0893	Open
P3662	J29_53	J30_53	135.00	300.0	0.0050	0.0916	Open
P3663	J29_54	J29_55	135.00	250.0	0.0050	0.1385	Open
P3664	J29_54	J30_54	135.00	100.0	0.0050	0.0551	Open
P3665	J29_55	J29_56	135.00	300.0	0.0050	0.0964	Open
P3666	J29_55	J30_55	135.00	150.0	0.0050	0.0895	Open
P3667	J29_56	J29_57	135.00	150.0	0.0050	0.0415	Open
P3668	J29_56	J30_56	135.00	200.0	0.0050	0.0032	Open
P3669	J29_57	J29_58	135.00	300.0	0.0050	0.0551	Open
P3670	J29_57	J30_57	135.00	300.0	0.0050	0.0016	Open
P3671	J29_58	J29_59	135.00	250.0	0.0050	0.1164	Open
P3672	J29_58	J30_58	135.00	100.0	0.0050	0.0508	Open
P3673	J29_59	J29_60	135.00	100.0	0.0050	0.0277	Open
P3674	J29_59	J30_59	135.00	250.0	0.0050	0.0342	Open
P3675	J29_60	J29_61	135.00	300.0	0.0050	0.0152	Open
P3676	J29_60	J30_60	135.00	300.0	0.0050	0.1051	Open
P3677	J29_61	J29_62	135.00	450.0	0.0050	0.0452	Open
P3678	J29_61	J30_61	135.00	350.0	0.0050	0.0210	Open
P3679	J29_62	J29_63	135.00	250.0	0.0050	0.1387	Open
P3680	J29_62	J30_62	135.00	150.0	0.0050	0.1153	Open
P3681	J29_63	J29_64	135.00	100.0	0.0050	0.0851	Open
P3682	J29_63	J30_63	135.00	200.0	0.0050	0.1077	Open
P3683	J29_64	J30_64	135.00	250.0	0.0050	0.0171	Open
P3684	J30_1	J30_2	135.00	500.0	0.0050	0.0364	Open
P3685	J30_1	J31_1	135.00	350.0	0.0050	0.0098	Open
P3686	J30_2	J30_3	135.00	300.0	0.0050	0.1362	Open
P3687	J30_2	J31_2	135.00	200.0	0.0050	0.0459	Open
P3688	J30_3	J30_4	135.00	300.0	0.0050	0.0697	Open
P3689	J30_3	J31_3	135.00	250.0	0.0050	0.0417	Open
P3690	J30_4	J30_5	135.00	100.0	0.0050	0.0895	Open
P3691	J30_4	J31_4	135.00	200.0	0.0050	0.1218	Open
P3692	J30_5	J30_6	135.00	200.0	0.0050	0.0434	Open
P3693	J30_5	J31_5	135.00	200.0	0.0050	0.0531	Open
P3694	J30_6	J30_7	135.00	100.0	0.0050	0.1155	Open
P3695	J30_6	J31_6	135.00	300.0	0.0050	0.0462	Open
P3696	J30_7	J30_8	135.00	200.0	0.0050	0.0055	Open
P3697	J30_7	J31_7	135.00	250.0	0.0050	0.0645	Open
P3698	J30_8	J30_9	135.00	100.0	0.0050	0.0388	Open
P3699	J30_8	J31_8	135.00	200.0	0.0050	0.0243	Open
P3700	J30_9	J30_10	135.00	150.0	0.0050	0.0581	Open
P3701	J30_9	J31_9	135.00	150.0	0.0050	0.0655	Open
P3702	J30_10	J30_11	135.00	200.0	0.0050	0.1430	Open
P3703	J30_10	J31_10	135.00	100.0	0.0050	0.1195	Open
P3704	J30_11	J30_12	135.00	450.0	0.0050	0.0066	Open
P3705	J30_11	J31_11	135.00	600.0	0.0050	0.0284	Open
P3706	J30_12	J30_13	135.00	150.0	0.0050	0.0005	Open
P3707	J30_12	J31_12	135.00	300.0	0.0050	0.0405	Open
P3708	J30_13	J30_14	135.00	250.0	0.0050	0.1257	Open
P3709	J30_13	J31_13	135.00	200.0	0.0050	0.0260	Open
P3710	J30_14	J30_15	135.00	200.0	0.0050	0.1366	Open
P3711	J30_14	J31_14	135.00	200.0	0.0050	0.1207	Open
P3712	J30_15	J30_16	135.00	150.0	0.0050	0.0618	Open
P3713	J30_15	J31_15	135.00	100.0	0.0050	0.0551	Open
P3714	J30_16	J30_17	135.00	200.0	0.0050	0.1327	Open
P3715	J30_16	J31_16	135.00	250.0	0.0050	0.1480	Open
P3716	J30_17	J30_18	135.00	250.0	0.0050	0.1378	Open
P3717	J30_17	J31_17	135.00	250.0	0.0050	0.0070	Open
P3718	J30_18	J30_19	135.00	100.0	0.0050	0.0282	Open
P3719	J30_18	J31_18	135.00	250.0	0.0050	0.0109	Open
P3720	J30_19	J30_20	135.00	100.0	0.0050	0.1203	Open
P3721	J30_19	J31_19	135.00	300.0	0.0050	0.0479	Open
P3722	J30_20	J30_21	135.00	200.0	0.0050	0.0201	Open
P3723	J30_20	J31_20	135.00	100.0	0.0050	0.1157	Open
P3724	J30_21	J30_22	135.00	300.0	0.0050	0.0257	Open
P3725	J30_21	J31_21	135.00	300.0	0.0050	0.0057	Open
P3726	J30_22	J30_23	135.00	200.0	0.0050	0.1038	Open
P3727	J30_22	J31_22	135.00	200.0	0.0050	0.1356	Open
P3728	J30_23	J30_24	135.00	150.0	0.0050	0.1352	Open
P3729	J30_23	J31_23	135.00	250.0	0.0050	0.0993	Open
P3730	J30_24	J30_25	135.00	250.0	0.0050	0.0424	Open
P3731	J30_24	J31_24	135.00	250.0	0.0050	0.1421	Open
P3732	J30_25	J30_26	135.00	300.0	0.0050	0.0217	Open
P3733	J30_25	J31_25	135.00	200.0	0.0050	0.1260	Open
P3734	J30_26	J30_27	135.00	100.0	0.0050	0.1075	Open
P3735	J30_26	J31_26	135.00	250.0	0.0050	0.0170	Open
P3736	J30_27	J30_28	135.00	200.0	0.0050	0.0696	Open
P3737	J30_27	J31_27	135.00	250.0	0.0050	0.0844	Open
P3738	J30_28	J30_29	135.00	150.0	0.0050	0.1182	Open
P3739	J30_28	J31_28	135.00	300.0	0.0050	0.0840	Open
P3740	J30_29	J30_30	135.00	200.0	0.0050	0.1185	Open
P3741	J30_29	J31_29	135.00	100.0	0.0050	0.0273	Open
P3742	J30_30	J30_31	135.00	300.0	0.0050	0.1016	Open
P3743	J30_30	J31_30	135.00	200.0	0.0050	0.0880	Open
P3744	J30_31	J30_32	135.00	400.0	0.0050	0.0400	Open
P3745	J30_31	J31_31	135.00	350.0	0.0050	0.0020	Open
P3746	J30_32	J30_33	135.00	300.0	0.0050	0.0363	Open
P3747	J30_32	J31_32	135.00	300.0	0.0050	0.0576	Open
P3748	J30_33	J30_34	135.00	150.0	0.0050	0.0654	Open
P3749	J30_33	J31_33	135.00	200.0	0.0050	0.1474	Open
P3750	J30_34	J30_35	135.00	250.0	0.0050	0.1089	Open
P3751	J30_34	J31_34	135.00	300.0	0.0050	0.0506	Open
P3752	J30_35	J30_36	135.00	200.0	0.0050	0.1072	Open
P3753	J30_35	J31_35	135.00	250.0	0.0050	0.1188	Open
P3754	J30_36	J30_37	135.00	250.0	0.0050	0.0415	Open
P3755	J30_36	J31_36	135.00	150.0	0.0050	0.1218	Open
P3756	J30_37	J30_38	135.00	300.0	0.0050	0.0732	Open
P3757	J30_37	J31_37	135.00	300.0	0.0050	0.0124	Open
P3758	J30_38	J30_39	135.00	250.0	0.0050	0.0508	Open
P3759	J30_38	J31_38	135.00	150.0	0.0050	0.0794	Open
P3760	J30_39	J30_40	135.00	150.0	0.0050	0.0363	Open
P3761	J30_39	J31_39	135.00	200.0	0.0050	0.0277	Open
P3762	J30_40	J30_41	135.00	300.0	0.0050	0.1164	Open
P3763	J30_40	J31_40	135.00	250.0	0.0050	0.0097	Open
P3764	J30_41	J30_42	135.00	450.0	0.0050	0.0110	Open
P3765	J30_41	J31_41	135.00	600.0	0.0050	0.0416	Open
P3766	J30_42	J30_43	135.00	300.0	0.0050	0.0046	Open
P3767	J30_42	J31_42	135.00	250.0	0.0050	0.0340	Open
P3768	J30_43	J30_44	135.00	100.0	0.0050	0.1206	Open
P3769	J30_43	J31_43	135.00	300.0	0.0050	0.1490	Open
P3770	J30_44	J30_45	135.00	150.0	0.0050	0.0781	Open
P3771	J30_44	J31_44	135.00	300.0	0.0050	0.0343	Open
P3772	J30_45	J30_46	135.00	150.0	0.0050	0.0348	Open
P3773	J30_45	J31_45	135.00	200.0	0.0050	0.1278	Open
P3774	J30_46	J30_47	135.00	150.0	0.0050	0.0011	Open
P3775	J30_46	J31_46	135.00	300.0	0.0050	0.0732	Open
P3776	J30_47	J30_48	135.00	150.0	0.0050	0.0255	Open
P3777	J30_47	J31_47	135.00	300.0	0.0050	0.0263	Open
P3778	J30_48	J30_49	135.00	100.0	0.0050	0.0473	Open
P3779	J30_48	J31_48	135.00	200.0	0.0050	0.1036	Open
P3780	J30_49	J30_50	135.00	250.0	0.0050	0.0009	Open
P3781	J30_49	J31_49	135.00	150.0	0.0050	0.0775	Open
P3782	J30_50	J30_51	135.00	250.0	0.0050	0.0919	Open
P3783	J30_50	J31_50	135.00	300.0	0.0050	0.1011	Open
P3784	J30_51	J30_52	135.00	600.0	0.0050	0.0270	Open
P3785	J30_51	J31_51	135.00	450.0	0.0050	0.0363	Open
P3786	J30_52	J30_53	135.00	100.0	0.0050	0.0246	Open
P3787	J30_52	J31_52	135.00	200.0	0.0050	0.1385	Open
P3788	J30_53	J30_54	135.00	100.0	0.0050	0.0190	Open
P3789	J30_53	J31_53	135.00	100.0	0.0050	0.1204	Open
P3790	J30_54	J30_55	135.00	100.0	0.0050	0.0212	Open
P3791	J30_54	J31_54	135.00	150.0	0.0050	0.0885	Open
P3792	J30_55	J30_56	135.00	200.0	0.0050	0.0186	Open
P3793	J30_55	J31_55	135.00	250.0	0.0050	0.0737	Open
P3794	J30_56	J30_57	135.00	250.0	0.0050	0.0951	Open
P3795	J30_56	J31_56	135.00	150.0	0.0050	0.0293	Open
P3796	J30_57	J30_58	135.00	200.0	0.0050	0.0459	Open
P3797	J30_57	J31_57	135.00	250.0	0.0050	0.1085	Open
P3798	J30_58	J30_59	135.00	250.0	0.0050	0.0220	Open
P3799	J30_58	J31_58	135.00	200.0	0.0050	0.0774	Open
P3800	J30_59	J30_60	135.00	100.0	0.0050	0.1325	Open
P3801	J30_59	J31_59	135.00	150.0	0.0050	0.0300	Open
P3802	J30_60	J30_61	135.00	200.0	0.0050	0.0591	Open
P3803	J30_60	J31_60	135.00	200.0	0.0050	0.0932	Open
P3804	J30_61	J30_62	135.00	600.0	0.0050	0.0499	Open
P3805	J30_61	J31_61	135.00	300.0	0.0050	0.0431	Open
P3806	J30_62	J30_63	135.00	300.0	0.0050	0.0815	Open
P3807	J30_62	J31_62	135.00	200.0	0.0050	0.0143	Open
P3808	J30_63	J30_64	135.00	150.0	0.0050	0.0104	Open
P3809	J30_63	J31_63	135.00	200.0	0.0050	0.0615	Open
P3810	J30_64	J31_64	135.00	200.0	0.0050	0.1026	Open
P3811	J31_1	J31_2	135.00	600.0	0.0050	0.0197	Open
P3812	J31_1	J32_1	135.00	450.0	0.0050	0.0462	Open
P3813	J31_2	J31_3	135.00	500.0	0.0050	0.0246	Open
P3814	J31_2	J32_2	135.00	300.0	0.0050	0.0389	Open
P3815	J31_3	J31_4	135.00	300.0	0.0050	0.0103	Open
P3816	J31_3	J32_3	135.00	600.0	0.0050	0.0038	Open
P3817	J31_4	J31_5	135.00	500.0	0.0050	0.0068	Open
P3818	J31_4	J32_4	135.00	500.0	0.0050	0.0133	Open
P3819	J31_5	J31_6	135.00	600.0	0.0050	0.0450	Open
P3820	J31_5	J32_5	135.00	300.0	0.0050	0.0412	Open
P3821	J31_6	J31_7	135.00	350.0	0.0050	0.0220	Open
P3822	J31_6	J32_6	135.00	350.0	0.0050	0.0204	Open
P3823	J31_7	J31_8	135.00	400.0	0.0050	0.0463	Open
P3824	J31_7	J32_7	135.00	400.0	0.0050	0.0426	Open
P3825	J31_8	J31_9	135.00	450.0	0.0050	0.0431	Open
P3826	J31_8	J32_8	135.00	400.0	0.0050	0.0174	Open
P3827	J31_9	J31_10	135.00	450.0	0.0050	0.0014	Open
P3828	J31_9	J32_9	135.00	450.0	0.0050	0.0126	Open
P3829	J31_10	J31_11	135.00	300.0	0.0050	0.0459	Open
P3830	J31_10	J32_10	135.00	300.0	0.0050	0.0056	Open
P3831	J31_11	J31_12	135.00	350.0	0.0050	0.0377	Open
P3832	J31_11	J32_11	135.00	300.0	0.0050	0.0437	Open
P3833	J31_12	J31_13	135.00	300.0	0.0050	0.0154	Open
P3834	J31_12	J32_12	135.00	400.0	0.0050	0.0326	Open
P3835	J31_13	J31_14	135.00	450.0	0.0050	0.0038	Open
P3836	J31_13	J32_13	135.00	400.0	0.0050	0.0249	Open
P3837	J31_14	J31_15	135.00	500.0	0.0050	0.0064	Open
P3838	J31_14	J32_14	135.00	300.0	0.0050	0.0176	Open
P3839	J31_15	J31_16	135.00	350.0	0.0050	0.0267	Open
P3840	J31_15	J32_15	135.00	600.0	0.0050	0.0145	Open
P3841	J31_16	J31_17	135.00	350.0	0.0050	0.0160	Open
P3842	J31_16	J32_16	135.00	400.0	0.0050	0.0051	Open
P3843	J31_17	J31_18	135.00	350.0	0.0050	0.0096	Open
P3844	J31_17	J32_17	135.00	300.0	0.0050	0.0108	Open
P3845	J31_18	J31_19	135.00	300.0	0.0050	0.0314	Open
P3846	J31_18	J32_18	135.00	400.0	0.0050	0.0318	Open
P3847	J31_19	J31_20	135.00	300.0	0.0050	0.0366	Open
P3848	J31_19	J32_19	135.00	400.0	0.0050	0.0034	Open
P3849	J31_20	J31_21	135.00	350.0	0.0050	0.0232	Open
P3850	J31_20	J32_20	135.00	450.0	0.0050	0.0324	Open
P3851	J31_21	J31_22	135.00	500.0	0.0050	0.0341	Open
P3852	J31_21	J32_21	135.00	450.0	0.0050	0.0130	Open
P3853	J31_22	J31_23	135.00	450.0	0.0050	0.0183	Open
P3854	J31_22	J32_22	135.00	400.0	0.0050	0.0095	Open
P3855	J31_23	J31_24	135.00	400.0	0.0050	0.0487	Open
P3856	J31_23	J32_23	135.00	600.0	0.0050	0.0463	Open
P3857	J31_24	J31_25	135.00	600.0	0.0050	0.0490	Open
P3858	J31_24	J32_24	135.00	300.0	0.0050	0.0064	Open
P3859	J31_25	J31_26	135.00	300.0	0.0050	0.0359	Open
P3860	J31_25	J32_25	135.00	500.0	0.0050	0.0349	Open
P3861	J31_26	J31_27	135.00	350.0	0.0050	0.0082	Open
P3862	J31_26	J32_26	135.00	350.0	0.0050	0.0417	Open
P3863	J31_27	J31_28	135.00	600.0	0.0050	0.0345	Open
P3864	J31_27	J32_27	135.00	450.0	0.0050	0.0387	Open
P3865	J31_28	J31_29	135.00	350.0	0.0050	0.0051	Open
P3866	J31_28	J32_28	135.00	450.0	0.0050	0.0182	Open
P3867	J31_29	J31_30	135.00	350.0	0.0050	0.0351	Open
P3868	J31_29	J32_29	135.00	300.0	0.0050	0.0239	Open
P3869	J31_30	J31_31	135.00	500.0	0.0050	0.0374	Open
P3870	J31_30	J32_30	135.00	500.0	0.0050	0.0460	Open
P3871	J31_31	J31_32	135.00	450.0	0.0050	0.0486	Open
P3872	J31_31	J32_31	135.00	450.0	0.0050	0.0388	Open
P3873	J31_32	J31_33	135.00	400.0	0.0050	0.0363	Open
P3874	J31_32	J32_32	135.00	500.0	0.0050	0.0276	Open
P3875	J31_33	J31_34	135.00	400.0	0.0050	0.0041	Open
P3876	J31_33	J32_33	135.00	500.0	0.0050	0.0321	Open
P3877	J31_34	J31_35	135.00	400.0	0.0050	0.0044	Open
P3878	J31_34	J32_34	135.00	350.0	0.0050	0.0268	Open
P3879	J31_35	J31_36	135.00	450.0	0.0050	0.0079	Open
P3880	J31_35	J32_35	135.00	350.0	0.0050	0.0483	Open
P3881	J31_36	J31_37	135.00	400.0	0.0050	0.0075	Open
P3882	J31_36	J32_36	135.00	500.0	0.0050	0.0148	Open
P3883	J31_37	J31_38	135.00	350.0	0.0050	0.0224	Open
P3884	J31_37	J32_37	135.00	450.0	0.0050	0.0111	Open
P3885	J31_38	J31_39	135.00	300.0	0.0050	0.0123	Open
P3886	J31_38	J32_38	135.00	450.0	0.0050	0.0063	Open
P3887	J31_39	J31_40	135.00	400.0	0.0050	0.0477	Open
P3888	J31_39	J32_39	135.00	500.0	0.0050	0.0297	Open
P3889	J31_40	J31_41	135.00	400.0	0.0050	0.0144	Open
P3890	J31_40	J32_40	135.00	300.0	0.0050	0.0406	Open
P3891	J31_41	J31_42	135.00	350.0	0.0050	0.0215	Open
P3892	J31_41	J32_41	135.00	300.0	0.0050	0.0145	Open
P3893	J31_42	J31_43	135.00	400.0	0.0050	0.0305	Open
P3894	J31_42	J32_42	135.00	350.0	0.0050	0.0039	Open
P3895	J31_43	J31_44	135.00	600.0	0.0050	0.0188	Open
P3896	J31_43	J32_43	135.00	400.0	0.0050	0.0035	Open
P3897	J31_44	J31_45	135.00	300.0	0.0050	0.0433	Open
P3898	J31_44	J32_44	135.00	400.0	0.0050	0.0079	Open
P3899	J31_45	J31_46	135.00	600.0	0.0050	0.0186	Open
P3900	J31_45	J32_45	135.00	400.0	0.0050	0.0098	Open
P3901	J31_46	J31_47	135.00	500.0	0.0050	0.0235	Open
P3902	J31_46	J32_46	135.00	450.0	0.0050	0.0354	Open
P3903	J31_47	J31_48	135.00	400.0	0.0050	0.0493	Open
P3904	J31_47	J32_47	135.00	450.0	0.0050	0.0003	Open
P3905	J31_48	J31_49	135.00	450.0	0.0050	0.0402	Open
P3906	J31_48	J32_48	135.00	500.0	0.0050	0.0338	Open
P3907	J31_49	J31_50	135.00	400.0	0.0050	0.0196	Open
P3908	J31_49	J32_49	135.00	350.0	0.0050	0.0380	Open
P3909	J31_50	J31_51	135.00	350.0	0.0050	0.0113	Open
P3910	J31_50	J32_50	135.00	350.0	0.0050	0.0301	Open
P3911	J31_51	J31_52	135.00	350.0	0.0050	0.0358	Open
P3912	J31_51	J32_51	135.00	500.0	0.0050	0.0020	Open
P3913	J31_52	J31_53	135.00	500.0	0.0050	0.0236	Open
P3914	J31_52	J32_52	135.00	300.0	0.0050	0.0493	Open
P3915	J31_53	J31_54	135.00	400.0	0.0050	0.0203	Open
P3916	J31_53	J32_53	135.00	450.0	0.0050	0.0433	Open
P3917	J31_54	J31_55	135.00	600.0	0.0050	0.0289	Open
P3918	J31_54	J32_54	135.00	500.0	0.0050	0.0053	Open
P3919	J31_55	J31_56	135.00	400.0	0.0050	0.0085	Open
P3920	J31_55	J32_55	135.00	400.0	0.0050	0.0355	Open
P3921	J31_56	J31_57	135.00	450.0	0.0050	0.0054	Open
P3922	J31_56	J32_56	135.00	600.0	0.0050	0.0279	Open
P3923	J31_57	J31_58	135.00	500.0	0.0050	0.0248	Open
P3924	J31_57	J32_57	135.00	600.0	0.0050	0.0003	Open
P3925	J31_58	J31_59	135.00	500.0	0.0050	0.0191	Open
P3926	J31_58	J32_58	135.00	350.0	0.0050	0.0152	Open
P3927	J31_59	J31_60	135.00	450.0	0.0050	0.0135	Open
P3928	J31_59	J32_59	135.00	450.0	0.0050	0.0295	Open
P3929	J31_60	J31_61	135.00	450.0	0.0050	0.0434	Open
P3930	J31_60	J32_60	135.00	350.0	0.0050	0.0086	Open
P3931	J31_61	J31_62	135.00	300.0	0.0050	0.0410	Open
P3932	J31_61	J32_61	135.00	400.0	0.0050	0.0000	Open
P3933	J31_62	J31_63	135.00	400.0	0.0050	0.0258	Open
P3934	J31_62	J32_62	135.00	600.0	0.0050	0.0411	Open
P3935	J31_63	J31_64	135.00	600.0	0.0050	0.0117	Open
P3936	J31_63	J32_63	135.00	300.0	0.0050	0.0067	Open
P3937	J31_64	J32_64	135.00	300.0	0.0050	0.0170	Open
P3938	J32_1	J32_2	135.00	600.0	0.0050	0.0271	Open
P3939	J32_1	J33_1	135.00	600.0	0.0050	0.0180	Open
P3940	J32_2	J32_3	135.00	200.0	0.0050	0.0403	Open
P3941	J32_2	J33_2	135.00	300.0	0.0050	0.0910	Open
P3942	J32_3	J32_4	135.00	300.0	0.0050	0.0160	Open
P3943	J32_3	J33_3	135.00	150.0	0.0050	0.1227	Open
P3944	J32_4	J32_5	135.00	200.0	0.0050	0.0395	Open
P3945	J32_4	J33_4	135.00	250.0	0.0050	0.0567	Open
P3946	J32_5	J32_6	135.00	200.0	0.0050	0.0079	Open
P3947	J32_5	J33_5	135.00	200.0	0.0050	0.0713	Open
P3948	J32_6	J32_7	135.00	300.0	0.0050	0.0211	Open
P3949	J32_6	J33_6	135.00	150.0	0.0050	0.0178	Open
P3950	J32_7	J32_8	135.00	250.0	0.0050	0.1251	Open
P3951	J32_7	J33_7	135.00	200.0	0.0050	0.0146	Open
P3952	J32_8	J32_9	135.00	250.0	0.0050	0.0981	Open
P3953	J32_8	J33_8	135.00	250.0	0.0050	0.0605	Open
P3954	J32_9	J32_10	135.00	200.0	0.0050	0.0424	Open
P3955	J32_9	J33_9	135.00	100.0	0.0050	0.1287	Open
P3956	J32_10	J32_11	135.00	250.0	0.0050	0.1052	Open
P3957	J32_10	J33_10	135.00	100.0	0.0050	0.0814	Open
P3958	J32_11	J32_12	135.00	350.0	0.0050	0.0470	Open
P3959	J32_11	J33_11	135.00	450.0	0.0050	0.0352	Open
P3960	J32_12	J32_13	135.00	250.0	0.0050	0.0156	Open
P3961	J32_12	J33_12	135.00	250.0	0.0050	0.1061	Open
P3962	J32_13	J32_14	135.00	200.0	0.0050	0.1103	Open
P3963	J32_13	J33_13	135.00	100.0	0.0050	0.0141	Open
P3964	J32_14	J32_15	135.00	150.0	0.0050	0.0513	Open
P3965	J32_14	J33_14	135.00	150.0	0.0050	0.0335	Open
P3966	J32_15	J32_16	135.00	300.0	0.0050	0.0878	Open
P3967	J32_15	J33_15	135.00	150.0	0.0050	0.0012	Open
P3968	J32_16	J32_17	135.00	200.0	0.0050	0.0004	Open
P3969	J32_16	J33_16	135.00	250.0	0.0050	0.1349	Open
P3970	J32_17	J32_18	135.00	150.0	0.0050	0.0467	Open
P3971	J32_17	J33_17	135.00	100.0	0.0050	0.0655	Open
P3972	J32_18	J32_19	135.00	150.0	0.0050	0.1173	Open
P3973	J32_18	J33_18	135.00	250.0	0.0050	0.0151	Open
P3974	J32_19	J32_20	135.00	100.0	0.0050	0.0556	Open
P3975	J32_19	J33_19	135.00	300.0	0.0050	0.1453	Open
P3976	J32_20	J32_21	135.00	100.0	0.0050	0.0448	Open
P3977	J32_20	J33_20	135.00	250.0	0.0050	0.0809	Open
P3978	J32_21	J32_22	135.00	450.0	0.0050	0.0455	Open
P3979	J32_21	J33_21	135.00	350.0	0.0050	0.0169	Open
P3980	J32_22	J32_23	135.00	300.0	0.0050	0.1148	Open
P3981	J32_22	J33_22	135.00	250.0	0.0050	0.1403	Open
P3982	J32_23	J32_24	135.00	300.0	0.0050	0.1367	Open
P3983	J32_23	J33_23	135.00	300.0	0.0050	0.0834	Open
P3984	J32_24	J32_25	135.00	300.0	0.0050	0.1484	Open
P3985	J32_24	J33_24	135.00	300.0	0.0050	0.0739	Open
P3986	J32_25	J32_26	135.00	300.0	0.0050	0.1116	Open
P3987	J32_25	J33_25	135.00	150.0	0.0050	0.0771	Open
P3988	J32_26	J32_27	135.00	150.0	0.0050	0.1455	Open
P3989	J32_26	J33_26	135.00	300.0	0.0050	0.0475	Open
P3990	J32_27	J32_28	135.00	100.0	0.0050	0.1308	Open
P3991	J32_27	J33_27	135.00	300.0	0.0050	0.0925	Open
P3992	J32_28	J32_29	135.00	150.0	0.0050	0.1043	Open
P3993	J32_28	J33_28	135.00	100.0	0.0050	0.0897	Open
P3994	J32_29	J32_30	135.00	150.0	0.0050	0.1490	Open
P3995	J32_29	J33_29	135.00	100.0	0.0050	0.1374	Open
P3996	J32_30	J32_31	135.00	250.0	0.0050	0.1492	Open
P3997	J32_30	J33_30	135.00	250.0	0.0050	0.1432	Open
P3998	J32_31	J32_32	135.00	600.0	0.0050	0.0361	Open
P3999	J32_31	J33_31	135.00	500.0	0.0050	0.0184	Open
P4000	J32_32	J32_33	135.00	300.0	0.0050	0.1332	Open
P4001	J32_32	J33_32	135.00	200.0	0.0050	0.0175	Open
P4002	J32_33	J32_34	135.00	200.0	0.0050	0.1313	Open
P4003	J32_33	J33_33	135.00	150.0	0.0050	0.0734	Open
P4004	J32_34	J32_35	135.00	100.0	0.0050	0.1451	Open
P4005	J32_34	J33_34	135.00	200.0	0.0050	0.1066	Open
P4006	J32_35	J32_36	135.00	150.0	0.0050	0.0923	Open
P4007	J32_35	J33_35	135.00	150.0	0.0050	0.1299	Open
P4008	J32_36	J32_37	135.00	300.0	0.0050	0.0457	Open
P4009	J32_36	J33_36	135.00	300.0	0.0050	0.1386	Open
P4010	J32_37	J32_38	135.00	100.0	0.0050	0.0913	Open
P4011	J32_37	J33_37	135.00	250.0	0.0050	0.0688	Open
P4012	J32_38	J32_39	135.00	300.0	0.0050	0.0240	Open
P4013	J32_38	J33_38	135.00	250.0	0.0050	0.1190	Open
P4014	J32_39	J32_40	135.00	300.0	0.0050	0.0292	Open
P4015	J32_39	J33_39	135.00	150.0	0.0050	0.0753	Open
P4016	J32_40	J32_41	135.00	300.0	0.0050	0.1186	Open
P4017	J32_40	J33_40	135.00	200.0	0.0050	0.0080	Open
P4018	J32_41	J32_42	135.00	600.0	0.0050	0.0255	Open
P4019	J32_41	J33_41	135.00	350.0	0.0050	0.0135	Open
P4020	J32_42	J32_43	135.00	250.0	0.0050	0.1464	Open
P4021	J32_42	J33_42	135.00	250.0	0.0050	0.0849	Open
P4022	J32_43	J32_44	135.00	300.0	0.0050	0.0142	Open
P4023	J32_43	J33_43	135.00	250.0	0.0050	0.0569	Open
P4024	J32_44	J32_45	135.00	150.0	0.0050	0.0663	Open
P4025	J32_44	J33_44	135.00	300.0	0.0050	0.0621	Open
P4026	J32_45	J32_46	135.00	200.0	0.0050	0.0276	Open
P4027	J32_45	J33_45	135.00	150.0	0.0050	0.0609	Open
P4028	J32_46	J32_47	135.00	300.0	0.0050	0.0585	Open
P4029	J32_46	J33_46	135.00	200.0	0.0050	0.0347	Open
P4030	J32_47	J32_48	135.00	300.0	0.0050	0.1261	Open
P4031	J32_47	J33_47	135.00	300.0	0.0050	0.0909	Open
P4032	J32_48	J32_49	135.00	100.0	0.0050	0.0991	Open
P4033	J32_48	J33_48	135.00	300.0	0.0050	0.0473	Open
P4034	J32_49	J32_50	135.00	100.0	0.0050	0.0969	Open
P4035	J32_49	J33_49	135.00	200.0	0.0050	0.0947	Open
P4036	J32_50	J32_51	135.00	100.0	0.0050	0.0509	Open
P4037	J32_50	J33_50	135.00	150.0	0.0050	0.1213	Open
P4038	J32_51	J32_52	135.00	600.0	0.0050	0.0434	Open
P4039	J32_51	J33_51	135.00	450.0	0.0050	0.0498	Open
P4040	J32_52	J32_53	135.00	300.0	0.0050	0.1098	Open
P4041	J32_52	J33_52	135.00	150.0	0.0050	0.0383	Open
P4042	J32_53	J32_54	135.00	200.0	0.0050	0.0590	Open
P4043	J32_53	J33_53	135.00	250.0	0.0050	0.1479	Open
P4044	J32_54	J32_55	135.00	100.0	0.0050	0.0918	Open
P4045	J32_54	J33_54	135.00	250.0	0.0050	0.0832	Open
P4046	J32_55	J32_56	135.00	250.0	0.0050	0.0781	Open
P4047	J32_55	J33_55	135.00	100.0	0.0050	0.0829	Open
P4048	J32_56	J32_57	135.00	250.0	0.0050	0.0947	Open
P4049	J32_56	J33_56	135.00	250.0	0.0050	0.0983	Open
P4050	J32_57	J32_58	135.00	150.0	0.0050	0.0312	Open
P4051	J32_57	J33_57	135.00	200.0	0.0050	0.0590	Open
P4052	J32_58	J32_59	135.00	200.0	0.0050	0.0323	Open
P4053	J32_58	J33_58	135.00	250.0	0.0050	0.1469	Open
P4054	J32_59	J32_60	135.00	150.0	0.0050	0.1459	Open
P4055	J32_59	J33_59	135.00	300.0	0.0050	0.0352	Open
P4056	J32_60	J32_61	135.00	200.0	0.0050	0.0340	Open
P4057	J32_60	J33_60	135.00	250.0	0.0050	0.0092	Open
P4058	J32_61	J32_62	135.00	500.0	0.0050	0.0282	Open
P4059	J32_61	J33_61	135.00	400.0	0.0050	0.0224	Open
P4060	J32_62	J32_63	135.00	300.0	0.0050	0.0319	Open
P4061	J32_62	J33_62	135.00	200.0	0.0050	0.0310	Open
P4062	J32_63	J32_64	135.00	150.0	0.0050	0.1088	Open
P4063	J32_63	J33_63	135.00	250.0	0.0050	0.1354	Open
P4064	J32_64	J33_64	135.00	100.0	0.0050	0.0541	Open
P4065	J33_1	J33_2	135.00	350.0	0.0050	0.0402	Open
P4066	J33_1	J34_1	135.00	600.0	0.0050	0.0091	Open
P4067	J33_2	J33_3	135.00	250.0	0.0050	0.0091	Open
P4068	J33_2	J34_2	135.00	300.0	0.0050	0.0797	Open
P4069	J33_3	J33_4	135.00	300.0	0.0050	0.0245	Open
P4070	J33_3	J34_3	135.00	150.0	0.0050	0.1345	Open
P4071	J33_4	J33_5	135.00	100.0	0.0050	0.1336	Open
P4072	J33_4	J34_4	135.00	100.0	0.0050	0.1491	Open
P4073	J33_5	J33_6	135.00	150.0	0.0050	0.0085	Open
P4074	J33_5	J34_5	135.00	300.0	0.0050	0.1213	Open
P4075	J33_6	J33_7	135.00	150.0	0.0050	0.0119	Open
P4076	J33_6	J34_6	135.00	250.0	0.0050	0.0010	Open
P4077	J33_7	J33_8	135.00	200.0	0.0050	0.0481	Open
P4078	J33_7	J34_7	135.00	150.0	0.0050	0.1446	Open
P4079	J33_8	J33_9	135.00	250.0	0.0050	0.1099	Open
P4080	J33_8	J34_8	135.00	250.0	0.0050	0.0202	Open
P4081	J33_9	J33_10	135.00	100.0	0.0050	0.0496	Open
P4082	J33_9	J34_9	135.00	150.0	0.0050	0.0897	Open
P4083	J33_10	J33_11	135.00	300.0	0.0050	0.0778	Open
P4084	J33_10	J34_10	135.00	300.0	0.0050	0.0248	Open
P4085	J33_11	J33_12	135.00	500.0	0.0050	0.0314	Open
P4086	J33_11	J34_11	135.00	350.0	0.0050	0.0103	Open
P4087	J33_12	J33_13	135.00	200.0	0.0050	0.0866	Open
P4088	J33_12	J34_12	135.00	250.0	0.0050	0.0069	Open
P4089	J33_13	J33_14	135.00	300.0	0.0050	0.0917	Open
P4090	J33_13	J34_13	135.00	100.0	0.0050	0.1390	Open
P4091	J33_14	J33_15	135.00	150.0	0.0050	0.0874	Open
P4092	J33_14	J34_14	135.00	200.0	0.0050	0.1219	Open
P4093	J33_15	J33_16	135.00	150.0	0.0050	0.0802	Open
P4094	J33_15	J34_15	135.00	100.0	0.0050	0.0194	Open
P4095	J33_16	J33_17	135.00	300.0	0.0050	0.0835	Open
P4096	J33_16	J34_16	135.00	300.0	0.0050	0.1094	Open
P4097	J33_17	J33_18	135.00	150.0	0.0050	0.0022	Open
P4098	J33_17	J34_17	135.00	200.0	0.0050	0.0672	Open
P4099	J33_18	J33_19	135.00	300.0	0.0050	0.0843	Open
P4100	J33_18	J34_18	135.00	250.0	0.0050	0.0367	Open
P4101	J33_19	J33_20	135.00	100.0	0.0050	0.1461	Open
P4102	J33_19	J34_19	135.00	250.0	0.0050	0.0140	Open
P4103	J33_20	J33_21	135.00	100.0	0.0050	0.0792	Open
P4104	J33_20	J34_20	135.00	100.0	0.0050	0.1164	Open
P4105	J33_21	J33_22	135.00	350.0	0.0050	0.0193	Open
P4106	J33_21	J34_21	135.00	500.0	0.0050	0.0458	Open
P4107	J33_22	J33_23	135.00	300.0	0.0050	0.0015	Open
P4108	J33_22	J34_22	135.00	300.0	0.0050	0.1478	Open
P4109	J33_23	J33_24	135.00	250.0	0.0050	0.1312	Open
P4110	J33_23	J34_23	135.00	250.0	0.0050	0.0572	Open
P4111	J33_24	J33_25	135.00	300.0	0.0050	0.0085	Open
P4112	J33_24	J34_24	135.00	100.0	0.0050	0.1084	Open
P4113	J33_25	J33_26	135.00	250.0	0.0050	0.0903	Open
P4114	J33_25	J34_25	135.00	250.0	0.0050	0.1293	Open
P4115	J33_26	J33_27	135.00	100.0	0.0050	0.0239	Open
P4116	J33_26	J34_26	135.00	200.0	0.0050	0.0080	Open
P4117	J33_27	J33_28	135.00	250.0	0.0050	0.1018	Open
P4118	J33_27	J34_27	135.00	200.0	0.0050	0.0003	Open
P4119	J33_28	J33_29	135.00	300.0	0.0050	0.0487	Open
P4120	J33_28	J34_28	135.00	300.0	0.0050	0.1275	Open
P4121	J33_29	J33_30	135.00	150.0	0.0050	0.0983	Open
P4122	J33_29	J34_29	135.00	100.0	0.0050	0.1349	Open
P4123	J33_30	J33_31	135.00	100.0	0.0050	0.0401	Open
P4124	J33_30	J34_30	135.00	200.0	0.0050	0.0948	Open
P4125	J33_31	J33_32	135.00	450.0	0.0050	0.0123	Open
P4126	J33_31	J34_31	135.00	600.0	0.0050	0.0280	Open
P4127	J33_32	J33_33	135.00	200.0	0.0050	0.1090	Open
P4128	J33_32	J34_32	135.00	300.0	0.0050	0.0597	Open
P4129	J33_33	J33_34	135.00	300.0	0.0050	0.0093	Open
P4130	J33_33	J34_33	135.00	150.0	0.0050	0.0477	Open
P4131	J33_34	J33_35	135.00	200.0	0.0050	0.0316	Open
P4132	J33_34	J34_34	135.00	300.0	0.0050	0.0350	Open
P4133	J33_35	J33_36	135.00	150.0	0.0050	0.1385	Open
P4134	J33_35	J34_35	135.00	300.0	0.0050	0.0739	Open
P4135	J33_36	J33_37	135.00	250.0	0.0050	0.0713	Open
P4136	J33_36	J34_36	135.00	200.0	0.0050	0.0506	Open
P4137	J33_37	J33_38	135.00	100.0	0.0050	0.0091	Open
P4138	J33_37	J34_37	135.00	250.0	0.0050	0.0297	Open
P4139	J33_38	J33_39	135.00	150.0	0.0050	0.0184	Open
P4140	J33_38	J34_38	135.00	250.0	0.0050	0.0437	Open
P4141	J33_39	J33_40	135.00	250.0	0.0050	0.0418	Open
P4142	J33_39	J34_39	135.00	100.0	0.0050	0.0509	Open
P4143	J33_40	J33_41	135.00	300.0	0.0050	0.0097	Open
P4144	J33_40	J34_40	135.00	100.0	0.0050	0.0572	Open
P4145	J33_41	J33_42	135.00	400.0	0.0050	0.0370	Open
P4146	J33_41	J34_41	135.00	300.0	0.0050	0.0012	Open
P4147	J33_42	J33_43	135.00	100.0	0.0050	0.0812	Open
P4148	J33_42	J34_42	135.00	300.0	0.0050	0.0240	Open
P4149	J33_43	J33_44	135.00	200.0	0.0050	0.0928	Open
P4150	J33_43	J34_43	135.00	250.0	0.0050	0.0236	Open
P4151	J33_44	J33_45	135.00	150.0	0.0050	0.0875	Open
P4152	J33_44	J34_44	135.00	250.0	0.0050	0.0619	Open
P4153	J33_45	J33_46	135.00	150.0	0.0050	0.0540	Open
P4154	J33_45	J34_45	135.00	250.0	0.0050	0.1412	Open
P4155	J33_46	J33_47	135.00	300.0	0.0050	0.0529	Open
P4156	J33_46	J34_46	135.00	200.0	0.0050	0.1414	Open
P4157	J33_47	J33_48	135.00	200.0	0.0050	0.0202	Open
P4158	J33_47	J34_47	135.00	200.0	0.0050	0.1278	Open
P4159	J33_48	J33_49	135.00	250.0	0.0050	0.0333	Open
P4160	J33_48	J34_48	135.00	100.0	0.0050	0.1216	Open
P4161	J33_49	J33_50	135.00	150.0	0.0050	0.1437	Open
P4162	J33_49	J34_49	135.00	150.0	0.0050	0.0533	Open
P4163	J33_50	J33_51	135.00	250.0	0.0050	0.0767	Open
P4164	J33_50	J34_50	135.00	200.0	0.0050	0.0035	Open
P4165	J33_51	J33_52	135.00	450.0	0.0050	0.0170	Open
P4166	J33_51	J34_51	135.00	400.0	0.0050	0.0488	Open
P4167	J33_52	J33_53	135.00	250.0	0.0050	0.0060	Open
P4168	J33_52	J34_52	135.00	250.0	0.0050	0.0608	Open
P4169	J33_53	J33_54	135.00	150.0	0.0050	0.0302	Open
P4170	J33_53	J34_53	135.00	150.0	0.0050	0.0548	Open
P4171	J33_54	J33_55	135.00	300.0	0.0050	0.0032	Open
P4172	J33_54	J34_54	135.00	100.0	0.0050	0.1492	Open
P4173	J33_55	J33_56	135.00	150.0	0.0050	0.0441	Open
P4174	J33_55	J34_55	135.00	100.0	0.0050	0.1091	Open
P4175	J33_56	J33_57	135.00	150.0	0.0050	0.0454	Open
P4176	J33_56	J34_56	135.00	100.0	0.0050	0.1078	Open
P4177	J33_57	J33_58	135.00	250.0	0.0050	0.0648	Open
P4178	J33_57	J34_57	135.00	250.0	0.0050	0.1429	Open
P4179	J33_58	J33_59	135.00	300.0	0.0050	0.0312	Open
P4180	J33_58	J34_58	135.00	100.0	0.0050	0.0167	Open
P4181	J33_59	J33_60	135.00	300.0	0.0050	0.0609	Open
P4182	J33_59	J34_59	135.00	250.0	0.0050	0.1430	Open
P4183	J33_60	J33_61	135.00	100.0	0.0050	0.0840	Open
P4184	J33_60	J34_60	135.00	100.0	0.0050	0.0509	Open
P4185	J33_61	J33_62	135.00	450.0	0.0050	0.0030	Open
P4186	J33_61	J34_61	135.00	600.0	0.0050	0.0326	Open
P4187	J33_62	J33_63	135.00	300.0	0.0050	0.0883	Open
P4188	J33_62	J34_62	135.00	200.0	0.0050	0.1460	Open
P4189	J33_63	J33_64	135.00	300.0	0.0050	0.0231	Open
P4190	J33_63	J34_63	135.00	100.0	0.0050	0.1333	Open
P4191	J33_64	J34_64	135.00	100.0	0.0050	0.0199	Open
P4192	J34_1	J34_2	135.00	600.0	0.0050	0.0447	Open
P4193	J34_1	J35_1	135.00	400.0	0.0050	0.0067	Open
P4194	J34_2	J34_3	135.00	250.0	0.0050	0.1417	Open
P4195	J34_2	J35_2	135.00	100.0	0.0050	0.0535	Open
P4196	J34_3	J34_4	135.00	150.0	0.0050	0.1367	Open
P4197	J34_3	J35_3	135.00	300.0	0.0050	0.0649	Open
P4198	J34_4	J34_5	135.00	200.0	0.0050	0.0765	Open
P4199	J34_4	J35_4	135.00	150.0	0.0050	0.1298	Open
P4200	J34_5	J34_6	135.00	150.0	0.0050	0.1285	Open
P4201	J34_5	J35_5	135.00	100.0	0.0050	0.0820	Open
P4202	J34_6	J34_7	135.00	100.0	0.0050	0.1437	Open
P4203	J34_6	J35_6	135.00	250.0	0.0050	0.1142	Open
P4204	J34_7	J34_8	135.00	150.0	0.0050	0.0012	Open
P4205	J34_7	J35_7	135.00	100.0	0.0050	0.0745	Open
P4206	J34_8	J34_9	135.00	100.0	0.0050	0.0554	Open
P4207	J34_8	J35_8	135.00	200.0	0.0050	0.1078	Open
P4208	J34_9	J34_10	135.00	250.0	0.0050	0.1457	Open
P4209	J34_9	J35_9	135.00	200.0	0.0050	0.0890	Open
P4210	J34_10	J34_11	135.00	150.0	0.0050	0.0157	Open
P4211	J34_10	J35_10	135.00	150.0	0.0050	0.0765	Open
P4212	J34_11	J34_12	135.00	350.0	0.0050	0.0070	Open
P4213	J34_11	J35_11	135.00	450.0	0.0050	0.0441	Open
P4214	J34_12	J34_13	135.00	200.0	0.0050	0.1411	Open
P4215	J34_12	J35_12	135.00	300.0	0.0050	0.1044	Open
P4216	J34_13	J34_14	135.00	300.0	0.0050	0.0796	Open
P4217	J34_13	J35_13	135.00	150.0	0.0050	0.1191	Open
P4218	J34_14	J34_15	135.00	150.0	0.0050	0.0614	Open
P4219	J34_14	J35_14	135.00	250.0	0.0050	0.0478	Open
P4220	J34_15	J34_16	135.00	200.0	0.0050	0.0675	Open
P4221	J34_15	J35_15	135.00	250.0	0.0050	0.1202	Open
P4222	J34_16	J34_17	135.00	200.0	0.0050	0.0795	Open
P4223	J34_16	J35_16	135.00	200.0	0.0050	0.1381	Open
P4224	J34_17	J34_18	135.00	100.0	0.0050	0.0937	Open
P4225	J34_17	J35_17	135.00	250.0	0.0050	0.0539	Open
P4226	J34_18	J34_19	135.00	300.0	0.0050	0.0216	Open
P4227	J34_18	J35_18	135.00	300.0	0.0050	0.0835	Open
P4228	J34_19	J34_20	135.00	300.0	0.0050	0.1020	Open
P4229	J34_19	J35_19	135.00	250.0	0.0050	0.1414	Open
P4230	J34_20	J34_21	135.00	150.0	0.0050	0.0574	Open
P4231	J34_20	J35_20	135.00	300.0	0.0050	0.0555	Open
P4232	J34_21	J34_22	135.00	350.0	0.0050	0.0310	Open
P4233	J34_21	J35_21	135.00	400.0	0.0050	0.0433	Open
P4234	J34_22	J34_23	135.00	200.0	0.0050	0.0576	Open
P4235	J34_22	J35_22	135.00	100.0	0.0050	0.1038	Open
P4236	J34_23	J34_24	135.00	150.0	0.0050	0.0415	Open
P4237	J34_23	J35_23	135.00	200.0	0.0050	0.0091	Open
P4238	J34_24	J34_25	135.00	150.0	0.0050	0.0013	Open
P4239	J34_24	J35_24	135.00	100.0	0.0050	0.1162	Open
P4240	J34_25	J34_26	135.00	100.0	0.0050	0.0814	Open
P4241	J34_25	J35_25	135.00	250.0	0.0050	0.1430	Open
P4242	J34_26	J34_27	135.00	100.0	0.0050	0.0497	Open
P4243	J34_26	J35_26	135.00	100.0	0.0050	0.0627	Open
P4244	J34_27	J34_28	135.00	300.0	0.0050	0.1291	Open
P4245	J34_27	J35_27	135.00	200.0	0.0050	0.1425	Open
P4246	J34_28	J34_29	135.00	300.0	0.0050	0.0547	Open
P4247	J34_28	J35_28	135.00	300.0	0.0050	0.1342	Open
P4248	J34_29	J34_30	135.00	150.0	0.0050	0.0914	Open
P4249	J34_29	J35_29	135.00	250.0	0.0050	0.0127	Open
P4250	J34_30	J34_31	135.00	150.0	0.0050	0.0267	Open
P4251	J34_30	J35_30	135.00	250.0	0.0050	0.1205	Open
P4252	J34_31	J34_32	135.00	300.0	0.0050	0.0137	Open
P4253	J34_31	J35_31	135.00	450.0	0.0050	0.0006	Open
P4254	J34_32	J34_33	135.00	200.0	0.0050	0.0300	Open
P4255	J34_32	J35_32	135.00	250.0	0.0050	0.1430	Open
P4256	J34_33	J34_34	135.00	100.0	0.0050	0.0646	Open
P4257	J34_33	J35_33	135.00	100.0	0.0050	0.0588	Open
P4258	J34_34	J34_35	135.00	200.0	0.0050	0.1369	Open
P4259	J34_34	J35_34	135.00	300.0	0.0050	0.0622	Open
P4260	J34_35	J34_36	135.00	250.0	0.0050	0.0448	Open
P4261	J34_35	J35_35	135.00	100.0	0.0050	0.0048	Open
P4262	J34_36	J34_37	135.00	300.0	0.0050	0.0339	Open
P4263	J34_36	J35_36	135.00	300.0	0.0050	0.1317	Open
P4264	J34_37	J34_38	135.00	200.0	0.0050	0.1251	Open
P4265	J34_37	J35_37	135.00	300.0	0.0050	0.1399	Open
P4266	J34_38	J34_39	135.00	100.0	0.0050	0.1305	Open
P4267	J34_38	J35_38	135.00	100.0	0.0050	0.1020	Open
P4268	J34_39	J34_40	135.00	100.0	0.0050	0.0858	Open
P4269	J34_39	J35_39	135.00	250.0	0.0050	0.0829	Open
P4270	J34_40	J34_41	135.00	300.0	0.0050	0.0050	Open
P4271	J34_40	J35_40	135.00	250.0	0.0050	0.0401	Open
P4272	J34_41	J34_42	135.00	500.0	0.0050	0.0275	Open
P4273	J34_41	J35_41	135.00	600.0	0.0050	0.0317	Open
P4274	J34_42	J34_43	135.00	200.0	0.0050	0.1165	Open
P4275	J34_42	J35_42	135.00	200.0	0.0050	0.0293	Open
P4276	J34_43	J34_44	135.00	250.0	0.0050	0.0682	Open
P4277	J34_43	J35_43	135.00	150.0	0.0050	0.0206	Open
P4278	J34_44	J34_45	135.00	250.0	0.0050	0.1293	Open
P4279	J34_44	J35_44	135.00	250.0	0.0050	0.0691	Open
P4280	J34_45	J34_46	135.00	250.0	0.0050	0.0075	Open
P4281	J34_45	J35_45	135.00	250.0	0.0050	0.0198	Open
P4282	J34_46	J34_47	135.00	200.0	0.0050	0.0730	Open
P4283	J34_46	J35_46	135.00	200.0	0.0050	0.0005	Open
P4284	J34_47	J34_48	135.00	100.0	0.0050	0.0845	Open
P4285	J34_47	J35_47	135.00	300.0	0.0050	0.1264	Open
P4286	J34_48	J34_49	135.00	300.0	0.0050	0.1376	Open
P4287	J34_48	J35_48	135.00	100.0	0.0050	0.1091	Open
P4288	J34_49	J34_50	135.00	250.0	0.0050	0.0719	Open
P4289	J34_49	J35_49	135.00	150.0	0.0050	0.0980	Open
P4290	J34_50	J34_51	135.00	150.0	0.0050	0.0590	Open
P4291	J34_50	J35_50	135.00	100.0	0.0050	0.1041	Open
P4292	J34_51	J34_52	135.00	300.0	0.0050	0.0036	Open
P4293	J34_51	J35_51	135.00	600.0	0.0050	0.0016	Open
P4294	J34_52	J34_53	135.00	150.0	0.0050	0.1173	Open
P4295	J34_52	J35_52	135.00	250.0	0.0050	0.1005	Open
P4296	J34_53	J34_54	135.00	250.0	0.0050	0.1207	Open
P4297	J34_53	J35_53	135.00	200.0	0.0050	0.0081	Open
P4298	J34_54	J34_55	135.00	200.0	0.0050	0.0310	Open
P4299	J34_54	J35_54	135.00	200.0	0.0050	0.1423	Open
P4300	J34_55	J34_56	135.00	100.0	0.0050	0.0072	Open
P4301	J34_55	J35_55	135.00	100.0	0.0050	0.1012	Open
P4302	J34_56	J34_57	135.00	250.0	0.0050	0.0992	Open
P4303	J34_56	J35_56	135.00	150.0	0.0050	0.0688	Open
P4304	J34_57	J34_58	135.00	150.0	0.0050	0.0154	Open
P4305	J34_57	J35_57	135.00	250.0	0.0050	0.0762	Open
P4306	J34_58	J34_59	135.00	250.0	0.0050	0.1457	Open
P4307	J34_58	J35_58	135.00	300.0	0.0050	0.0534	Open
P4308	J34_59	J34_60	135.00	200.0	0.0050	0.0305	Open
P4309	J34_59	J35_59	135.00	250.0	0.0050	0.0696	Open
P4310	J34_60	J34_61	135.00	100.0	0.0050	0.0530	Open
P4311	J34_60	J35_60	135.00	250.0	0.0050	0.0493	Open
P4312	J34_61	J34_62	135.00	500.0	0.0050	0.0356	Open
P4313	J34_61	J35_61	135.00	500.0	0.0050	0.0023	Open
P4314	J34_62	J34_63	135.00	200.0	0.0050	0.1172	Open
P4315	J34_62	J35_62	135.00	250.0	0.0050	0.1321	Open
P4316	J34_63	J34_64	135.00	250.0	0.0050	0.1265	Open
P4317	J34_63	J35_63	135.00	200.0	0.0050	0.1391	Open
P4318	J34_64	J35_64	135.00	250.0	0.0050	0.0573	Open
P4319	J35_1	J35_2	135.00	350.0	0.0050	0.0176	Open
P4320	J35_1	J36_1	135.00	500.0	0.0050	0.0490	Open
P4321	J35_2	J35_3	135.00	150.0	0.0050	0.1384	Open
P4322	J35_2	J36_2	135.00	200.0	0.0050	0.0073	Open
P4323	J35_3	J35_4	135.00	100.0	0.0050	0.0675	Open
P4324	J35_3	J36_3	135.00	200.0	0.0050	0.1444	Open
P4325	J35_4	J35_5	135.00	300.0	0.0050	0.0367	Open
P4326	J35_4	J36_4	135.00	100.0	0.0050	0.0062	Open
P4327	J35_5	J35_6	135.00	200.0	0.0050	0.0477	Open
P4328	J35_5	J36_5	135.00	150.0	0.0050	0.0428	Open
P4329	J35_6	J35_7	135.00	250.0	0.0050	0.0540	Open
P4330	J35_6	J36_6	135.00	300.0	0.0050	0.0424	Open
P4331	J35_7	J35_8	135.00	250.0	0.0050	0.0077	Open
P4332	J35_7	J36_7	135.00	150.0	0.0050	0.0414	Open
P4333	J35_8	J35_9	135.00	300.0	0.0050	0.1449	Open
P4334	J35_8	J36_8	135.00	100.0	0.0050	0.0205	Open
P4335	J35_9	J35_10	135.00	150.0	0.0050	0.0265	Open
P4336	J35_9	J36_9	135.00	200.0	0.0050	0.1092	Open
P4337	J35_10	J35_11	135.00	100.0	0.0050	0.1269	Open
P4338	J35_10	J36_10	135.00	300.0	0.0050	0.0991	Open
P4339	J35_11	J35_12	135.00	450.0	0.0050	0.0487	Open
P4340	J35_11	J36_11	135.00	300.0	0.0050	0.0124	Open
P4341	J35_12	J35_13	135.00	100.0	0.0050	0.0919	Open
P4342	J35_12	J36_12	135.00	300.0	0.0050	0.0437	Open
P4343	J35_13	J35_14	135.00	100.0	0.0050	0.0985	Open
P4344	J35_13	J36_13	135.00	150.0	0.0050	0.1366	Open
P4345	J35_14	J35_15	135.00	100.0	0.0050	0.0949	Open
P4346	J35_14	J36_14	135.00	300.0	0.0050	0.1128	Open
P4347	J35_15	J35_16	135.00	200.0	0.0050	0.1345	Open
P4348	J35_15	J36_15	135.00	250.0	0.0050	0.1036	Open
P4349	J35_16	J35_17	135.00	100.0	0.0050	0.0935	Open
P4350	J35_16	J36_16	135.00	150.0	0.0050	0.1212	Open
P4351	J35_17	J35_18	135.00	250.0	0.0050	0.0412	Open
P4352	J35_17	J36_17	135.00	200.0	0.0050	0.1430	Open
P4353	J35_18	J35_19	135.00	300.0	0.0050	0.0483	Open
P4354	J35_18	J36_18	135.00	300.0	0.0050	0.0443	Open
P4355	J35_19	J35_20	135.00	200.0	0.0050	0.0680	Open
P4356	J35_19	J36_19	135.00	300.0	0.0050	0.0998	Open
P4357	J35_20	J35_21	135.00	100.0	0.0050	0.0637	Open
P4358	J35_20	J36_20	135.00	200.0	0.0050	0.0861	Open
P4359	J35_21	J35_22	135.00	350.0	0.0050	0.0464	Open
P4360	J35_21	J36_21	135.00	300.0	0.0050	0.0395	Open
P4361	J35_22	J35_23	135.00	200.0	0.0050	0.0897	Open
P4362	J35_22	J36_22	135.00	200.0	0.0050	0.1091	Open
P4363	J35_23	J35_24	135.00	150.0	0.0050	0.0446	Open
P4364	J35_23	J36_23	135.00	100.0	0.0050	0.1002	Open
P4365	J35_24	J35_25	135.00	150.0	0.0050	0.1306	Open
P4366	J35_24	J36_24	135.00	100.0	0.0050	0.0921	Open
P4367	J35_25	J35_26	135.00	100.0	0.0050	0.0434	Open
P4368	J35_25	J36_25	135.00	150.0	0.0050	0.0392	Open
P4369	J35_26	J35_27	135.00	300.0	0.0050	0.0763	Open
P4370	J35_26	J36_26	135.00	100.0	0.0050	0.1208	Open
P4371	J35_27	J35_28	135.00	250.0	0.0050	0.0111	Open
P4372	J35_27	J36_27	135.00	100.0	0.0050	0.0000	Open
P4373	J35_28	J35_29	135.00	300.0	0.0050	0.0947	Open
P4374	J35_28	J36_28	135.00	100.0	0.0050	0.0694	Open
P4375	J35_29	J35_30	135.00	100.0	0.0050	0.0380	Open
P4376	J35_29	J36_29	135.00	200.0	0.0050	0.0257	Open
P4377	J35_30	J35_31	135.00	150.0	0.0050	0.0955	Open
P4378	J35_30	J36_30	135.00	250.0	0.0050	0.1119	Open
P4379	J35_31	J35_32	135.00	300.0	0.0050	0.0073	Open
P4380	J35_31	J36_31	135.00	450.0	0.0050	0.0067	Open
P4381	J35_32	J35_33	135.00	150.0	0.0050	0.1456	Open
P4382	J35_32	J36_32	135.00	150.0	0.0050	0.0759	Open
P4383	J35_33	J35_34	135.00	100.0	0.0050	0.0646	Open
P4384	J35_33	J36_33	135.00	100.0	0.0050	0.1172	Open
P4385	J35_34	J35_35	135.00	150.0	0.0050	0.0478	Open
P4386	J35_34	J36_34	135.00	100.0	0.0050	0.0721	Open
P4387	J35_35	J35_36	135.00	100.0	0.0050	0.0914	Open
P4388	J35_35	J36_35	135.00	250.0	0.0050	0.0856	Open
P4389	J35_36	J35_37	135.00	250.0	0.0050	0.0749	Open
P4390	J35_36	J36_36	135.00	250.0	0.0050	0.0546	Open
P4391	J35_37	J35_38	135.00	100.0	0.0050	0.1096	Open
P4392	J35_37	J36_37	135.00	100.0	0.0050	0.0620	Open
P4393	J35_38	J35_39	135.00	300.0	0.0050	0.1383	Open
P4394	J35_38	J36_38	135.00	300.0	0.0050	0.0354	Open
P4395	J35_39	J35_40	135.00	150.0	0.0050	0.0585	Open
P4396	J35_39	J36_39	135.00	200.0	0.0050	0.1448	Open
P4397	J35_40	J35_41	135.00	150.0	0.0050	0.0133	Open
P4398	J35_40	J36_40	135.00	200.0	0.0050	0.1120	Open
P4399	J35_41	J35_42	135.00	500.0	0.0050	0.0170	Open
P4400	J35_41	J36_41	135.00	400.0	0.0050	0.0271	Open
P4401	J35_42	J35_43	135.00	150.0	0.0050	0.0277	Open
P4402	J35_42	J36_42	135.00	250.0	0.0050	0.0168	Open
P4403	J35_43	J35_44	135.00	150.0	0.0050	0.0621	Open
P4404	J35_43	J36_43	135.00	250.0	0.0050	0.0341	Open
P4405	J35_44	J35_45	135.00	200.0	0.0050	0.0966	Open
P4406	J35_44	J36_44	135.00	100.0	0.0050	0.0434	Open
P4407	J35_45	J35_46	135.00	100.0	0.0050	0.1401	Open
P4408	J35_45	J36_45	135.00	250.0	0.0050	0.1216	Open
P4409	J35_46	J35_47	135.00	150.0	0.0050	0.1056	Open
P4410	J35_46	J36_46	135.00	150.0	0.0050	0.0852	Open
P4411	J35_47	J35_48	135.00	100.0	0.0050	0.0771	Open
P4412	J35_47	J36_47	135.00	150.0	0.0050	0.0430	Open
P4413	J35_48	J35_49	135.00	300.0	0.0050	0.0011	Open
P4414	J35_48	J36_48	135.00	100.0	0.0050	0.0977	Open
P4415	J35_49	J35_50	135.00	250.0	0.0050	0.0195	Open
P4416	J35_49	J36_49	135.00	300.0	0.0050	0.0585	Open
P4417	J35_50	J35_51	135.00	300.0	0.0050	0.0643	Open
P4418	J35_50	J36_50	135.00	300.0	0.0050	0.0677	Open
P4419	J35_51	J35_52	135.00	350.0	0.0050	0.0487	Open
P4420	J35_51	J36_51	135.00	350.0	0.0050	0.0342	Open
P4421	J35_52	J35_53	135.00	250.0	0.0050	0.1363	Open
P4422	J35_52	J36_52	135.00	200.0	0.0050	0.0521	Open
P4423	J35_53	J35_54	135.00	150.0	0.0050	0.0003	Open
P4424	J35_53	J36_53	135.00	200.0	0.0050	0.1435	Open
P4425	J35_54	J35_55	135.00	300.0	0.0050	0.0260	Open
P4426	J35_54	J36_54	135.00	150.0	0.0050	0.1387	Open
P4427	J35_55	J35_56	135.00	250.0	0.0050	0.0415	Open
P4428	J35_55	J36_55	135.00	300.0	0.0050	0.0096	Open
P4429	J35_56	J35_57	135.00	150.0	0.0050	0.1138	Open
P4430	J35_56	J36_56	135.00	200.0	0.0050	0.1020	Open
P4431	J35_57	J35_58	135.00	200.0	0.0050	0.1113	Open
P4432	J35_57	J36_57	135.00	300.0	0.0050	0.0388	Open
P4433	J35_58	J35_59	135.00	250.0	0.0050	0.0850	Open
P4434	J35_58	J36_58	135.00	250.0	0.0050	0.1473	Open
P4435	J35_59	J35_60	135.00	250.0	0.0050	0.0505	Open
P4436	J35_59	J36_59	135.00	100.0	0.0050	0.0551	Open
P4437	J35_60	J35_61	135.00	200.0	0.0050	0.0073	Open
P4438	J35_60	J36_60	135.00	250.0	0.0050	0.1239	Open
P4439	J35_61	J35_62	135.00	300.0	0.0050	0.0389	Open
P4440	J35_61	J36_61	135.00	400.0	0.0050	0.0326	Open
P4441	J35_62	J35_63	135.00	300.0	0.0050	0.0565	Open
P4442	J35_62	J36_62	135.00	100.0	0.0050	0.0867	Open
P4443	J35_63	J35_64	135.00	100.0	0.0050	0.0560	Open
P4444	J35_63	J36_63	135.00	100.0	0.0050	0.1100	Open
P4445	J35_64	J36_64	135.00	250.0	0.0050	0.1001	Open
P4446	J36_1	J36_2	135.00	450.0	0.0050	0.0119	Open
P4447	J36_1	J37_1	135.00	300.0	0.0050	0.0155	Open
P4448	J36_2	J36_3	135.00	300.0	0.0050	0.1269	Open
P4449	J36_2	J37_2	135.00	200.0	0.0050	0.0278	Open
P4450	J36_3	J36_4	135.00	150.0	0.0050	0.0436	Open
P4451	J36_3	J37_3	135.00	250.0	0.0050	0.0576	Open
P4452	J36_4	J36_5	135.00	200.0	0.0050	0.1383	Open
P4453	J36_4	J37_4	135.00	150.0	0.0050	0.1102	Open
P4454	J36_5	J36_6	135.00	200.0	0.0050	0.0100	Open
P4455	J36_5	J37_5	135.00	250.0	0.0050	0.1266	Open
P4456	J36_6	J36_7	135.00	200.0	0.0050	0.0472	Open
P4457	J36_6	J37_6	135.00	250.0	0.0050	0.1371	Open
P4458	J36_7	J36_8	135.00	200.0	0.0050	0.0506	Open
P4459	J36_7	J37_7	135.00	250.0	0.0050	0.1262	Open
P4460	J36_8	J36_9	135.00	250.0	0.0050	0.0879	Open
P4461	J36_8	J37_8	135.00	150.0	0.0050	0.1468	Open
P4462	J36_9	J36_10	135.00	100.0	0.0050	0.1109	Open
P4463	J36_9	J37_9	135.00	200.0	0.0050	0.0680	Open
P4464	J36_10	J36_11	135.00	150.0	0.0050	0.0916	Open
P4465	J36_10	J37_10	135.00	200.0	0.0050	0.0501	Open
P4466	J36_11	J36_12	135.00	600.0	0.0050	0.0076	Open
P4467	J36_11	J37_11	135.00	300.0	0.0050	0.0278	Open
P4468	J36_12	J36_13	135.00	300.0	0.0050	0.1324	Open
P4469	J36_12	J37_12	135.00	250.0	0.0050	0.0207	Open
P4470	J36_13	J36_14	135.00	100.0	0.0050	0.0573	Open
P4471	J36_13	J37_13	135.00	100.0	0.0050	0.0116	Open
P4472	J36_14	J36_15	135.00	200.0	0.0050	0.0291	Open
P4473	J36_14	J37_14	135.00	150.0	0.0050	0.1136	Open
P4474	J36_15	J36_16	135.00	300.0	0.0050	0.0979	Open
P4475	J36_15	J37_15	135.00	100.0	0.0050	0.1091	Open
P4476	J36_16	J36_17	135.00	300.0	0.0050	0.0094	Open
P4477	J36_16	J37_16	135.00	250.0	0.0050	0.1205	Open
P4478	J36_17	J36_18	135.00	200.0	0.0050	0.0218	Open
P4479	J36_17	J37_17	135.00	100.0	0.0050	0.1282	Open
P4480	J36_18	J36_19	135.00	150.0	0.0050	0.0165	Open
P4481	J36_18	J37_18	135.00	200.0	0.0050	0.0924	Open
P4482	J36_19	J36_20	135.00	200.0	0.0050	0.0911	Open
P4483	J36_19	J37_19	135.00	100.0	0.0050	0.1449	Open
P4484	J36_20	J36_21	135.00	200.0	0.0050	0.1068	Open
P4485	J36_20	J37_20	135.00	200.0	0.0050	0.0518	Open
P4486	J36_21	J36_22	135.00	400.0	0.0050	0.0088	Open
P4487	J36_21	J37_21	135.00	400.0	0.0050	0.0412	Open
P4488	J36_22	J36_23	135.00	200.0	0.0050	0.1037	Open
P4489	J36_22	J37_22	135.00	300.0	0.0050	0.1173	Open
P4490	J36_23	J36_24	135.00	250.0	0.0050	0.1226	Open
P4491	J36_23	J37_23	135.00	150.0	0.0050	0.1492	Open
P4492	J36_24	J36_25	135.00	150.0	0.0050	0.1155	Open
P4493	J36_24	J37_24	135.00	100.0	0.0050	0.0358	Open
P4494	J36_25	J36_26	135.00	100.0	0.0050	0.1018	Open
P4495	J36_25	J37_25	135.00	200.0	0.0050	0.0191	Open
P4496	J36_26	J36_27	135.00	100.0	0.0050	0.0021	Open
P4497	J36_26	J37_26	135.00	200.0	0.0050	0.0243	Open
P4498	J36_27	J36_28	135.00	100.0	0.0050	0.0499	Open
P4499	J36_27	J37_27	135.00	100.0	0.0050	0.1367	Open
P4500	J36_28	J36_29	135.00	250.0	0.0050	0.0963	Open
P4501	J36_28	J37_28	135.00	150.0	0.0050	0.0821	Open
P4502	J36_29	J36_30	135.00	200.0	0.0050	0.0699	Open
P4503	J36_29	J37_29	135.00	150.0	0.0050	0.0885	Open
P4504	J36_30	J36_31	135.00	250.0	0.0050	0.0688	Open
P4505	J36_30	J37_30	135.00	200.0	0.0050	0.0110	Open
P4506	J36_31	J36_32	135.00	350.0	0.0050	0.0394	Open
P4507	J36_31	J37_31	135.00	600.0	0.0050	0.0301	Open
P4508	J36_32	J36_33	135.00	100.0	0.0050	0.0534	Open
P4509	J36_32	J37_32	135.00	250.0	0.0050	0.1369	Open
P4510	J36_33	J36_34	135.00	250.0	0.0050	0.1464	Open
P4511	J36_33	J37_33	135.00	200.0	0.0050	0.0100	Open
P4512	J36_34	J36_35	135.00	300.0	0.0050	0.1001	Open
P4513	J36_34	J37_34	135.00	200.0	0.0050	0.0417	Open
P4514	J36_35	J36_36	135.00	300.0	0.0050	0.0079	Open
P4515	J36_35	J37_35	135.00	300.0	0.0050	0.1021	Open
P4516	J36_36	J36_37	135.00	150.0	0.0050	0.0990	Open
P4517	J36_36	J37_36	135.00	250.0	0.0050	0.1459	Open
P4518	J36_37	J36_38	135.00	300.0	0.0050	0.0197	Open
P4519	J36_37	J37_37	135.00	200.0	0.0050	0.0396	Open
P4520	J36_38	J36_39	135.00	250.0	0.0050	0.0485	Open
P4521	J36_38	J37_38	135.00	150.0	0.0050	0.0357	Open
P4522	J36_39	J36_40	135.00	100.0	0.0050	0.1114	Open
P4523	J36_39	J37_39	135.00	200.0	0.0050	0.0071	Open
P4524	J36_40	J36_41	135.00	150.0	0.0050	0.0996	Open
P4525	J36_40	J37_40	135.00	200.0	0.0050	0.0286	Open
P4526	J36_41	J36_42	135.00	400.0	0.0050	0.0096	Open
P4527	J36_41	J37_41	135.00	450.0	0.0050	0.0235	Open
P4528	J36_42	J36_43	135.00	300.0	0.0050	0.0440	Open
P4529	J36_42	J37_42	135.00	300.0	0.0050	0.1289	Open
P4530	J36_43	J36_44	135.00	300.0	0.0050	0.0430	Open
P4531	J36_43	J37_43	135.00	150.0	0.0050	0.1410	Open
P4532	J36_44	J36_45	135.00	150.0	0.0050	0.0382	Open
P4533	J36_44	J37_44	135.00	250.0	0.0050	0.0857	Open
P4534	J36_45	J36_46	135.00	100.0	0.0050	0.1080	Open
P4535	J36_45	J37_45	135.00	200.0	0.0050	0.0987	Open
P4536	J36_46	J36_47	135.00	250.0	0.0050	0.0544	Open
P4537	J36_46	J37_46	135.00	300.0	0.0050	0.0827	Open
P4538	J36_47	J36_48	135.00	200.0	0.0050	0.0771	Open
P4539	J36_47	J37_47	135.00	100.0	0.0050	0.1437	Open
P4540	J36_48	J36_49	135.00	300.0	0.0050	0.0870	Open
P4541	J36_48	J37_48	135.00	250.0	0.0050	0.1134	Open
P4542	J36_49	J36_50	135.00	150.0	0.0050	0.0391	Open
P4543	J36_49	J37_49	135.00	150.0	0.0050	0.1036	Open
P4544	J36_50	J36_51	135.00	150.0	0.0050	0.0644	Open
P4545	J36_50	J37_50	135.00	200.0	0.0050	0.1318	Open
P4546	J36_51	J36_52	135.00	350.0	0.0050	0.0499	Open
P4547	J36_51	J37_51	135.00	400.0	0.0050	0.0407	Open
P4548	J36_52	J36_53	135.00	200.0	0.0050	0.0260	Open
P4549	J36_52	J37_52	135.00	250.0	0.0050	0.0780	Open
P4550	J36_53	J36_54	135.00	200.0	0.0050	0.0963	Open
P4551	J36_53	J37_53	135.00	300.0	0.0050	0.0700	Open
P4552	J36_54	J36_55	135.00	200.0	0.0050	0.1007	Open
P4553	J36_54	J37_54	135.00	250.0	0.0050	0.0187	Open
P4554	J36_55	J36_56	135.00	200.0	0.0050	0.0035	Open
P4555	J36_55	J37_55	135.00	100.0	0.0050	0.0033	Open
P4556	J36_56	J36_57	135.00	100.0	0.0050	0.0939	Open
P4557	J36_56	J37_56	135.00	100.0	0.0050	0.0626	Open
P4558	J36_57	J36_58	135.00	150.0	0.0050	0.1251	Open
P4559	J36_57	J37_57	135.00	150.0	0.0050	0.0768	Open
P4560	J36_58	J36_59	135.00	300.0	0.0050	0.1316	Open
P4561	J36_58	J37_58	135.00	200.0	0.0050	0.0811	Open
P4562	J36_59	J36_60	135.00	150.0	0.0050	0.0278	Open
P4563	J36_59	J37_59	135.00	100.0	0.0050	0.0542	Open
P4564	J36_60	J36_61	135.00	300.0	0.0050	0.0884	Open
P4565	J36_60	J37_60	135.00	200.0	0.0050	0.0802	Open
P4566	J36_61	J36_62	135.00	600.0	0.0050	0.0299	Open
P4567	J36_61	J37_61	135.00	350.0	0.0050	0.0160	Open
P4568	J36_62	J36_63	135.00	100.0	0.0050	0.0076	Open
P4569	J36_62	J37_62	135.00	200.0	0.0050	0.0955	Open
P4570	J36_63	J36_64	135.00	200.0	0.0050	0.0750	Open
P4571	J36_63	J37_63	135.00	250.0	0.0050	0.0796	Open
P4572	J36_64	J37_64	135.00	200.0	0.0050	0.0479	Open
P4573	J37_1	J37_2	135.00	400.0	0.0050	0.0483	Open
P4574	J37_1	J38_1	135.00	400.0	0.0050	0.0010	Open
P4575	J37_2	J37_3	135.00	150.0	0.0050	0.0522	Open
P4576	J37_2	J38_2	135.00	100.0	0.0050	0.0689	Open
P4577	J37_3	J37_4	135.00	100.0	0.0050	0.0640	Open
P4578	J37_3	J38_3	135.00	100.0	0.0050	0.0152	Open
P4579	J37_4	J37_5	135.00	250.0	0.0050	0.0640	Open
P4580	J37_4	J38_4	135.00	150.0	0.0050	0.0646	Open
P4581	J37_5	J37_6	135.00	100.0	0.0050	0.0721	Open
P4582	J37_5	J38_5	135.00	300.0	0.0050	0.0392	Open
P4583	J37_6	J37_7	135.00	200.0	0.0050	0.1293	Open
P4584	J37_6	J38_6	135.00	300.0	0.0050	0.1341	Open
P4585	J37_7	J37_8	135.00	100.0	0.0050	0.0792	Open
P4586	J37_7	J38_7	135.00	250.0	0.0050	0.0679	Open
P4587	J37_8	J37_9	135.00	150.0	0.0050	0.1189	Open
P4588	J37_8	J38_8	135.00	200.0	0.0050	0.1167	Open
P4589	J37_9	J37_10	135.00	300.0	0.0050	0.0778	Open
P4590	J37_9	J38_9	135.00	150.0	0.0050	0.0799	Open
P4591	J37_10	J37_11	135.00	300.0	0.0050	0.1187	Open
P4592	J37_10	J38_10	135.00	250.0	0.0050	0.0818	Open
P4593	J37_11	J37_12	135.00	450.0	0.0050	0.0265	Open
P4594	J37_11	J38_11	135.00	350.0	0.0050	0.0434	Open
P4595	J37_12	J37_13	135.00	300.0	0.0050	0.1104	Open
P4596	J37_12	J38_12	135.00	100.0	0.0050	0.0621	Open
P4597	J37_13	J37_14	135.00	150.0	0.0050	0.1018	Open
P4598	J37_13	J38_13	135.00	100.0	0.0050	0.1311	Open
P4599	J37_14	J37_15	135.00	150.0	0.0050	0.0853	Open
P4600	J37_14	J38_14	135.00	250.0	0.0050	0.1118	Open
P4601	J37_15	J37_16	135.00	150.0	0.0050	0.0529	Open
P4602	J37_15	J38_15	135.00	200.0	0.0050	0.1491	Open
P4603	J37_16	J37_17	135.00	200.0	0.0050	0.0671	Open
P4604	J37_16	J38_16	135.00	200.0	0.0050	0.1203	Open
P4605	J37_17	J37_18	135.00	250.0	0.0050	0.1242	Open
P4606	J37_17	J38_17	135.00	150.0	0.0050	0.0094	Open
P4607	J37_18	J37_19	135.00	200.0	0.0050	0.1408	Open
P4608	J37_18	J38_18	135.00	300.0	0.0050	0.0576	Open
P4609	J37_19	J37_20	135.00	300.0	0.0050	0.0459	Open
P4610	J37_19	J38_19	135.00	300.0	0.0050	0.0296	Open
P4611	J37_20	J37_21	135.00	250.0	0.0050	0.0288	Open
P4612	J37_20	J38_20	135.00	100.0	0.0050	0.0389	Open
P4613	J37_21	J37_22	135.00	450.0	0.0050	0.0305	Open
P4614	J37_21	J38_21	135.00	500.0	0.0050	0.0357	Open
P4615	J37_22	J37_23	135.00	200.0	0.0050	0.0371	Open
P4616	J37_22	J38_22	135.00	200.0	0.0050	0.0691	Open
P4617	J37_23	J37_24	135.00	300.0	0.0050	0.1375	Open
P4618	J37_23	J38_23	135.00	200.0	0.0050	0.1085	Open
P4619	J37_24	J37_25	135.00	200.0	0.0050	0.0271	Open
P4620	J37_24	J38_24	135.00	150.0	0.0050	0.1113	Open
P4621	J37_25	J37_26	135.00	250.0	0.0050	0.0112	Open
P4622	J37_25	J38_25	135.00	150.0	0.0050	0.1351	Open
P4623	J37_26	J37_27	135.00	200.0	0.0050	0.0475	Open
P4624	J37_26	J38_26	135.00	250.0	0.0050	0.0606	Open
P4625	J37_27	J37_28	135.00	250.0	0.0050	0.0963	Open
P4626	J37_27	J38_27	135.00	100.0	0.0050	0.0519	Open
P4627	J37_28	J37_29	135.00	150.0	0.0050	0.0507	Open
P4628	J37_28	J38_28	135.00	150.0	0.0050	0.0809	Open
P4629	J37_29	J37_30	135.00	300.0	0.0050	0.1294	Open
P4630	J37_29	J38_29	135.00	150.0	0.0050	0.0608	Open
P4631	J37_30	J37_31	135.00	300.0	0.0050	0.0860	Open
P4632	J37_30	J38_30	135.00	150.0	0.0050	0.0674	Open
P4633	J37_31	J37_32	135.00	600.0	0.0050	0.0051	Open
P4634	J37_31	J38_31	135.00	500.0	0.0050	0.0453	Open
P4635	J37_32	J37_33	135.00	200.0	0.0050	0.0052	Open
P4636	J37_32	J38_32	135.00	300.0	0.0050	0.0751	Open
P4637	J37_33	J37_34	135.00	200.0	0.0050	0.1447	Open
P4638	J37_33	J38_33	135.00	200.0	0.0050	0.0680	Open
P4639	J37_34	J37_35	135.00	250.0	0.0050	0.1088	Open
P4640	J37_34	J38_34	135.00	100.0	0.0050	0.1368	Open
P4641	J37_35	J37_36	135.00	200.0	0.0050	0.0576	Open
P4642	J37_35	J38_35	135.00	250.0	0.0050	0.0283	Open
P4643	J37_36	J37_37	135.00	300.0	0.0050	0.0525	Open
P4644	J37_36	J38_36	135.00	300.0	0.0050	0.0881	Open
P4645	J37_37	J37_38	135.00	200.0	0.0050	0.0071	Open
P4646	J37_37	J38_37	135.00	300.0	0.0050	0.0102	Open
P4647	J37_38	J37_39	135.00	200.0	0.0050	0.0314	Open
P4648	J37_38	J38_38	135.00	100.0	0.0050	0.0542	Open
P4649	J37_39	J37_40	135.00	150.0	0.0050	0.1363	Open
P4650	J37_39	J38_39	135.00	250.0	0.0050	0.0215	Open
P4651	J37_40	J37_41	135.00	250.0	0.0050	0.1344	Open
P4652	J37_40	J38_40	135.00	150.0	0.0050	0.0590	Open
P4653	J37_41	J37_42	135.00	350.0	0.0050	0.0340	Open
P4654	J37_41	J38_41	135.00	600.0	0.0050	0.0498	Open
P4655	J37_42	J37_43	135.00	300.0	0.0050	0.0250	Open
P4656	J37_42	J38_42	135.00	200.0	0.0050	0.1444	Open
P4657	J37_43	J37_44	135.00	300.0	0.0050	0.1162	Open
P4658	J37_43	J38_43	135.00	300.0	0.0050	0.1325	Open
P4659	J37_44	J37_45	135.00	100.0	0.0050	0.0497	Open
P4660	J37_44	J38_44	135.00	200.0	0.0050	0.1107	Open
P4661	J37_45	J37_46	135.00	150.0	0.0050	0.1032	Open
P4662	J37_45	J38_45	135.00	200.0	0.0050	0.0014	Open
P4663	J37_46	J37_47	135.00	100.0	0.0050	0.0307	Open
P4664	J37_46	J38_46	135.00	250.0	0.0050	0.1366	Open
P4665	J37_47	J37_48	135.00	150.0	0.0050	0.0144	Open
P4666	J37_47	J38_47	135.00	250.0	0.0050	0.1463	Open
P4667	J37_48	J37_49	135.00	150.0	0.0050	0.0334	Open
P4668	J37_48	J38_48	135.00	300.0	0.0050	0.1381	Open
P4669	J37_49	J37_50	135.00	300.0	0.0050	0.0912	Open
P4670	J37_49	J38_49	135.00	200.0	0.0050	0.0420	Open
P4671	J37_50	J37_51	135.00	250.0	0.0050	0.0788	Open
P4672	J37_50	J38_50	135.00	300.0	0.0050	0.0680	Open
P4673	J37_51	J37_52	135.00	600.0	0.0050	0.0401	Open
P4674	J37_51	J38_51	135.00	600.0	0.0050	0.0009	Open
P4675	J37_52	J37_53	135.00	250.0	0.0050	0.0988	Open
P4676	J37_52	J38_52	135.00	100.0	0.0050	0.1006	Open
P4677	J37_53	J37_54	135.00	150.0	0.0050	0.1381	Open
P4678	J37_53	J38_53	135.00	150.0	0.0050	0.1494	Open
P4679	J37_54	J37_55	135.00	100.0	0.0050	0.0376	Open
P4680	J37_54	J38_54	135.00	250.0	0.0050	0.0181	Open
P4681	J37_55	J37_56	135.00	100.0	0.0050	0.1182	Open
P4682	J37_55	J38_55	135.00	300.0	0.0050	0.1393	Open
P4683	J37_56	J37_57	135.00	150.0	0.0050	0.1446	Open
P4684	J37_56	J38_56	135.00	250.0	0.0050	0.0591	Open
P4685	J37_57	J37_58	135.00	100.0	0.0050	0.1152	Open
P4686	J37_57	J38_57	135.00	300.0	0.0050	0.0103	Open
P4687	J37_58	J37_59	135.00	300.0	0.0050	0.0982	Open
P4688	J37_58	J38_58	135.00	300.0	0.0050	0.1165	Open
P4689	J37_59	J37_60	135.00	100.0	0.0050	0.0215	Open
P4690	J37_59	J38_59	135.00	200.0	0.0050	0.0156	Open
P4691	J37_60	J37_61	135.00	200.0	0.0050	0.1015	Open
P4692	J37_60	J38_60	135.00	300.0	0.0050	0.0121	Open
P4693	J37_61	J37_62	135.00	600.0	0.0050	0.0247	Open
P4694	J37_61	J38_61	135.00	400.0	0.0050	0.0079	Open
P4695	J37_62	J37_63	135.00	250.0	0.0050	0.0035	Open
P4696	J37_62	J38_62	135.00	300.0	0.0050	0.1230	Open
P4697	J37_63	J37_64	135.00	100.0	0.0050	0.0714	Open
P4698	J37_63	J38_63	135.00	200.0	0.0050	0.1227	Open
P4699	J37_64	J38_64	135.00	100.0	0.0050	0.0206	Open
P4700	J38_1	J38_2	135.00	400.0	0.0050	0.0103	Open
P4701	J38_1	J39_1	135.00	350.0	0.0050	0.0230	Open
P4702	J38_2	J38_3	135.00	300.0	0.0050	0.0335	Open
P4703	J38_2	J39_2	135.00	200.0	0.0050	0.0823	Open
P4704	J38_3	J38_4	135.00	250.0	0.0050	0.0872	Open
P4705	J38_3	J39_3	135.00	200.0	0.0050	0.1230	Open
P4706	J38_4	J38_5	135.00	250.0	0.0050	0.0095	Open
P4707	J38_4	J39_4	135.00	150.0	0.0050	0.0332	Open
P4708	J38_5	J38_6	135.00	250.0	0.0050	0.0867	Open
P4709	J38_5	J39_5	135.00	150.0	0.0050	0.0481	Open
P4710	J38_6	J38_7	135.00	200.0	0.0050	0.0379	Open
P4711	J38_6	J39_6	135.00	200.0	0.0050	0.0054	Open
P4712	J38_7	J38_8	135.00	200.0	0.0050	0.0983	Open
P4713	J38_7	J39_7	135.00	100.0	0.0050	0.0679	Open
P4714	J38_8	J38_9	135.00	250.0	0.0050	0.0396	Open
P4715	J38_8	J39_8	135.00	100.0	0.0050	0.0904	Open
P4716	J38_9	J38_10	135.00	300.0	0.0050	0.0047	Open
P4717	J38_9	J39_9	135.00	250.0	0.0050	0.0548	Open
P4718	J38_10	J38_11	135.00	250.0	0.0050	0.0990	Open
P4719	J38_10	J39_10	135.00	200.0	0.0050	0.0906	Open
P4720	J38_11	J38_12	135.00	600.0	0.0050	0.0217	Open
P4721	J38_11	J39_11	135.00	500.0	0.0050	0.0403	Open
P4722	J38_12	J38_13	135.00	250.0	0.0050	0.0894	Open
P4723	J38_12	J39_12	135.00	300.0	0.0050	0.1019	Open
P4724	J38_13	J38_14	135.00	250.0	0.0050	0.1418	Open
P4725	J38_13	J39_13	135.00	100.0	0.0050	0.1058	Open
P4726	J38_14	J38_15	135.00	300.0	0.0050	0.1420	Open
P4727	J38_14	J39_14	135.00	300.0	0.0050	0.1036	Open
P4728	J38_15	J38_16	135.00	200.0	0.0050	0.0185	Open
P4729	J38_15	J39_15	135.00	200.0	0.0050	0.0884	Open
P4730	J38_16	J38_17	135.00	250.0	0.0050	0.1484	Open
P4731	J38_16	J39_16	135.00	250.0	0.0050	0.0422	Open
P4732	J38_17	J38_18	135.00	200.0	0.0050	0.0981	Open
P4733	J38_17	J39_17	135.00	300.0	0.0050	0.0003	Open
P4734	J38_18	J38_19	135.00	150.0	0.0050	0.1234	Open
P4735	J38_18	J39_18	135.00	100.0	0.0050	0.1220	Open
P4736	J38_19	J38_20	135.00	250.0	0.0050	0.0744	Open
P4737	J38_19	J39_19	135.00	200.0	0.0050	0.0107	Open
P4738	J38_20	J38_21	135.00	250.0	0.0050	0.1126	Open
P4739	J38_20	J39_20	135.00	300.0	0.0050	0.0828	Open
P4740	J38_21	J38_22	135.00	500.0	0.0050	0.0327	Open
P4741	J38_21	J39_21	135.00	600.0	0.0050	0.0416	Open
P4742	J38_22	J38_23	135.00	250.0	0.0050	0.1281	Open
P4743	J38_22	J39_22	135.00	150.0	0.0050	0.0710	Open
P4744	J38_23	J38_24	135.00	300.0	0.0050	0.0471	Open
P4745	J38_23	J39_23	135.00	200.0	0.0050	0.1288	Open
P4746	J38_24	J38_25	135.00	100.0	0.0050	0.1088	Open
P4747	J38_24	J39_24	135.00	100.0	0.0050	0.1431	Open
P4748	J38_25	J38_26	135.00	250.0	0.0050	0.0639	Open
P4749	J38_25	J39_25	135.00	250.0	0.0050	0.0225	Open
P4750	J38_26	J38_27	135.00	250.0	0.0050	0.0807	Open
P4751	J38_26	J39_26	135.00	250.0	0.0050	0.0459	Open
P4752	J38_27	J38_28	135.00	250.0	0.0050	0.1239	Open
P4753	J38_27	J39_27	135.00	100.0	0.0050	0.0416	Open
P4754	J38_28	J38_29	135.00	200.0	0.0050	0.0898	Open
P4755	J38_28	J39_28	135.00	200.0	0.0050	0.0649	Open
P4756	J38_29	J38_30	135.00	100.0	0.0050	0.1263	Open
P4757	J38_29	J39_29	135.00	250.0	0.0050	0.0411	Open
P4758	J38_30	J38_31	135.00	200.0	0.0050	0.0752	Open
P4759	J38_30	J39_30	135.00	150.0	0.0050	0.0014	Open
P4760	J38_31	J38_32	135.00	500.0	0.0050	0.0323	Open
P4761	J38_31	J39_31	135.00	350.0	0.0050	0.0139	Open
P4762	J38_32	J38_33	135.00	100.0	0.0050	0.0837	Open
P4763	J38_32	J39_32	135.00	250.0	0.0050	0.0681	Open
P4764	J38_33	J38_34	135.00	100.0	0.0050	0.0521	Open
P4765	J38_33	J39_33	135.00	100.0	0.0050	0.1223	Open
P4766	J38_34	J38_35	135.00	300.0	0.0050	0.1331	Open
P4767	J38_34	J39_34	135.00	250.0	0.0050	0.0385	Open
P4768	J38_35	J38_36	135.00	100.0	0.0050	0.0479	Open
P4769	J38_35	J39_35	135.00	100.0	0.0050	0.0243	Open
P4770	J38_36	J38_37	135.00	300.0	0.0050	0.0335	Open
P4771	J38_36	J39_36	135.00	200.0	0.0050	0.0630	Open
P4772	J38_37	J38_38	135.00	200.0	0.0050	0.0630	Open
P4773	J38_37	J39_37	135.00	300.0	0.0050	0.0227	Open
P4774	J38_38	J38_39	135.00	300.0	0.0050	0.0782	Open
P4775	J38_38	J39_38	135.00	100.0	0.0050	0.0772	Open
P4776	J38_39	J38_40	135.00	250.0	0.0050	0.0706	Open
P4777	J38_39	J39_39	135.00	250.0	0.0050	0.0592	Open
P4778	J38_40	J38_41	135.00	250.0	0.0050	0.0864	Open
P4779	J38_40	J39_40	135.00	200.0	0.0050	0.1280	Open
P4780	J38_41	J38_42	135.00	400.0	0.0050	0.0017	Open
P4781	J38_41	J39_41	135.00	500.0	0.0050	0.0033	Open
P4782	J38_42	J38_43	135.00	250.0	0.0050	0.0098	Open
P4783	J38_42	J39_42	135.00	100.0	0.0050	0.0303	Open
P4784	J38_43	J38_44	135.00	150.0	0.0050	0.0500	Open
P4785	J38_43	J39_43	135.00	250.0	0.0050	0.0998	Open
P4786	J38_44	J38_45	135.00	300.0	0.0050	0.0887	Open
P4787	J38_44	J39_44	135.00	200.0	0.0050	0.0446	Open
P4788	J38_45	J38_46	135.00	300.0	0.0050	0.0751	Open
P4789	J38_45	J39_45	135.00	100.0	0.0050	0.0689	Open
P4790	J38_46	J38_47	135.00	200.0	0.0050	0.0181	Open
P4791	J38_46	J39_46	135.00	200.0	0.0050	0.1292	Open
P4792	J38_47	J38_48	135.00	150.0	0.0050	0.1441	Open
P4793	J38_47	J39_47	135.00	200.0	0.0050	0.0813	Open
P4794	J38_48	J38_49	135.00	100.0	0.0050	0.0316	Open
P4795	J38_48	J39_48	135.00	250.0	0.0050	0.0521	Open
P4796	J38_49	J38_50	135.00	200.0	0.0050	0.1383	Open
P4797	J38_49	J39_49	135.00	100.0	0.0050	0.0557	Open
P4798	J38_50	J38_51	135.00	200.0	0.0050	0.0283	Open
P4799	J38_50	J39_50	135.00	200.0	0.0050	0.0727	Open
P4800	J38_51	J38_52	135.00	600.0	0.0050	0.0364	Open
P4801	J38_51	J39_51	135.00	350.0	0.0050	0.0172	Open
P4802	J38_52	J38_53	135.00	150.0	0.0050	0.1154	Open
P4803	J38_52	J39_52	135.00	100.0	0.0050	0.0620	Open
P4804	J38_53	J38_54	135.00	200.0	0.0050	0.1013	Open
P4805	J38_53	J39_53	135.00	150.0	0.0050	0.0722	Open
P4806	J38_54	J38_55	135.00	150.0	0.0050	0.0665	Open
P4807	J38_54	J39_54	135.00	100.0	0.0050	0.0903	Open
P4808	J38_55	J38_56	135.00	100.0	0.0050	0.1039	Open
P4809	J38_55	J39_55	135.00	100.0	0.0050	0.0338	Open
P4810	J38_56	J38_57	135.00	100.0	0.0050	0.1086	Open
P4811	J38_56	J39_56	135.00	250.0	0.0050	0.0145	Open
P4812	J38_57	J38_58	135.00	300.0	0.0050	0.0655	Open
P4813	J38_57	J39_57	135.00	100.0	0.0050	0.0095	Open
P4814	J38_58	J38_59	135.00	200.0	0.0050	0.0729	Open
P4815	J38_58	J39_58	135.00	200.0	0.0050	0.0901	Open
P4816	J38_59	J38_60	135.00	200.0	0.0050	0.0962	Open
P4817	J38_59	J39_59	135.00	150.0	0.0050	0.0077	Open
P4818	J38_60	J38_61	135.00	100.0	0.0050	0.0944	Open
P4819	J38_60	J39_60	135.00	300.0	0.0050	0.1143	Open
P4820	J38_61	J38_62	135.00	400.0	0.0050	0.0030	Open
P4821	J38_61	J39_61	135.00	500.0	0.0050	0.0171	Open
P4822	J38_62	J38_63	135.00	250.0	0.0050	0.1253	Open
P4823	J38_62	J39_62	135.00	250.0	0.0050	0.1300	Open
P4824	J38_63	J38_64	135.00	100.0	0.0050	0.0644	Open
P4825	J38_63	J39_63	135.00	150.0	0.0050	0.1438	Open
P4826	J38_64	J39_64	135.00	200.0	0.0050	0.0200	Open
P4827	J39_1	J39_2	135.00	500.0	0.0050	0.0139	Open
P4828	J39_1	J40_1	135.00	450.0	0.0050	0.0246	Open
P4829	J39_2	J39_3	135.00	150.0	0.0050	0.1367	Open
P4830	J39_2	J40_2	135.00	100.0	0.0050	0.1221	Open
P4831	J39_3	J39_4	135.00	200.0	0.0050	0.1368	Open
P4832	J39_3	J40_3	135.00	300.0	0.0050	0.0302	Open
P4833	J39_4	J39_5	135.00	200.0	0.0050	0.0073	Open
P4834	J39_4	J40_4	135.00	150.0	0.0050	0.1197	Open
P4835	J39_5	J39_6	135.00	100.0	0.0050	0.1010	Open
P4836	J39_5	J40_5	135.00	150.0	0.0050	0.0130	Open
P4837	J39_6	J39_7	135.00	100.0	0.0050	0.0654	Open
P4838	J39_6	J40_6	135.00	100.0	0.0050	0.0144	Open
P4839	J39_7	J39_8	135.00	200.0	0.0050	0.1347	Open
P4840	J39_7	J40_7	135.00	300.0	0.0050	0.0327	Open
P4841	J39_8	J39_9	135.00	300.0	0.0050	0.0158	Open
P4842	J39_8	J40_8	135.00	250.0	0.0050	0.0085	Open
P4843	J39_9	J39_10	135.00	100.0	0.0050	0.0972	Open
P4844	J39_9	J40_9	135.00	150.0	0.0050	0.0991	Open
P4845	J39_10	J39_11	135.00	200.0	0.0050	0.1317	Open
P4846	J39_10	J40_10	135.00	200.0	0.0050	0.0528	Open
P4847	J39_11	J39_12	135.00	300.0	0.0050	0.0288	Open
P4848	J39_11	J40_11	135.00	400.0	0.0050	0.0461	Open
P4849	J39_12	J39_13	135.00	250.0	0.0050	0.0608	Open
P4850	J39_12	J40_12	135.00	100.0	0.0050	0.1214	Open
P4851	J39_13	J39_14	135.00	200.0	0.0050	0.0901	Open
P4852	J39_13	J40_13	135.00	300.0	0.0050	0.0052	Open
P4853	J39_14	J39_15	135.00	250.0	0.0050	0.1377	Open
P4854	J39_14	J40_14	135.00	100.0	0.0050	0.1178	Open
P4855	J39_15	J39_16	135.00	150.0	0.0050	0.0836	Open
P4856	J39_15	J40_15	135.00	250.0	0.0050	0.0145	Open
P4857	J39_16	J39_17	135.00	200.0	0.0050	0.0537	Open
P4858	J39_16	J40_16	135.00	150.0	0.0050	0.0007	Open
P4859	J39_17	J39_18	135.00	250.0	0.0050	0.0265	Open
P4860	J39_17	J40_17	135.00	300.0	0.0050	0.0100	Open
P4861	J39_18	J39_19	135.00	250.0	0.0050	0.0730	Open
P4862	J39_18	J40_18	135.00	200.0	0.0050	0.0980	Open
P4863	J39_19	J39_20	135.00	150.0	0.0050	0.0565	Open
P4864	J39_19	J40_19	135.00	100.0	0.0050	0.0266	Open
P4865	J39_20	J39_21	135.00	200.0	0.0050	0.0896	Open
P4866	J39_20	J40_20	135.00	100.0	0.0050	0.0434	Open
P4867	J39_21	J39_22	135.00	450.0	0.0050	0.0330	Open
P4868	J39_21	J40_21	135.00	600.0	0.0050	0.0310	Open
P4869	J39_22	J39_23	135.00	200.0	0.0050	0.0680	Open
P4870	J39_22	J40_22	135.00	300.0	0.0050	0.1302	Open
P4871	J39_23	J39_24	135.00	150.0	0.0050	0.0412	Open
P4872	J39_23	J40_23	135.00	200.0	0.0050	0.0497	Open
P4873	J39_24	J39_25	135.00	200.0	0.0050	0.0055	Open
P4874	J39_24	J40_24	135.00	200.0	0.0050	0.0195	Open
P4875	J39_25	J39_26	135.00	250.0	0.0050	0.0802	Open
P4876	J39_25	J40_25	135.00	250.0	0.0050	0.0873	Open
P4877	J39_26	J39_27	135.00	300.0	0.0050	0.1071	Open
P4878	J39_26	J40_26	135.00	300.0	0.0050	0.1161	Open
P4879	J39_27	J39_28	135.00	150.0	0.0050	0.1305	Open
P4880	J39_27	J40_27	135.00	300.0	0.0050	0.0047	Open
P4881	J39_28	J39_29	135.00	300.0	0.0050	0.0640	Open
P4882	J39_28	J40_28	135.00	300.0	0.0050	0.1083	Open
P4883	J39_29	J39_30	135.00	100.0	0.0050	0.0188	Open
P4884	J39_29	J40_29	135.00	200.0	0.0050	0.1225	Open
P4885	J39_30	J39_31	135.00	250.0	0.0050	0.1266	Open
P4886	J39_30	J40_30	135.00	200.0	0.0050	0.0910	Open
P4887	J39_31	J39_32	135.00	300.0	0.0050	0.0331	Open
P4888	J39_31	J40_31	135.00	300.0	0.0050	0.0280	Open
P4889	J39_32	J39_33	135.00	200.0	0.0050	0.0940	Open
P4890	J39_32	J40_32	135.00	250.0	0.0050	0.0951	Open
P4891	J39_33	J39_34	135.00	150.0	0.0050	0.0235	Open
P4892	J39_33	J40_33	135.00	150.0	0.0050	0.0311	Open
P4893	J39_34	J39_35	135.00	300.0	0.0050	0.0063	Open
P4894	J39_34	J40_34	135.00	300.0	0.0050	0.0394	Open
P4895	J39_35	J39_36	135.00	100.0	0.0050	0.0362	Open
P4896	J39_35	J40_35	135.00	150.0	0.0050	0.0668	Open
P4897	J39_36	J39_37	135.00	100.0	0.0050	0.0086	Open
P4898	J39_36	J40_36	135.00	100.0	0.0050	0.1422	Open
P4899	J39_37	J39_38	135.00	200.0	0.0050	0.1253	Open
P4900	J39_37	J40_37	135.00	200.0	0.0050	0.0254	Open
P4901	J39_38	J39_39	135.00	250.0	0.0050	0.0923	Open
P4902	J39_38	J40_38	135.00	250.0	0.0050	0.1452	Open
P4903	J39_39	J39_40	135.00	150.0	0.0050	0.0326	Open
P4904	J39_39	J40_39	135.00	100.0	0.0050	0.0420	Open
P4905	J39_40	J39_41	135.00	100.0	0.0050	0.0215	Open
P4906	J39_40	J40_40	135.00	150.0	0.0050	0.1082	Open
P4907	J39_41	J39_42	135.00	400.0	0.0050	0.0399	Open
P4908	J39_41	J40_41	135.00	300.0	0.0050	0.0414	Open
P4909	J39_42	J39_43	135.00	300.0	0.0050	0.0252	Open
P4910	J39_42	J40_42	135.00	250.0	0.0050	0.0038	Open
P4911	J39_43	J39_44	135.00	300.0	0.0050	0.0984	Open
P4912	J39_43	J40_43	135.00	250.0	0.0050	0.1453	Open
P4913	J39_44	J39_45	135.00	100.0	0.0050	0.0952	Open
P4914	J39_44	J40_44	135.00	100.0	0.0050	0.1242	Open
P4915	J39_45	J39_46	135.00	250.0	0.0050	0.1085	Open
P4916	J39_45	J40_45	135.00	250.0	0.0050	0.1357	Open
P4917	J39_46	J39_47	135.00	150.0	0.0050	0.1108	Open
P4918	J39_46	J40_46	135.00	300.0	0.0050	0.0585	Open
P4919	J39_47	J39_48	135.00	300.0	0.0050	0.0764	Open
P4920	J39_47	J40_47	135.00	250.0	0.0050	0.0256	Open
P4921	J39_48	J39_49	135.00	150.0	0.0050	0.0574	Open
P4922	J39_48	J40_48	135.00	250.0	0.0050	0.1133	Open
P4923	J39_49	J39_50	135.00	100.0	0.0050	0.0443	Open
P4924	J39_49	J40_49	135.00	100.0	0.0050	0.1420	Open
P4925	J39_50	J39_51	135.00	250.0	0.0050	0.0911	Open
P4926	J39_50	J40_50	135.00	200.0	0.0050	0.0457	Open
P4927	J39_51	J39_52	135.00	350.0	0.0050	0.0033	Open
P4928	J39_51	J40_51	135.00	600.0	0.0050	0.0477	Open
P4929	J39_52	J39_53	135.00	250.0	0.0050	0.1412	Open
P4930	J39_52	J40_52	135.00	250.0	0.0050	0.0679	Open
P4931	J39_53	J39_54	135.00	150.0	0.0050	0.1370	Open
P4932	J39_53	J40_53	135.00	300.0	0.0050	0.0010	Open
P4933	J39_54	J39_55	135.00	150.0	0.0050	0.1431	Open
P4934	J39_54	J40_54	135.00	150.0	0.0050	0.0484	Open
P4935	J39_55	J39_56	135.00	300.0	0.0050	0.0547	Open
P4936	J39_55	J40_55	135.00	200.0	0.0050	0.1383	Open
P4937	J39_56	J39_57	135.00	100.0	0.0050	0.0752	Open
P4938	J39_56	J40_56	135.00	200.0	0.0050	0.1069	Open
P4939	J39_57	J39_58	135.00	100.0	0.0050	0.0982	Open
P4940	J39_57	J40_57	135.00	300.0	0.0050	0.0587	Open
P4941	J39_58	J39_59	135.00	100.0	0.0050	0.0651	Open
P4942	J39_58	J40_58	135.00	200.0	0.0050	0.0003	Open
P4943	J39_59	J39_60	135.00	200.0	0.0050	0.0306	Open
P4944	J39_59	J40_59	135.00	200.0	0.0050	0.0810	Open
P4945	J39_60	J39_61	135.00	100.0	0.0050	0.0495	Open
P4946	J39_60	J40_60	135.00	100.0	0.0050	0.0428	Open
P4947	J39_61	J39_62	135.00	450.0	0.0050	0.0207	Open
P4948	J39_61	J40_61	135.00	600.0	0.0050	0.0191	Open
P4949	J39_62	J39_63	135.00	100.0	0.0050	0.0940	Open
P4950	J39_62	J40_62	135.00	200.0	0.0050	0.0270	Open
P4951	J39_63	J39_64	135.00	200.0	0.0050	0.1221	Open
P4952	J39_63	J40_63	135.00	200.0	0.0050	0.0636	Open
P4953	J39_64	J40_64	135.00	250.0	0.0050	0.0868	Open
P4954	J40_1	J40_2	135.00	350.0	0.0050	0.0188	Open
P4955	J40_1	J41_1	135.00	300.0	0.0050	0.0326	Open
P4956	J40_2	J40_3	135.00	250.0	0.0050	0.0941	Open
P4957	J40_2	J41_2	135.00	100.0	0.0050	0.0712	Open
P4958	J40_3	J40_4	135.00	250.0	0.0050	0.1299	Open
P4959	J40_3	J41_3	135.00	150.0	0.0050	0.0373	Open
P4960	J40_4	J40_5	135.00	200.0	0.0050	0.1423	Open
P4961	J40_4	J41_4	135.00	100.0	0.0050	0.0080	Open
P4962	J40_5	J40_6	135.00	200.0	0.0050	0.1408	Open
P4963	J40_5	J41_5	135.00	100.0	0.0050	0.1273	Open
P4964	J40_6	J40_7	135.00	150.0	0.0050	0.1137	Open
P4965	J40_6	J41_6	135.00	200.0	0.0050	0.0291	Open
P4966	J40_7	J40_8	135.00	300.0	0.0050	0.1077	Open
P4967	J40_7	J41_7	135.00	100.0	0.0050	0.0533	Open
P4968	J40_8	J40_9	135.00	300.0	0.0050	0.0281	Open
P4969	J40_8	J41_8	135.00	150.0	0.0050	0.1286	Open
P4970	J40_9	J40_10	135.00	150.0	0.0050	0.1127	Open
P4971	J40_9	J41_9	135.00	100.0	0.0050	0.0175	Open
P4972	J40_10	J40_11	135.00	150.0	0.0050	0.1421	Open
P4973	J40_10	J41_10	135.00	200.0	0.0050	0.1169	Open
P4974	J40_11	J40_12	135.00	400.0	0.0050	0.0293	Open
P4975	J40_11	J41_11	135.00	350.0	0.0050	0.0442	Open
P4976	J40_12	J40_13	135.00	200.0	0.0050	0.0205	Open
P4977	J40_12	J41_12	135.00	250.0	0.0050	0.0377	Open
P4978	J40_13	J40_14	135.00	150.0	0.0050	0.0713	Open
P4979	J40_13	J41_13	135.00	100.0	0.0050	0.0364	Open
P4980	J40_14	J40_15	135.00	150.0	0.0050	0.0123	Open
P4981	J40_14	J41_14	135.00	200.0	0.0050	0.1439	Open
P4982	J40_15	J40_16	135.00	250.0	0.0050	0.0519	Open
P4983	J40_15	J41_15	135.00	150.0	0.0050	0.0082	Open
P4984	J40_16	J40_17	135.00	100.0	0.0050	0.0229	Open
P4985	J40_16	J41_16	135.00	250.0	0.0050	0.0342	Open
P4986	J40_17	J40_18	135.00	250.0	0.0050	0.0765	Open
P4987	J40_17	J41_17	135.00	200.0	0.0050	0.0830	Open
P4988	J40_18	J40_19	135.00	150.0	0.0050	0.1039	Open
P4989	J40_18	J41_18	135.00	200.0	0.0050	0.1177	Open
P4990	J40_19	J40_20	135.00	100.0	0.0050	0.0709	Open
P4991	J40_19	J41_19	135.00	250.0	0.0050	0.1224	Open
P4992	J40_20	J40_21	135.00	300.0	0.0050	0.0178	Open
P4993	J40_20	J41_20	135.00	150.0	0.0050	0.1157	Open
P4994	J40_21	J40_22	135.00	600.0	0.0050	0.0364	Open
P4995	J40_21	J41_21	135.00	350.0	0.0050	0.0450	Open
P4996	J40_22	J40_23	135.00	200.0	0.0050	0.0026	Open
P4997	J40_22	J41_22	135.00	300.0	0.0050	0.0184	Open
P4998	J40_23	J40_24	135.00	150.0	0.0050	0.1405	Open
P4999	J40_23	J41_23	135.00	300.0	0.0050	0.1056	Open
P5000	J40_24	J40_25	135.00	250.0	0.0050	0.1272	Open
P5001	J40_24	J41_24	135.00	200.0	0.0050	0.0101	Open
P5002	J40_25	J40_26	135.00	300.0	0.0050	0.0256	Open
P5003	J40_25	J41_25	135.00	300.0	0.0050	0.0058	Open
P5004	J40_26	J40_27	135.00	300.0	0.0050	0.0233	Open
P5005	J40_26	J41_26	135.00	250.0	0.0050	0.0181	Open
P5006	J40_27	J40_28	135.00	150.0	0.0050	0.1174	Open
P5007	J40_27	J41_27	135.00	100.0	0.0050	0.0004	Open
P5008	J40_28	J40_29	135.00	200.0	0.0050	0.1465	Open
P5009	J40_28	J41_28	135.00	200.0	0.0050	0.1109	Open
P5010	J40_29	J40_30	135.00	150.0	0.0050	0.0761	Open
P5011	J40_29	J41_29	135.00	250.0	0.0050	0.0418	Open
P5012	J40_30	J40_31	135.00	150.0	0.0050	0.0132	Open
P5013	J40_30	J41_30	135.00	300.0	0.0050	0.0028	Open
P5014	J40_31	J40_32	135.00	500.0	0.0050	0.0384	Open
P5015	J40_31	J41_31	135.00	400.0	0.0050	0.0282	Open
P5016	J40_32	J40_33	135.00	250.0	0.0050	0.0996	Open
P5017	J40_32	J41_32	135.00	300.0	0.0050	0.0807	Open
P5018	J40_33	J40_34	135.00	300.0	0.0050	0.0599	Open
P5019	J40_33	J41_33	135.00	200.0	0.0050	0.0581	Open
P5020	J40_34	J40_35	135.00	150.0	0.0050	0.1311	Open
P5021	J40_34	J41_34	135.00	300.0	0.0050	0.1119	Open
P5022	J40_35	J40_36	135.00	250.0	0.0050	0.0975	Open
P5023	J40_35	J41_35	135.00	150.0	0.0050	0.1290	Open
P5024	J40_36	J40_37	135.00	150.0	0.0050	0.0051	Open
P5025	J40_36	J41_36	135.00	150.0	0.0050	0.0904	Open
P5026	J40_37	J40_38	135.00	100.0	0.0050	0.0012	Open
P5027	J40_37	J41_37	135.00	150.0	0.0050	0.1099	Open
P5028	J40_38	J40_39	135.00	150.0	0.0050	0.0553	Open
P5029	J40_38	J41_38	135.00	150.0	0.0050	0.0215	Open
P5030	J40_39	J40_40	135.00	150.0	0.0050	0.0083	Open
P5031	J40_39	J41_39	135.00	300.0	0.0050	0.0210	Open
P5032	J40_40	J40_41	135.00	200.0	0.0050	0.0838	Open
P5033	J40_40	J41_40	135.00	200.0	0.0050	0.0671	Open
P5034	J40_41	J40_42	135.00	400.0	0.0050	0.0042	Open
P5035	J40_41	J41_41	135.00	300.0	0.0050	0.0117	Open
P5036	J40_42	J40_43	135.00	100.0	0.0050	0.0558	Open
P5037	J40_42	J41_42	135.00	150.0	0.0050	0.0087	Open
P5038	J40_43	J40_44	135.00	200.0	0.0050	0.1016	Open
P5039	J40_43	J41_43	135.00	250.0	0.0050	0.1346	Open
P5040	J40_44	J40_45	135.00	100.0	0.0050	0.1191	Open
P5041	J40_44	J41_44	135.00	250.0	0.0050	0.1275	Open
P5042	J40_45	J40_46	135.00	250.0	0.0050	0.0352	Open
P5043	J40_45	J41_45	135.00	300.0	0.0050	0.0720	Open
P5044	J40_46	J40_47	135.00	250.0	0.0050	0.0052	Open
P5045	J40_46	J41_46	135.00	100.0	0.0050	0.0321	Open
P5046	J40_47	J40_48	135.00	100.0	0.0050	0.0322	Open
P5047	J40_47	J41_47	135.00	100.0	0.0050	0.0791	Open
P5048	J40_48	J40_49	135.00	250.0	0.0050	0.0231	Open
P5049	J40_48	J41_48	135.00	150.0	0.0050	0.0581	Open
P5050	J40_49	J40_50	135.00	250.0	0.0050	0.0483	Open
P5051	J40_49	J41_49	135.00	150.0	0.0050	0.1495	Open
P5052	J40_50	J40_51	135.00	250.0	0.0050	0.0398	Open
P5053	J40_50	J41_50	135.00	150.0	0.0050	0.0129	Open
P5054	J40_51	J40_52	135.00	600.0	0.0050	0.0021	Open
P5055	J40_51	J41_51	135.00	500.0	0.0050	0.0395	Open
P5056	J40_52	J40_53	135.00	250.0	0.0050	0.0324	Open
P5057	J40_52	J41_52	135.00	250.0	0.0050	0.1378	Open
P5058	J40_53	J40_54	135.00	100.0	0.0050	0.0777	Open
P5059	J40_53	J41_53	135.00	100.0	0.0050	0.0916	Open
P5060	J40_54	J40_55	135.00	150.0	0.0050	0.0055	Open
P5061	J40_54	J41_54	135.00	200.0	0.0050	0.0906	Open
P5062	J40_55	J40_56	135.00	300.0	0.0050	0.1490	Open
P5063	J40_55	J41_55	135.00	200.0	0.0050	0.0814	Open
P5064	J40_56	J40_57	135.00	300.0	0.0050	0.0551	Open
P5065	J40_56	J41_56	135.00	300.0	0.0050	0.1140	Open
P5066	J40_57	J40_58	135.00	250.0	0.0050	0.0633	Open
P5067	J40_57	J41_57	135.00	300.0	0.0050	0.1265	Open
P5068	J40_58	J40_59	135.00	200.0	0.0050	0.0910	Open
P5069	J40_58	J41_58	135.00	150.0	0.0050	0.1468	Open
P5070	J40_59	J40_60	135.00	100.0	0.0050	0.0588	Open
P5071	J40_59	J41_59	135.00	200.0	0.0050	0.0398	Open
P5072	J40_60	J40_61	135.00	300.0	0.0050	0.1298	Open
P5073	J40_60	J41_60	135.00	250.0	0.0050	0.1379	Open
P5074	J40_61	J40_62	135.00	300.0	0.0050	0.0415	Open
P5075	J40_61	J41_61	135.00	350.0	0.0050	0.0292	Open
P5076	J40_62	J40_63	135.00	250.0	0.0050	0.0225	Open
P5077	J40_62	J41_62	135.00	300.0	0.0050	0.0474	Open
P5078	J40_63	J40_64	135.00	300.0	0.0050	0.1071	Open
P5079	J40_63	J41_63	135.00	100.0	0.0050	0.1411	Open
P5080	J40_64	J41_64	135.00	250.0	0.0050	0.1132	Open
P5081	J41_1	J41_2	135.00	600.0	0.0050	0.0005	Open
P5082	J41_1	J42_1	135.00	500.0	0.0050	0.0425	Open
P5083	J41_2	J41_3	135.00	350.0	0.0050	0.0092	Open
P5084	J41_2	J42_2	135.00	300.0	0.0050	0.0047	Open
P5085	J41_3	J41_4	135.00	450.0	0.0050	0.0090	Open
P5086	J41_3	J42_3	135.00	300.0	0.0050	0.0357	Open
P5087	J41_4	J41_5	135.00	500.0	0.0050	0.0044	Open
P5088	J41_4	J42_4	135.00	400.0	0.0050	0.0417	Open
P5089	J41_5	J41_6	135.00	500.0	0.0050	0.0119	Open
P5090	J41_5	J42_5	135.00	350.0	0.0050	0.0144	Open
P5091	J41_6	J41_7	135.00	600.0	0.0050	0.0323	Open
P5092	J41_6	J42_6	135.00	400.0	0.0050	0.0305	Open
P5093	J41_7	J41_8	135.00	500.0	0.0050	0.0379	Open
P5094	J41_7	J42_7	135.00	600.0	0.0050	0.0257	Open
P5095	J41_8	J41_9	135.00	350.0	0.0050	0.0172	Open
P5096	J41_8	J42_8	135.00	600.0	0.0050	0.0371	Open
P5097	J41_9	J41_10	135.00	300.0	0.0050	0.0306	Open
P5098	J41_9	J42_9	135.00	600.0	0.0050	0.0188	Open
P5099	J41_10	J41_11	135.00	350.0	0.0050	0.0336	Open
P5100	J41_10	J42_10	135.00	450.0	0.0050	0.0382	Open
P5101	J41_11	J41_12	135.00	600.0	0.0050	0.0199	Open
P5102	J41_11	J42_11	135.00	400.0	0.0050	0.0411	Open
P5103	J41_12	J41_13	135.00	450.0	0.0050	0.0262	Open
P5104	J41_12	J42_12	135.00	300.0	0.0050	0.0374	Open
P5105	J41_13	J41_14	135.00	500.0	0.0050	0.0242	Open
P5106	J41_13	J42_13	135.00	600.0	0.0050	0.0058	Open
P5107	J41_14	J41_15	135.00	600.0	0.0050	0.0101	Open
P5108	J41_14	J42_14	135.00	600.0	0.0050	0.0415	Open
P5109	J41_15	J41_16	135.00	400.0	0.0050	0.0326	Open
P5110	J41_15	J42_15	135.00	450.0	0.0050	0.0418	Open
P5111	J41_16	J41_17	135.00	600.0	0.0050	0.0347	Open
P5112	J41_16	J42_16	135.00	400.0	0.0050	0.0056	Open
P5113	J41_17	J41_18	135.00	500.0	0.0050	0.0335	Open
P5114	J41_17	J42_17	135.00	300.0	0.0050	0.0122	Open
P5115	J41_18	J41_19	135.00	450.0	0.0050	0.0010	Open
P5116	J41_18	J42_18	135.00	500.0	0.0050	0.0255	Open
P5117	J41_19	J41_20	135.00	300.0	0.0050	0.0204	Open
P5118	J41_19	J42_19	135.00	400.0	0.0050	0.0277	Open
P5119	J41_20	J41_21	135.00	600.0	0.0050	0.0083	Open
P5120	J41_20	J42_20	135.00	600.0	0.0050	0.0102	Open
P5121	J41_21	J41_22	135.00	400.0	0.0050	0.0019	Open
P5122	J41_21	J42_21	135.00	350.0	0.0050	0.0037	Open
P5123	J41_22	J41_23	135.00	600.0	0.0050	0.0195	Open
P5124	J41_22	J42_22	135.00	300.0	0.0050	0.0387	Open
P5125	J41_23	J41_24	135.00	600.0	0.0050	0.0416	Open
P5126	J41_23	J42_23	135.00	450.0	0.0050	0.0371	Open
P5127	J41_24	J41_25	135.00	600.0	0.0050	0.0483	Open
P5128	J41_24	J42_24	135.00	450.0	0.0050	0.0468	Open
P5129	J41_25	J41_26	135.00	450.0	0.0050	0.0053	Open
P5130	J41_25	J42_25	135.00	350.0	0.0050	0.0356	Open
P5131	J41_26	J41_27	135.00	400.0	0.0050	0.0384	Open
P5132	J41_26	J42_26	135.00	350.0	0.0050	0.0291	Open
P5133	J41_27	J41_28	135.00	300.0	0.0050	0.0402	Open
P5134	J41_27	J42_27	135.00	500.0	0.0050	0.0307	Open
P5135	J41_28	J41_29	135.00	600.0	0.0050	0.0033	Open
P5136	J41_28	J42_28	135.00	350.0	0.0050	0.0014	Open
P5137	J41_29	J41_30	135.00	500.0	0.0050	0.0362	Open
P5138	J41_29	J42_29	135.00	400.0	0.0050	0.0032	Open
P5139	J41_30	J41_31	135.00	300.0	0.0050	0.0081	Open
P5140	J41_30	J42_30	135.00	350.0	0.0050	0.0208	Open
P5141	J41_31	J41_32	135.00	400.0	0.0050	0.0111	Open
P5142	J41_31	J42_31	135.00	400.0	0.0050	0.0136	Open
P5143	J41_32	J41_33	135.00	600.0	0.0050	0.0221	Open
P5144	J41_32	J42_32	135.00	400.0	0.0050	0.0299	Open
P5145	J41_33	J41_34	135.00	350.0	0.0050	0.0140	Open
P5146	J41_33	J42_33	135.00	500.0	0.0050	0.0357	Open
P5147	J41_34	J41_35	135.00	400.0	0.0050	0.0490	Open
P5148	J41_34	J42_34	135.00	500.0	0.0050	0.0187	Open
P5149	J41_35	J41_36	135.00	400.0	0.0050	0.0289	Open
P5150	J41_35	J42_35	135.00	600.0	0.0050	0.0097	Open
P5151	J41_36	J41_37	135.00	400.0	0.0050	0.0496	Open
P5152	J41_36	J42_36	135.00	350.0	0.0050	0.0057	Open
P5153	J41_37	J41_38	135.00	350.0	0.0050	0.0409	Open
P5154	J41_37	J42_37	135.00	600.0	0.0050	0.0302	Open
P5155	J41_38	J41_39	135.00	500.0	0.0050	0.0328	Open
P5156	J41_38	J42_38	135.00	350.0	0.0050	0.0273	Open
P5157	J41_39	J41_40	135.00	450.0	0.0050	0.0070	Open
P5158	J41_39	J42_39	135.00	300.0	0.0050	0.0435	Open
P5159	J41_40	J41_41	135.00	500.0	0.0050	0.0185	Open
P5160	J41_40	J42_40	135.00	300.0	0.0050	0.0405	Open
P5161	J41_41	J41_42	135.00	500.0	0.0050	0.0298	Open
P5162	J41_41	J42_41	135.00	300.0	0.0050	0.0215	Open
P5163	J41_42	J41_43	135.00	400.0	0.0050	0.0220	Open
P5164	J41_42	J42_42	135.00	500.0	0.0050	0.0368	Open
P5165	J41_43	J41_44	135.00	600.0	0.0050	0.0269	Open
P5166	J41_43	J42_43	135.00	300.0	0.0050	0.0482	Open
P5167	J41_44	J41_45	135.00	600.0	0.0050	0.0422	Open
P5168	J41_44	J42_44	135.00	450.0	0.0050	0.0175	Open
P5169	J41_45	J41_46	135.00	350.0	0.0050	0.0099	Open
P5170	J41_45	J42_45	135.00	450.0	0.0050	0.0292	Open
P5171	J41_46	J41_47	135.00	300.0	0.0050	0.0442	Open
P5172	J41_46	J42_46	135.00	500.0	0.0050	0.0081	Open
P5173	J41_47	J41_48	135.00	500.0	0.0050	0.0381	Open
P5174	J41_47	J42_47	135.00	400.0	0.0050	0.0125	Open
P5175	J41_48	J41_49	135.00	350.0	0.0050	0.0215	Open
P5176	J41_48	J42_48	135.00	400.0	0.0050	0.0120	Open
P5177	J41_49	J41_50	135.00	350.0	0.0050	0.0295	Open
P5178	J41_49	J42_49	135.00	350.0	0.0050	0.0498	Open
P5179	J41_50	J41_51	135.00	450.0	0.0050	0.0250	Open
P5180	J41_50	J42_50	135.00	350.0	0.0050	0.0189	Open
P5181	J41_51	J41_52	135.00	400.0	0.0050	0.0011	Open
P5182	J41_51	J42_51	135.00	300.0	0.0050	0.0311	Open
P5183	J41_52	J41_53	135.00	300.0	0.0050	0.0010	Open
P5184	J41_52	J42_52	135.00	450.0	0.0050	0.0379	Open
P5185	J41_53	J41_54	135.00	300.0	0.0050	0.0209	Open
P5186	J41_53	J42_53	135.00	300.0	0.0050	0.0330	Open
P5187	J41_54	J41_55	135.00	600.0	0.0050	0.0026	Open
P5188	J41_54	J42_54	135.00	400.0	0.0050	0.0235	Open
P5189	J41_55	J41_56	135.00	600.0	0.0050	0.0129	Open
P5190	J41_55	J42_55	135.00	500.0	0.0050	0.0028	Open
P5191	J41_56	J41_57	135.00	450.0	0.0050	0.0097	Open
P5192	J41_56	J42_56	135.00	300.0	0.0050	0.0372	Open
P5193	J41_57	J41_58	135.00	500.0	0.0050	0.0302	Open
P5194	J41_57	J42_57	135.00	600.0	0.0050	0.0009	Open
P5195	J41_58	J41_59	135.00	450.0	0.0050	0.0321	Open
P5196	J41_58	J42_58	135.00	300.0	0.0050	0.0451	Open
P5197	J41_59	J41_60	135.00	350.0	0.0050	0.0491	Open
P5198	J41_59	J42_59	135.00	350.0	0.0050	0.0245	Open
P5199	J41_60	J41_61	135.00	600.0	0.0050	0.0141	Open
P5200	J41_60	J42_60	135.00	400.0	0.0050	0.0113	Open
P5201	J41_61	J41_62	135.00	450.0	0.0050	0.0246	Open
P5202	J41_61	J42_61	135.00	600.0	0.0050	0.0258	Open
P5203	J41_62	J41_63	135.00	350.0	0.0050	0.0293	Open
P5204	J41_62	J42_62	135.00	400.0	0.0050	0.0372	Open
P5205	J41_63	J41_64	135.00	600.0	0.0050	0.0261	Open
P5206	J41_63	J42_63	135.00	500.0	0.0050	0.0386	Open
P5207	J41_64	J42_64	135.00	300.0	0.0050	0.0295	Open
P5208	J42_1	J42_2	135.00	450.0	0.0050	0.0349	Open
P5209	J42_1	J43_1	135.00	500.0	0.0050	0.0195	Open
P5210	J42_2	J42_3	135.00	300.0	0.0050	0.1457	Open
P5211	J42_2	J43_2	135.00	100.0	0.0050	0.1354	Open
P5212	J42_3	J42_4	135.00	250.0	0.0050	0.1028	Open
P5213	J42_3	J43_3	135.00	200.0	0.0050	0.0983	Open
P5214	J42_4	J42_5	135.00	300.0	0.0050	0.0033	Open
P5215	J42_4	J43_4	135.00	250.0	0.0050	0.0729	Open
P5216	J42_5	J42_6	135.00	150.0	0.0050	0.0038	Open
P5217	J42_5	J43_5	135.00	250.0	0.0050	0.1158	Open
P5218	J42_6	J42_7	135.00	300.0	0.0050	0.0312	Open
P5219	J42_6	J43_6	135.00	150.0	0.0050	0.0192	Open
P5220	J42_7	J42_8	135.00	250.0	0.0050	0.0101	Open
P5221	J42_7	J43_7	135.00	150.0	0.0050	0.1483	Open
P5222	J42_8	J42_9	135.00	200.0	0.0050	0.1019	Open
P5223	J42_8	J43_8	135.00	300.0	0.0050	0.0735	Open
P5224	J42_9	J42_10	135.00	200.0	0.0050	0.1430	Open
P5225	J42_9	J43_9	135.00	200.0	0.0050	0.1139	Open
P5226	J42_10	J42_11	135.00	150.0	0.0050	0.0875	Open
P5227	J42_10	J43_10	135.00	150.0	0.0050	0.0563	Open
P5228	J42_11	J42_12	135.00	500.0	0.0050	0.0384	Open
P5229	J42_11	J43_11	135.00	300.0	0.0050	0.0242	Open
P5230	J42_12	J42_13	135.00	250.0	0.0050	0.0086	Open
P5231	J42_12	J43_12	135.00	200.0	0.0050	0.0579	Open
P5232	J42_13	J42_14	135.00	100.0	0.0050	0.1245	Open
P5233	J42_13	J43_13	135.00	200.0	0.0050	0.1314	Open
P5234	J42_14	J42_15	135.00	250.0	0.0050	0.0260	Open
P5235	J42_14	J43_14	135.00	250.0	0.0050	0.0113	Open
P5236	J42_15	J42_16	135.00	200.0	0.0050	0.0426	Open
P5237	J42_15	J43_15	135.00	250.0	0.0050	0.0537	Open
P5238	J42_16	J42_17	135.00	250.0	0.0050	0.0714	Open
P5239	J42_16	J43_16	135.00	300.0	0.0050	0.0170	Open
P5240	J42_17	J42_18	135.00	200.0	0.0050	0.0357	Open
P5241	J42_17	J43_17	135.00	300.0	0.0050	0.0564	Open
P5242	J42_18	J42_19	135.00	150.0	0.0050	0.1348	Open
P5243	J42_18	J43_18	135.00	300.0	0.0050	0.0384	Open
P5244	J42_19	J42_20	135.00	150.0	0.0050	0.0989	Open
P5245	J42_19	J43_19	135.00	250.0	0.0050	0.0633	Open
P5246	J42_20	J42_21	135.00	100.0	0.0050	0.1255	Open
P5247	J42_20	J43_20	135.00	300.0	0.0050	0.0281	Open
P5248	J42_21	J42_22	135.00	600.0	0.0050	0.0492	Open
P5249	J42_21	J43_21	135.00	300.0	0.0050	0.0050	Open
P5250	J42_22	J42_23	135.00	200.0	0.0050	0.0250	Open
P5251	J42_22	J43_22	135.00	300.0	0.0050	0.1070	Open
P5252	J42_23	J42_24	135.00	100.0	0.0050	0.0928	Open
P5253	J42_23	J43_23	135.00	300.0	0.0050	0.0050	Open
P5254	J42_24	J42_25	135.00	200.0	0.0050	0.1051	Open
P5255	J42_24	J43_24	135.00	150.0	0.0050	0.0791	Open
P5256	J42_25	J42_26	135.00	200.0	0.0050	0.1463	Open
P5257	J42_25	J43_25	135.00	200.0	0.0050	0.0221	Open
P5258	J42_26	J42_27	135.00	300.0	0.0050	0.0426	Open
P5259	J42_26	J43_26	135.00	100.0	0.0050	0.0322	Open
P5260	J42_27	J42_28	135.00	150.0	0.0050	0.0884	Open
P5261	J42_27	J43_27	135.00	300.0	0.0050	0.0497	Open
P5262	J42_28	J42_29	135.00	200.0	0.0050	0.0476	Open
P5263	J42_28	J43_28	135.00	150.0	0.0050	0.0036	Open
P5264	J42_29	J42_30	135.00	300.0	0.0050	0.0697	Open
P5265	J42_29	J43_29	135.00	300.0	0.0050	0.0225	Open
P5266	J42_30	J42_31	135.00	150.0	0.0050	0.0399	Open
P5267	J42_30	J43_30	135.00	300.0	0.0050	0.0800	Open
P5268	J42_31	J42_32	135.00	600.0	0.0050	0.0143	Open
P5269	J42_31	J43_31	135.00	600.0	0.0050	0.0166	Open
P5270	J42_32	J42_33	135.00	300.0	0.0050	0.0622	Open
P5271	J42_32	J43_32	135.00	250.0	0.0050	0.0983	Open
P5272	J42_33	J42_34	135.00	300.0	0.0050	0.0725	Open
P5273	J42_33	J43_33	135.00	250.0	0.0050	0.1473	Open
P5274	J42_34	J42_35	135.00	200.0	0.0050	0.0647	Open
P5275	J42_34	J43_34	135.00	200.0	0.0050	0.1012	Open
P5276	J42_35	J42_36	135.00	100.0	0.0050	0.0898	Open
P5277	J42_35	J43_35	135.00	100.0	0.0050	0.0406	Open
P5278	J42_36	J42_37	135.00	300.0	0.0050	0.0094	Open
P5279	J42_36	J43_36	135.00	200.0	0.0050	0.0804	Open
P5280	J42_37	J42_38	135.00	300.0	0.0050	0.0870	Open
P5281	J42_37	J43_37	135.00	200.0	0.0050	0.1383	Open
P5282	J42_38	J42_39	135.00	300.0	0.0050	0.1422	Open
P5283	J42_38	J43_38	135.00	200.0	0.0050	0.0401	Open
P5284	J42_39	J42_40	135.00	100.0	0.0050	0.1351	Open
P5285	J42_39	J43_39	135.00	150.0	0.0050	0.1430	Open
P5286	J42_40	J42_41	135.00	250.0	0.0050	0.0651	Open
P5287	J42_40	J43_40	135.00	200.0	0.0050	0.1341	Open
P5288	J42_41	J42_42	135.00	600.0	0.0050	0.0042	Open
P5289	J42_41	J43_41	135.00	350.0	0.0050	0.0032	Open
P5290	J42_42	J42_43	135.00	300.0	0.0050	0.0845	Open
P5291	J42_42	J43_42	135.00	150.0	0.0050	0.0359	Open
P5292	J42_43	J42_44	135.00	150.0	0.0050	0.0551	Open
P5293	J42_43	J43_43	135.00	300.0	0.0050	0.1154	Open
P5294	J42_44	J42_45	135.00	300.0	0.0050	0.1386	Open
P5295	J42_44	J43_44	135.00	150.0	0.0050	0.1249	Open
P5296	J42_45	J42_46	135.00	100.0	0.0050	0.0592	Open
P5297	J42_45	J43_45	135.00	200.0	0.0050	0.0118	Open
P5298	J42_46	J42_47	135.00	150.0	0.0050	0.0200	Open
P5299	J42_46	J43_46	135.00	200.0	0.0050	0.0670	Open
P5300	J42_47	J42_48	135.00	250.0	0.0050	0.0072	Open
P5301	J42_47	J43_47	135.00	150.0	0.0050	0.1271	Open
P5302	J42_48	J42_49	135.00	250.0	0.0050	0.1090	Open
P5303	J42_48	J43_48	135.00	250.0	0.0050	0.0187	Open
P5304	J42_49	J42_50	135.00	250.0	0.0050	0.0202	Open
P5305	J42_49	J43_49	135.00	250.0	0.0050	0.0059	Open
P5306	J42_50	J42_51	135.00	150.0	0.0050	0.0360	Open
P5307	J42_50	J43_50	135.00	250.0	0.0050	0.0001	Open
P5308	J42_51	J42_52	135.00	500.0	0.0050	0.0100	Open
P5309	J42_51	J43_51	135.00	350.0	0.0050	0.0116	Open
P5310	J42_52	J42_53	135.00	100.0	0.0050	0.0943	Open
P5311	J42_52	J43_52	135.00	100.0	0.0050	0.0819	Open
P5312	J42_53	J42_54	135.00	200.0	0.0050	0.0499	Open
P5313	J42_53	J43_53	135.00	150.0	0.0050	0.0031	Open
P5314	J42_54	J42_55	135.00	100.0	0.0050	0.0026	Open
P5315	J42_54	J43_54	135.00	150.0	0.0050	0.0279	Open
P5316	J42_55	J42_56	135.00	150.0	0.0050	0.0648	Open
P5317	J42_55	J43_55	135.00	150.0	0.0050	0.0117	Open
P5318	J42_56	J42_57	135.00	100.0	0.0050	0.1233	Open
P5319	J42_56	J43_56	135.00	150.0	0.0050	0.1421	Open
P5320	J42_57	J42_58	135.00	250.0	0.0050	0.1409	Open
P5321	J42_57	J43_57	135.00	150.0	0.0050	0.0971	Open
P5322	J42_58	J42_59	135.00	100.0	0.0050	0.0621	Open
P5323	J42_58	J43_58	135.00	300.0	0.0050	0.0387	Open
P5324	J42_59	J42_60	135.00	250.0	0.0050	0.0652	Open
P5325	J42_59	J43_59	135.00	200.0	0.0050	0.1119	Open
P5326	J42_60	J42_61	135.00	250.0	0.0050	0.0296	Open
P5327	J42_60	J43_60	135.00	300.0	0.0050	0.0614	Open
P5328	J42_61	J42_62	135.00	500.0	0.0050	0.0344	Open
P5329	J42_61	J43_61	135.00	450.0	0.0050	0.0402	Open
P5330	J42_62	J42_63	135.00	200.0	0.0050	0.0431	Open
P5331	J42_62	J43_62	135.00	300.0	0.0050	0.0047	Open
P5332	J42_63	J42_64	135.00	150.0	0.0050	0.1268	Open
P5333	J42_63	J43_63	135.00	300.0	0.0050	0.0356	Open
P5334	J42_64	J43_64	135.00	200.0	0.0050	0.0352	Open
P5335	J43_1	J43_2	135.00	450.0	0.0050	0.0166	Open
P5336	J43_1	J44_1	135.00	500.0	0.0050	0.0404	Open
P5337	J43_2	J43_3	135.00	300.0	0.0050	0.1345	Open
P5338	J43_2	J44_2	135.00	150.0	0.0050	0.0280	Open
P5339	J43_3	J43_4	135.00	200.0	0.0050	0.0369	Open
P5340	J43_3	J44_3	135.00	250.0	0.0050	0.0408	Open
P5341	J43_4	J43_5	135.00	300.0	0.0050	0.0651	Open
P5342	J43_4	J44_4	135.00	250.0	0.0050	0.0876	Open
P5343	J43_5	J43_6	135.00	100.0	0.0050	0.0472	Open
P5344	J43_5	J44_5	135.00	300.0	0.0050	0.0387	Open
P5345	J43_6	J43_7	135.00	250.0	0.0050	0.0486	Open
P5346	J43_6	J44_6	135.00	200.0	0.0050	0.0928	Open
P5347	J43_7	J43_8	135.00	200.0	0.0050	0.1096	Open
P5348	J43_7	J44_7	135.00	300.0	0.0050	0.0856	Open
P5349	J43_8	J43_9	135.00	200.0	0.0050	0.1002	Open
P5350	J43_8	J44_8	135.00	250.0	0.0050	0.0311	Open
P5351	J43_9	J43_10	135.00	200.0	0.0050	0.0590	Open
P5352	J43_9	J44_9	135.00	300.0	0.0050	0.1383	Open
P5353	J43_10	J43_11	135.00	250.0	0.0050	0.1271	Open
P5354	J43_10	J44_10	135.00	150.0	0.0050	0.0120	Open
P5355	J43_11	J43_12	135.00	400.0	0.0050	0.0478	Open
P5356	J43_11	J44_11	135.00	500.0	0.0050	0.0140	Open
P5357	J43_12	J43_13	135.00	200.0	0.0050	0.1380	Open
P5358	J43_12	J44_12	135.00	200.0	0.0050	0.0700	Open
P5359	J43_13	J43_14	135.00	300.0	0.0050	0.1000	Open
P5360	J43_13	J44_13	135.00	250.0	0.0050	0.0348	Open
P5361	J43_14	J43_15	135.00	100.0	0.0050	0.0982	Open
P5362	J43_14	J44_14	135.00	200.0	0.0050	0.1260	Open
P5363	J43_15	J43_16	135.00	100.0	0.0050	0.0992	Open
P5364	J43_15	J44_15	135.00	200.0	0.0050	0.0547	Open
P5365	J43_16	J43_17	135.00	200.0	0.0050	0.1404	Open
P5366	J43_16	J44_16	135.00	100.0	0.0050	0.0521	Open
P5367	J43_17	J43_18	135.00	150.0	0.0050	0.0920	Open
P5368	J43_17	J44_17	135.00	150.0	0.0050	0.0989	Open
P5369	J43_18	J43_19	135.00	200.0	0.0050	0.0055	Open
P5370	J43_18	J44_18	135.00	200.0	0.0050	0.0373	Open
P5371	J43_19	J43_20	135.00	250.0	0.0050	0.0961	Open
P5372	J43_19	J44_19	135.00	250.0	0.0050	0.1410	Open
P5373	J43_20	J43_21	135.00	100.0	0.0050	0.0764	Open
P5374	J43_20	J44_20	135.00	300.0	0.0050	0.0988	Open
P5375	J43_21	J43_22	135.00	500.0	0.0050	0.0328	Open
P5376	J43_21	J44_21	135.00	600.0	0.0050	0.0349	Open
P5377	J43_22	J43_23	135.00	100.0	0.0050	0.0524	Open
P5378	J43_22	J44_22	135.00	250.0	0.0050	0.0639	Open
P5379	J43_23	J43_24	135.00	250.0	0.0050	0.0743	Open
P5380	J43_23	J44_23	135.00	250.0	0.0050	0.0906	Open
P5381	J43_24	J43_25	135.00	300.0	0.0050	0.0653	Open
P5382	J43_24	J44_24	135.00	300.0	0.0050	0.1037	Open
P5383	J43_25	J43_26	135.00	200.0	0.0050	0.0804	Open
P5384	J43_25	J44_25	135.00	250.0	0.0050	0.0844	Open
P5385	J43_26	J43_27	135.00	250.0	0.0050	0.0118	Open
P5386	J43_26	J44_26	135.00	250.0	0.0050	0.1272	Open
P5387	J43_27	J43_28	135.00	150.0	0.0050	0.1141	Open
P5388	J43_27	J44_27	135.00	100.0	0.0050	0.1213	Open
P5389	J43_28	J43_29	135.00	250.0	0.0050	0.0981	Open
P5390	J43_28	J44_28	135.00	100.0	0.0050	0.1357	Open
P5391	J43_29	J43_30	135.00	100.0	0.0050	0.0710	Open
P5392	J43_29	J44_29	135.00	100.0	0.0050	0.0893	Open
P5393	J43_30	J43_31	135.00	300.0	0.0050	0.0148	Open
P5394	J43_30	J44_30	135.00	200.0	0.0050	0.0283	Open
P5395	J43_31	J43_32	135.00	600.0	0.0050	0.0170	Open
P5396	J43_31	J44_31	135.00	500.0	0.0050	0.0040	Open
P5397	J43_32	J43_33	135.00	250.0	0.0050	0.0745	Open
P5398	J43_32	J44_32	135.00	100.0	0.0050	0.0731	Open
P5399	J43_33	J43_34	135.00	300.0	0.0050	0.0204	Open
P5400	J43_33	J44_33	135.00	100.0	0.0050	0.0957	Open
P5401	J43_34	J43_35	135.00	200.0	0.0050	0.0233	Open
P5402	J43_34	J44_34	135.00	300.0	0.0050	0.0462	Open
P5403	J43_35	J43_36	135.00	300.0	0.0050	0.0330	Open
P5404	J43_35	J44_35	135.00	200.0	0.0050	0.1395	Open
P5405	J43_36	J43_37	135.00	300.0	0.0050	0.1061	Open
P5406	J43_36	J44_36	135.00	250.0	0.0050	0.1058	Open
P5407	J43_37	J43_38	135.00	250.0	0.0050	0.0881	Open
P5408	J43_37	J44_37	135.00	150.0	0.0050	0.0350	Open
P5409	J43_38	J43_39	135.00	100.0	0.0050	0.1115	Open
P5410	J43_38	J44_38	135.00	100.0	0.0050	0.0644	Open
P5411	J43_39	J43_40	135.00	150.0	0.0050	0.0401	Open
P5412	J43_39	J44_39	135.00	150.0	0.0050	0.0953	Open
P5413	J43_40	J43_41	135.00	150.0	0.0050	0.1359	Open
P5414	J43_40	J44_40	135.00	150.0	0.0050	0.1424	Open
P5415	J43_41	J43_42	135.00	500.0	0.0050	0.0251	Open
P5416	J43_41	J44_41	135.00	500.0	0.0050	0.0432	Open
P5417	J43_42	J43_43	135.00	100.0	0.0050	0.0438	Open
P5418	J43_42	J44_42	135.00	200.0	0.0050	0.0648	Open
P5419	J43_43	J43_44	135.00	100.0	0.0050	0.0199	Open
P5420	J43_43	J44_43	135.00	300.0	0.0050	0.0145	Open
P5421	J43_44	J43_45	135.00	200.0	0.0050	0.0111	Open
P5422	J43_44	J44_44	135.00	200.0	0.0050	0.0333	Open
P5423	J43_45	J43_46	135.00	100.0	0.0050	0.1116	Open
P5424	J43_45	J44_45	135.00	200.0	0.0050	0.1453	Open
P5425	J43_46	J43_47	135.00	250.0	0.0050	0.1489	Open
P5426	J43_46	J44_46	135.00	100.0	0.0050	0.0252	Open
P5427	J43_47	J43_48	135.00	150.0	0.0050	0.1136	Open
P5428	J43_47	J44_47	135.00	150.0	0.0050	0.0135	Open
P5429	J43_48	J43_49	135.00	100.0	0.0050	0.0883	Open
P5430	J43_48	J44_48	135.00	100.0	0.0050	0.0964	Open
P5431	J43_49	J43_50	135.00	150.0	0.0050	0.0812	Open
P5432	J43_49	J44_49	135.00	200.0	0.0050	0.0282	Open
P5433	J43_50	J43_51	135.00	200.0	0.0050	0.0149	Open
P5434	J43_50	J44_50	135.00	150.0	0.0050	0.0407	Open
P5435	J43_51	J43_52	135.00	300.0	0.0050	0.0414	Open
P5436	J43_51	J44_51	135.00	450.0	0.0050	0.0370	Open
P5437	J43_52	J43_53	135.00	200.0	0.0050	0.1180	Open
P5438	J43_52	J44_52	135.00	200.0	0.0050	0.0011	Open
P5439	J43_53	J43_54	135.00	200.0	0.0050	0.0631	Open
P5440	J43_53	J44_53	135.00	150.0	0.0050	0.1298	Open
P5441	J43_54	J43_55	135.00	200.0	0.0050	0.1044	Open
P5442	J43_54	J44_54	135.00	150.0	0.0050	0.0213	Open
P5443	J43_55	J43_56	135.00	100.0	0.0050	0.1018	Open
P5444	J43_55	J44_55	135.00	150.0	0.0050	0.0138	Open
P5445	J43_56	J43_57	135.00	200.0	0.0050	0.0811	Open
P5446	J43_56	J44_56	135.00	200.0	0.0050	0.0342	Open
P5447	J43_57	J43_58	135.00	200.0	0.0050	0.1290	Open
P5448	J43_57	J44_57	135.00	200.0	0.0050	0.0386	Open
P5449	J43_58	J43_59	135.00	150.0	0.0050	0.1042	Open
P5450	J43_58	J44_58	135.00	100.0	0.0050	0.0090	Open
P5451	J43_59	J43_60	135.00	250.0	0.0050	0.0731	Open
P5452	J43_59	J44_59	135.00	150.0	0.0050	0.1059	Open
P5453	J43_60	J43_61	135.00	200.0	0.0050	0.0924	Open
P5454	J43_60	J44_60	135.00	250.0	0.0050	0.0560	Open
P5455	J43_61	J43_62	135.00	600.0	0.0050	0.0441	Open
P5456	J43_61	J44_61	135.00	300.0	0.0050	0.0327	Open
P5457	J43_62	J43_63	135.00	100.0	0.0050	0.0883	Open
P5458	J43_62	J44_62	135.00	200.0	0.0050	0.0529	Open
P5459	J43_63	J43_64	135.00	300.0	0.0050	0.1054	Open
P5460	J43_63	J44_63	135.00	100.0	0.0050	0.0783	Open
P5461	J43_64	J44_64	135.00	300.0	0.0050	0.0943	Open
P5462	J44_1	J44_2	135.00	400.0	0.0050	0.0342	Open
P5463	J44_1	J45_1	135.00	400.0	0.0050	0.0108	Open
P5464	J44_2	J44_3	135.00	300.0	0.0050	0.1315	Open
P5465	J44_2	J45_2	135.00	150.0	0.0050	0.1045	Open
P5466	J44_3	J44_4	135.00	300.0	0.0050	0.1059	Open
P5467	J44_3	J45_3	135.00	250.0	0.0050	0.1363	Open
P5468	J44_4	J44_5	135.00	250.0	0.0050	0.1288	Open
P5469	J44_4	J45_4	135.00	200.0	0.0050	0.0519	Open
P5470	J44_5	J44_6	135.00	250.0	0.0050	0.0574	Open
P5471	J44_5	J45_5	135.00	100.0	0.0050	0.0740	Open
P5472	J44_6	J44_7	135.00	200.0	0.0050	0.0659	Open
P5473	J44_6	J45_6	135.00	300.0	0.0050	0.0657	Open
P5474	J44_7	J44_8	135.00	250.0	0.0050	0.0014	Open
P5475	J44_7	J45_7	135.00	200.0	0.0050	0.1097	Open
P5476	J44_8	J44_9	135.00	100.0	0.0050	0.0512	Open
P5477	J44_8	J45_8	135.00	200.0	0.0050	0.0461	Open
P5478	J44_9	J44_10	135.00	250.0	0.0050	0.0894	Open
P5479	J44_9	J45_9	135.00	200.0	0.0050	0.0082	Open
P5480	J44_10	J44_11	135.00	250.0	0.0050	0.0529	Open
P5481	J44_10	J45_10	135.00	300.0	0.0050	0.0758	Open
P5482	J44_11	J44_12	135.00	600.0	0.0050	0.0500	Open
P5483	J44_11	J45_11	135.00	500.0	0.0050	0.0053	Open
P5484	J44_12	J44_13	135.00	100.0	0.0050	0.1303	Open
P5485	J44_12	J45_12	135.00	100.0	0.0050	0.0667	Open
P5486	J44_13	J44_14	135.00	250.0	0.0050	0.0978	Open
P5487	J44_13	J45_13	135.00	150.0	0.0050	0.1200	Open
P5488	J44_14	J44_15	135.00	200.0	0.0050	0.0676	Open
P5489	J44_14	J45_14	135.00	300.0	0.0050	0.0724	Open
P5490	J44_15	J44_16	135.00	100.0	0.0050	0.0809	Open
P5491	J44_15	J45_15	135.00	300.0	0.0050	0.1380	Open
P5492	J44_16	J44_17	135.00	200.0	0.0050	0.0228	Open
P5493	J44_16	J45_16	135.00	100.0	0.0050	0.0483	Open
P5494	J44_17	J44_18	135.00	200.0	0.0050	0.1462	Open
P5495	J44_17	J45_17	135.00	150.0	0.0050	0.1209	Open
P5496	J44_18	J44_19	135.00	300.0	0.0050	0.0750	Open
P5497	J44_18	J45_18	135.00	300.0	0.0050	0.1099	Open
P5498	J44_19	J44_20	135.00	150.0	0.0050	0.1013	Open
P5499	J44_19	J45_19	135.00	150.0	0.0050	0.1119	Open
P5500	J44_20	J44_21	135.00	100.0	0.0050	0.0812	Open
P5501	J44_20	J45_20	135.00	250.0	0.0050	0.0475	Open
P5502	J44_21	J44_22	135.00	300.0	0.0050	0.0355	Open
P5503	J44_21	J45_21	135.00	600.0	0.0050	0.0494	Open
P5504	J44_22	J44_23	135.00	250.0	0.0050	0.1404	Open
P5505	J44_22	J45_22	135.00	300.0	0.0050	0.0544	Open
P5506	J44_23	J44_24	135.00	200.0	0.0050	0.0106	Open
P5507	J44_23	J45_23	135.00	300.0	0.0050	0.0436	Open
P5508	J44_24	J44_25	135.00	200.0	0.0050	0.1161	Open
P5509	J44_24	J45_24	135.00	250.0	0.0050	0.1496	Open
P5510	J44_25	J44_26	135.00	100.0	0.0050	0.1028	Open
P5511	J44_25	J45_25	135.00	200.0	0.0050	0.1173	Open
P5512	J44_26	J44_27	135.00	300.0	0.0050	0.0752	Open
P5513	J44_26	J45_26	135.00	100.0	0.0050	0.0437	Open
P5514	J44_27	J44_28	135.00	150.0	0.0050	0.1010	Open
P5515	J44_27	J45_27	135.00	300.0	0.0050	0.0747	Open
P5516	J44_28	J44_29	135.00	300.0	0.0050	0.0882	Open
P5517	J44_28	J45_28	135.00	250.0	0.0050	0.0174	Open
P5518	J44_29	J44_30	135.00	250.0	0.0050	0.1274	Open
P5519	J44_29	J45_29	135.00	250.0	0.0050	0.0732	Open
P5520	J44_30	J44_31	135.00	200.0	0.0050	0.1061	Open
P5521	J44_30	J45_30	135.00	300.0	0.0050	0.0652	Open
P5522	J44_31	J44_32	135.00	500.0	0.0050	0.0150	Open
P5523	J44_31	J45_31	135.00	400.0	0.0050	0.0092	Open
P5524	J44_32	J44_33	135.00	300.0	0.0050	0.0553	Open
P5525	J44_32	J45_32	135.00	300.0	0.0050	0.0686	Open
P5526	J44_33	J44_34	135.00	250.0	0.0050	0.1227	Open
P5527	J44_33	J45_33	135.00	100.0	0.0050	0.1332	Open
P5528	J44_34	J44_35	135.00	100.0	0.0050	0.0703	Open
P5529	J44_34	J45_34	135.00	300.0	0.0050	0.0460	Open
P5530	J44_35	J44_36	135.00	200.0	0.0050	0.0002	Open
P5531	J44_35	J45_35	135.00	150.0	0.0050	0.1382	Open
P5532	J44_36	J44_37	135.00	300.0	0.0050	0.0896	Open
P5533	J44_36	J45_36	135.00	150.0	0.0050	0.0424	Open
P5534	J44_37	J44_38	135.00	300.0	0.0050	0.0382	Open
P5535	J44_37	J45_37	135.00	300.0	0.0050	0.1124	Open
P5536	J44_38	J44_39	135.00	150.0	0.0050	0.0242	Open
P5537	J44_38	J45_38	135.00	150.0	0.0050	0.0391	Open
P5538	J44_39	J44_40	135.00	150.0	0.0050	0.0506	Open
P5539	J44_39	J45_39	135.00	200.0	0.0050	0.0044	Open
P5540	J44_40	J44_41	135.00	250.0	0.0050	0.0280	Open
P5541	J44_40	J45_40	135.00	100.0	0.0050	0.0962	Open
P5542	J44_41	J44_42	135.00	300.0	0.0050	0.0251	Open
P5543	J44_41	J45_41	135.00	300.0	0.0050	0.0237	Open
P5544	J44_42	J44_43	135.00	200.0	0.0050	0.0357	Open
P5545	J44_42	J45_42	135.00	250.0	0.0050	0.1028	Open
P5546	J44_43	J44_44	135.00	200.0	0.0050	0.0355	Open
P5547	J44_43	J45_43	135.00	100.0	0.0050	0.0902	Open
P5548	J44_44	J44_45	135.00	250.0	0.0050	0.0100	Open
P5549	J44_44	J45_44	135.00	150.0	0.0050	0.0748	Open
P5550	J44_45	J44_46	135.00	300.0	0.0050	0.0276	Open
P5551	J44_45	J45_45	135.00	250.0	0.0050	0.1045	Open
P5552	J44_46	J44_47	135.00	150.0	0.0050	0.0225	Open
P5553	J44_46	J45_46	135.00	150.0	0.0050	0.0479	Open
P5554	J44_47	J44_48	135.00	100.0	0.0050	0.1112	Open
P5555	J44_47	J45_47	135.00	200.0	0.0050	0.0217	Open
P5556	J44_48	J44_49	135.00	250.0	0.0050	0.0672	Open
P5557	J44_48	J45_48	135.00	200.0	0.0050	0.0126	Open
P5558	J44_49	J44_50	135.00	250.0	0.0050	0.0740	Open
P5559	J44_49	J45_49	135.00	250.0	0.0050	0.1459	Open
P5560	J44_50	J44_51	135.00	150.0	0.0050	0.0867	Open
P5561	J44_50	J45_50	135.00	200.0	0.0050	0.0473	Open
P5562	J44_51	J44_52	135.00	400.0	0.0050	0.0480	Open
P5563	J44_51	J45_51	135.00	500.0	0.0050	0.0234	Open
P5564	J44_52	J44_53	135.00	250.0	0.0050	0.0963	Open
P5565	J44_52	J45_52	135.00	300.0	0.0050	0.1048	Open
P5566	J44_53	J44_54	135.00	150.0	0.0050	0.0392	Open
P5567	J44_53	J45_53	135.00	250.0	0.0050	0.1373	Open
P5568	J44_54	J44_55	135.00	150.0	0.0050	0.0762	Open
P5569	J44_54	J45_54	135.00	100.0	0.0050	0.0880	Open
P5570	J44_55	J44_56	135.00	150.0	0.0050	0.1424	Open
P5571	J44_55	J45_55	135.00	200.0	0.0050	0.0222	Open
P5572	J44_56	J44_57	135.00	100.0	0.0050	0.0330	Open
P5573	J44_56	J45_56	135.00	100.0	0.0050	0.0679	Open
P5574	J44_57	J44_58	135.00	100.0	0.0050	0.1116	Open
P5575	J44_57	J45_57	135.00	200.0	0.0050	0.0948	Open
P5576	J44_58	J44_59	135.00	150.0	0.0050	0.0254	Open
P5577	J44_58	J45_58	135.00	250.0	0.0050	0.1219	Open
P5578	J44_59	J44_60	135.00	150.0	0.0050	0.0978	Open
P5579	J44_59	J45_59	135.00	200.0	0.0050	0.0294	Open
P5580	J44_60	J44_61	135.00	150.0	0.0050	0.1328	Open
P5581	J44_60	J45_60	135.00	300.0	0.0050	0.0582	Open
P5582	J44_61	J44_62	135.00	350.0	0.0050	0.0097	Open
P5583	J44_61	J45_61	135.00	450.0	0.0050	0.0030	Open
P5584	J44_62	J44_63	135.00	300.0	0.0050	0.0768	Open
P5585	J44_62	J45_62	135.00	150.0	0.0050	0.0366	Open
P5586	J44_63	J44_64	135.00	250.0	0.0050	0.1492	Open
P5587	J44_63	J45_63	135.00	300.0	0.0050	0.0876	Open
P5588	J44_64	J45_64	135.00	100.0	0.0050	0.0911	Open
P5589	J45_1	J45_2	135.00	600.0	0.0050	0.0239	Open
P5590	J45_1	J46_1	135.00	300.0	0.0050	0.0242	Open
P5591	J45_2	J45_3	135.00	250.0	0.0050	0.0006	Open
P5592	J45_2	J46_2	135.00	200.0	0.0050	0.0921	Open
P5593	J45_3	J45_4	135.00	300.0	0.0050	0.1323	Open
P5594	J45_3	J46_3	135.00	300.0	0.0050	0.0480	Open
P5595	J45_4	J45_5	135.00	200.0	0.0050	0.0917	Open
P5596	J45_4	J46_4	135.00	200.0	0.0050	0.0043	Open
P5597	J45_5	J45_6	135.00	150.0	0.0050	0.0685	Open
P5598	J45_5	J46_5	135.00	200.0	0.0050	0.1019	Open
P5599	J45_6	J45_7	135.00	150.0	0.0050	0.0153	Open
P5600	J45_6	J46_6	135.00	150.0	0.0050	0.0291	Open
P5601	J45_7	J45_8	135.00	250.0	0.0050	0.0894	Open
P5602	J45_7	J46_7	135.00	100.0	0.0050	0.0443	Open
P5603	J45_8	J45_9	135.00	100.0	0.0050	0.0509	Open
P5604	J45_8	J46_8	135.00	250.0	0.0050	0.1071	Open
P5605	J45_9	J45_10	135.00	300.0	0.0050	0.0882	Open
P5606	J45_9	J46_9	135.00	100.0	0.0050	0.0627	Open
P5607	J45_10	J45_11	135.00	300.0	0.0050	0.1262	Open
P5608	J45_10	J46_10	135.00	250.0	0.0050	0.1015	Open
P5609	J45_11	J45_12	135.00	300.0	0.0050	0.0311	Open
P5610	J45_11	J46_11	135.00	350.0	0.0050	0.0125	Open
P5611	J45_12	J45_13	135.00	100.0	0.0050	0.0528	Open
P5612	J45_12	J46_12	135.00	200.0	0.0050	0.0797	Open
P5613	J45_13	J45_14	135.00	300.0	0.0050	0.0039	Open
P5614	J45_13	J46_13	135.00	100.0	0.0050	0.0320	Open
P5615	J45_14	J45_15	135.00	150.0	0.0050	0.0216	Open
P5616	J45_14	J46_14	135.00	100.0	0.0050	0.0254	Open
P5617	J45_15	J45_16	135.00	300.0	0.0050	0.1424	Open
P5618	J45_15	J46_15	135.00	250.0	0.0050	0.0510	Open
P5619	J45_16	J45_17	135.00	100.0	0.0050	0.1219	Open
P5620	J45_16	J46_16	135.00	100.0	0.0050	0.0040	Open
P5621	J45_17	J45_18	135.00	150.0	0.0050	0.0022	Open
P5622	J45_17	J46_17	135.00	300.0	0.0050	0.0443	Open
P5623	J45_18	J45_19	135.00	150.0	0.0050	0.0882	Open
P5624	J45_18	J46_18	135.00	100.0	0.0050	0.0528	Open
P5625	J45_19	J45_20	135.00	250.0	0.0050	0.0701	Open
P5626	J45_19	J46_19	135.00	150.0	0.0050	0.0687	Open
P5627	J45_20	J45_21	135.00	250.0	0.0050	0.1452	Open
P5628	J45_20	J46_20	135.00	100.0	0.0050	0.1268	Open
P5629	J45_21	J45_22	135.00	500.0	0.0050	0.0487	Open
P5630	J45_21	J46_21	135.00	500.0	0.0050	0.0086	Open
P5631	J45_22	J45_23	135.00	250.0	0.0050	0.0419	Open
P5632	J45_22	J46_22	135.00	250.0	0.0050	0.1062	Open
P5633	J45_23	J45_24	135.00	100.0	0.0050	0.1066	Open
P5634	J45_23	J46_23	135.00	150.0	0.0050	0.1430	Open
P5635	J45_24	J45_25	135.00	100.0	0.0050	0.0382	Open
P5636	J45_24	J46_24	135.00	250.0	0.0050	0.0611	Open
P5637	J45_25	J45_26	135.00	300.0	0.0050	0.1058	Open
P5638	J45_25	J46_25	135.00	100.0	0.0050	0.0646	Open
P5639	J45_26	J45_27	135.00	250.0	0.0050	0.0510	Open
P5640	J45_26	J46_26	135.00	100.0	0.0050	0.1237	Open
P5641	J45_27	J45_28	135.00	300.0	0.0050	0.1391	Open
P5642	J45_27	J46_27	135.00	100.0	0.0050	0.0087	Open
P5643	J45_28	J45_29	135.00	200.0	0.0050	0.1315	Open
P5644	J45_28	J46_28	135.00	300.0	0.0050	0.0382	Open
P5645	J45_29	J45_30	135.00	250.0	0.0050	0.1392	Open
P5646	J45_29	J46_29	135.00	300.0	0.0050	0.0632	Open
P5647	J45_30	J45_31	135.00	250.0	0.0050	0.0474	Open
P5648	J45_30	J46_30	135.00	250.0	0.0050	0.0608	Open
P5649	J45_31	J45_32	135.00	400.0	0.0050	0.0452	Open
P5650	J45_31	J46_31	135.00	600.0	0.0050	0.0034	Open
P5651	J45_32	J45_33	135.00	150.0	0.0050	0.0159	Open
P5652	J45_32	J46_32	135.00	300.0	0.0050	0.0285	Open
P5653	J45_33	J45_34	135.00	100.0	0.0050	0.0107	Open
P5654	J45_33	J46_33	135.00	300.0	0.0050	0.1142	Open
P5655	J45_34	J45_35	135.00	250.0	0.0050	0.0734	Open
P5656	J45_34	J46_34	135.00	150.0	0.0050	0.1354	Open
P5657	J45_35	J45_36	135.00	150.0	0.0050	0.0800	Open
P5658	J45_35	J46_35	135.00	200.0	0.0050	0.0943	Open
P5659	J45_36	J45_37	135.00	200.0	0.0050	0.0102	Open
P5660	J45_36	J46_36	135.00	250.0	0.0050	0.0127	Open
P5661	J45_37	J45_38	135.00	300.0	0.0050	0.0407	Open
P5662	J45_37	J46_37	135.00	300.0	0.0050	0.1423	Open
P5663	J45_38	J45_39	135.00	250.0	0.0050	0.0100	Open
P5664	J45_38	J46_38	135.00	100.0	0.0050	0.0883	Open
P5665	J45_39	J45_40	135.00	250.0	0.0050	0.1103	Open
P5666	J45_39	J46_39	135.00	250.0	0.0050	0.0663	Open
P5667	J45_40	J45_41	135.00	200.0	0.0050	0.0050	Open
P5668	J45_40	J46_40	135.00	250.0	0.0050	0.0356	Open
P5669	J45_41	J45_42	135.00	500.0	0.0050	0.0145	Open
P5670	J45_41	J46_41	135.00	400.0	0.0050	0.0498	Open
P5671	J45_42	J45_43	135.00	200.0	0.0050	0.0689	Open
P5672	J45_42	J46_42	135.00	150.0	0.0050	0.1304	Open
P5673	J45_43	J45_44	135.00	100.0	0.0050	0.0247	Open
P5674	J45_43	J46_43	135.00	150.0	0.0050	0.1193	Open
P5675	J45_44	J45_45	135.00	300.0	0.0050	0.1332	Open
P5676	J45_44	J46_44	135.00	150.0	0.0050	0.0395	Open
P5677	J45_45	J45_46	135.00	100.0	0.0050	0.0183	Open
P5678	J45_45	J46_45	135.00	300.0	0.0050	0.0453	Open
P5679	J45_46	J45_47	135.00	100.0	0.0050	0.0174	Open
P5680	J45_46	J46_46	135.00	150.0	0.0050	0.1418	Open
P5681	J45_47	J45_48	135.00	150.0	0.0050	0.0513	Open
P5682	J45_47	J46_47	135.00	200.0	0.0050	0.0893	Open
P5683	J45_48	J45_49	135.00	200.0	0.0050	0.0834	Open
P5684	J45_48	J46_48	135.00	250.0	0.0050	0.0205	Open
P5685	J45_49	J45_50	135.00	200.0	0.0050	0.0851	Open
P5686	J45_49	J46_49	135.00	100.0	0.0050	0.0460	Open
P5687	J45_50	J45_51	135.00	200.0	0.0050	0.1316	Open
P5688	J45_50	J46_50	135.00	150.0	0.0050	0.0433	Open
P5689	J45_51	J45_52	135.00	600.0	0.0050	0.0486	Open
P5690	J45_51	J46_51	135.00	500.0	0.0050	0.0296	Open
P5691	J45_52	J45_53	135.00	100.0	0.0050	0.0562	Open
P5692	J45_52	J46_52	135.00	150.0	0.0050	0.1023	Open
P5693	J45_53	J45_54	135.00	200.0	0.0050	0.0953	Open
P5694	J45_53	J46_53	135.00	300.0	0.0050	0.0349	Open
P5695	J45_54	J45_55	135.00	250.0	0.0050	0.1252	Open
P5696	J45_54	J46_54	135.00	300.0	0.0050	0.0691	Open
P5697	J45_55	J45_56	135.00	200.0	0.0050	0.0852	Open
P5698	J45_55	J46_55	135.00	150.0	0.0050	0.1117	Open
P5699	J45_56	J45_57	135.00	250.0	0.0050	0.0225	Open
P5700	J45_56	J46_56	135.00	250.0	0.0050	0.0042	Open
P5701	J45_57	J45_58	135.00	250.0	0.0050	0.1187	Open
P5702	J45_57	J46_57	135.00	300.0	0.0050	0.1111	Open
P5703	J45_58	J45_59	135.00	100.0	0.0050	0.0994	Open
P5704	J45_58	J46_58	135.00	200.0	0.0050	0.1277	Open
P5705	J45_59	J45_60	135.00	250.0	0.0050	0.1203	Open
P5706	J45_59	J46_59	135.00	100.0	0.0050	0.1021	Open
P5707	J45_60	J45_61	135.00	250.0	0.0050	0.1064	Open
P5708	J45_60	J46_60	135.00	300.0	0.0050	0.1249	Open
P5709	J45_61	J45_62	135.00	300.0	0.0050	0.0110	Open
P5710	J45_61	J46_61	135.00	300.0	0.0050	0.0231	Open
P5711	J45_62	J45_63	135.00	200.0	0.0050	0.1170	Open
P5712	J45_62	J46_62	135.00	100.0	0.0050	0.0502	Open
P5713	J45_63	J45_64	135.00	200.0	0.0050	0.1077	Open
P5714	J45_63	J46_63	135.00	250.0	0.0050	0.0209	Open
P5715	J45_64	J46_64	135.00	300.0	0.0050	0.0199	Open
P5716	J46_1	J46_2	135.00	450.0	0.0050	0.0324	Open
P5717	J46_1	J47_1	135.00	400.0	0.0050	0.0265	Open
P5718	J46_2	J46_3	135.00	100.0	0.0050	0.0930	Open
P5719	J46_2	J47_2	135.00	300.0	0.0050	0.0366	Open
P5720	J46_3	J46_4	135.00	150.0	0.0050	0.0253	Open
P5721	J46_3	J47_3	135.00	200.0	0.0050	0.0433	Open
P5722	J46_4	J46_5	135.00	100.0	0.0050	0.1377	Open
P5723	J46_4	J47_4	135.00	250.0	0.0050	0.1262	Open
P5724	J46_5	J46_6	135.00	250.0	0.0050	0.1038	Open
P5725	J46_5	J47_5	135.00	250.0	0.0050	0.0129	Open
P5726	J46_6	J46_7	135.00	250.0	0.0050	0.0733	Open
P5727	J46_6	J47_6	135.00	150.0	0.0050	0.1055	Open
P5728	J46_7	J46_8	135.00	150.0	0.0050	0.0264	Open
P5729	J46_7	J47_7	135.00	100.0	0.0050	0.0352	Open
P5730	J46_8	J46_9	135.00	150.0	0.0050	0.0296	Open
P5731	J46_8	J47_8	135.00	100.0	0.0050	0.0052	Open
P5732	J46_9	J46_10	135.00	300.0	0.0050	0.1489	Open
P5733	J46_9	J47_9	135.00	300.0	0.0050	0.0185	Open
P5734	J46_10	J46_11	135.00	100.0	0.0050	0.0071	Open
P5735	J46_10	J47_10	135.00	200.0	0.0050	0.0092	Open
P5736	J46_11	J46_12	135.00	600.0	0.0050	0.0315	Open
P5737	J46_11	J47_11	135.00	400.0	0.0050	0.0087	Open
P5738	J46_12	J46_13	135.00	250.0	0.0050	0.0427	Open
P5739	J46_12	J47_12	135.00	300.0	0.0050	0.1406	Open
P5740	J46_13	J46_14	135.00	300.0	0.0050	0.1244	Open
P5741	J46_13	J47_13	135.00	250.0	0.0050	0.0266	Open
P5742	J46_14	J46_15	135.00	150.0	0.0050	0.0776	Open
P5743	J46_14	J47_14	135.00	300.0	0.0050	0.1316	Open
P5744	J46_15	J46_16	135.00	100.0	0.0050	0.0783	Open
P5745	J46_15	J47_15	135.00	250.0	0.0050	0.0832	Open
P5746	J46_16	J46_17	135.00	100.0	0.0050	0.0052	Open
P5747	J46_16	J47_16	135.00	100.0	0.0050	0.0515	Open
P5748	J46_17	J46_18	135.00	150.0	0.0050	0.0830	Open
P5749	J46_17	J47_17	135.00	300.0	0.0050	0.1126	Open
P5750	J46_18	J46_19	135.00	150.0	0.0050	0.0842	Open
P5751	J46_18	J47_18	135.00	100.0	0.0050	0.0938	Open
P5752	J46_19	J46_20	135.00	150.0	0.0050	0.0676	Open
P5753	J46_19	J47_19	135.00	200.0	0.0050	0.1046	Open
P5754	J46_20	J46_21	135.00	100.0	0.0050	0.1292	Open
P5755	J46_20	J47_20	135.00	100.0	0.0050	0.1484	Open
P5756	J46_21	J46_22	135.00	400.0	0.0050	0.0011	Open
P5757	J46_21	J47_21	135.00	350.0	0.0050	0.0175	Open
P5758	J46_22	J46_23	135.00	200.0	0.0050	0.1495	Open
P5759	J46_22	J47_22	135.00	150.0	0.0050	0.1337	Open
P5760	J46_23	J46_24	135.00	200.0	0.0050	0.1402	Open
P5761	J46_23	J47_23	135.00	250.0	0.0050	0.0368	Open
P5762	J46_24	J46_25	135.00	300.0	0.0050	0.0716	Open
P5763	J46_24	J47_24	135.00	250.0	0.0050	0.0245	Open
P5764	J46_25	J46_26	135.00	300.0	0.0050	0.1248	Open
P5765	J46_25	J47_25	135.00	200.0	0.0050	0.0119	Open
P5766	J46_26	J46_27	135.00	250.0	0.0050	0.1245	Open
P5767	J46_26	J47_26	135.00	200.0	0.0050	0.1255	Open
P5768	J46_27	J46_28	135.00	100.0	0.0050	0.0285	Open
P5769	J46_27	J47_27	135.00	200.0	0.0050	0.1102	Open
P5770	J46_28	J46_29	135.00	200.0	0.0050	0.1480	Open
P5771	J46_28	J47_28	135.00	200.0	0.0050	0.1140	Open
P5772	J46_29	J46_30	135.00	250.0	0.0050	0.1058	Open
P5773	J46_29	J47_29	135.00	250.0	0.0050	0.0510	Open
P5774	J46_30	J46_31	135.00	300.0	0.0050	0.1356	Open
P5775	J46_30	J47_30	135.00	200.0	0.0050	0.1209	Open
P5776	J46_31	J46_32	135.00	600.0	0.0050	0.0244	Open
P5777	J46_31	J47_31	135.00	400.0	0.0050	0.0195	Open
P5778	J46_32	J46_33	135.00	100.0	0.0050	0.1304	Open
P5779	J46_32	J47_32	135.00	100.0	0.0050	0.1306	Open
P5780	J46_33	J46_34	135.00	250.0	0.0050	0.1482	Open
P5781	J46_33	J47_33	135.00	200.0	0.0050	0.0738	Open
P5782	J46_34	J46_35	135.00	200.0	0.0050	0.1468	Open
P5783	J46_34	J47_34	135.00	250.0	0.0050	0.1189	Open
P5784	J46_35	J46_36	135.00	250.0	0.0050	0.0725	Open
P5785	J46_35	J47_35	135.00	250.0	0.0050	0.1050	Open
P5786	J46_36	J46_37	135.00	100.0	0.0050	0.0859	Open
P5787	J46_36	J47_36	135.00	300.0	0.0050	0.1065	Open
P5788	J46_37	J46_38	135.00	300.0	0.0050	0.1121	Open
P5789	J46_37	J47_37	135.00	300.0	0.0050	0.1399	Open
P5790	J46_38	J46_39	135.00	300.0	0.0050	0.1031	Open
P5791	J46_38	J47_38	135.00	300.0	0.0050	0.0394	Open
P5792	J46_39	J46_40	135.00	100.0	0.0050	0.0229	Open
P5793	J46_39	J47_39	135.00	200.0	0.0050	0.1342	Open
P5794	J46_40	J46_41	135.00	300.0	0.0050	0.0512	Open
P5795	J46_40	J47_40	135.00	200.0	0.0050	0.0016	Open
P5796	J46_41	J46_42	135.00	400.0	0.0050	0.0310	Open
P5797	J46_41	J47_41	135.00	300.0	0.0050	0.0357	Open
P5798	J46_42	J46_43	135.00	200.0	0.0050	0.0704	Open
P5799	J46_42	J47_42	135.00	200.0	0.0050	0.0665	Open
P5800	J46_43	J46_44	135.00	300.0	0.0050	0.0408	Open
P5801	J46_43	J47_43	135.00	200.0	0.0050	0.1181	Open
P5802	J46_44	J46_45	135.00	100.0	0.0050	0.1179	Open
P5803	J46_44	J47_44	135.00	150.0	0.0050	0.0446	Open
P5804	J46_45	J46_46	135.00	300.0	0.0050	0.0547	Open
P5805	J46_45	J47_45	135.00	200.0	0.0050	0.0270	Open
P5806	J46_46	J46_47	135.00	200.0	0.0050	0.1013	Open
P5807	J46_46	J47_46	135.00	150.0	0.0050	0.0318	Open
P5808	J46_47	J46_48	135.00	300.0	0.0050	0.0386	Open
P5809	J46_47	J47_47	135.00	200.0	0.0050	0.1060	Open
P5810	J46_48	J46_49	135.00	300.0	0.0050	0.0104	Open
P5811	J46_48	J47_48	135.00	250.0	0.0050	0.0217	Open
P5812	J46_49	J46_50	135.00	250.0	0.0050	0.0649	Open
P5813	J46_49	J47_49	135.00	200.0	0.0050	0.1264	Open
P5814	J46_50	J46_51	135.00	150.0	0.0050	0.0330	Open
P5815	J46_50	J47_50	135.00	250.0	0.0050	0.0737	Open
P5816	J46_51	J46_52	135.00	300.0	0.0050	0.0388	Open
P5817	J46_51	J47_51	135.00	300.0	0.0050	0.0125	Open
P5818	J46_52	J46_53	135.00	100.0	0.0050	0.0678	Open
P5819	J46_52	J47_52	135.00	150.0	0.0050	0.1194	Open
P5820	J46_53	J46_54	135.00	100.0	0.0050	0.0084	Open
P5821	J46_53	J47_53	135.00	100.0	0.0050	0.1432	Open
P5822	J46_54	J46_55	135.00	250.0	0.0050	0.0272	Open
P5823	J46_54	J47_54	135.00	300.0	0.0050	0.1409	Open
P5824	J46_55	J46_56	135.00	250.0	0.0050	0.0901	Open
P5825	J46_55	J47_55	135.00	200.0	0.0050	0.0895	Open
P5826	J46_56	J46_57	135.00	300.0	0.0050	0.0763	Open
P5827	J46_56	J47_56	135.00	100.0	0.0050	0.0562	Open
P5828	J46_57	J46_58	135.00	300.0	0.0050	0.0303	Open
P5829	J46_57	J47_57	135.00	150.0	0.0050	0.1477	Open
P5830	J46_58	J46_59	135.00	150.0	0.0050	0.0343	Open
P5831	J46_58	J47_58	135.00	100.0	0.0050	0.0770	Open
P5832	J46_59	J46_60	135.00	100.0	0.0050	0.0734	Open
P5833	J46_59	J47_59	135.00	100.0	0.0050	0.0619	Open
P5834	J46_60	J46_61	135.00	150.0	0.0050	0.0221	Open
P5835	J46_60	J47_60	135.00	100.0	0.0050	0.1294	Open
P5836	J46_61	J46_62	135.00	500.0	0.0050	0.0267	Open
P5837	J46_61	J47_61	135.00	400.0	0.0050	0.0117	Open
P5838	J46_62	J46_63	135.00	150.0	0.0050	0.0331	Open
P5839	J46_62	J47_62	135.00	200.0	0.0050	0.0801	Open
P5840	J46_63	J46_64	135.00	250.0	0.0050	0.0653	Open
P5841	J46_63	J47_63	135.00	100.0	0.0050	0.0738	Open
P5842	J46_64	J47_64	135.00	250.0	0.0050	0.0691	Open
P5843	J47_1	J47_2	135.00	450.0	0.0050	0.0183	Open
P5844	J47_1	J48_1	135.00	400.0	0.0050	0.0296	Open
P5845	J47_2	J47_3	135.00	200.0	0.0050	0.0694	Open
P5846	J47_2	J48_2	135.00	150.0	0.0050	0.0802	Open
P5847	J47_3	J47_4	135.00	150.0	0.0050	0.0966	Open
P5848	J47_3	J48_3	135.00	100.0	0.0050	0.0335	Open
P5849	J47_4	J47_5	135.00	250.0	0.0050	0.0010	Open
P5850	J47_4	J48_4	135.00	150.0	0.0050	0.0687	Open
P5851	J47_5	J47_6	135.00	150.0	0.0050	0.0122	Open
P5852	J47_5	J48_5	135.00	300.0	0.0050	0.1304	Open
P5853	J47_6	J47_7	135.00	200.0	0.0050	0.1283	Open
P5854	J47_6	J48_6	135.00	100.0	0.0050	0.1380	Open
P5855	J47_7	J47_8	135.00	100.0	0.0050	0.0353	Open
P5856	J47_7	J48_7	135.00	100.0	0.0050	0.1201	Open
P5857	J47_8	J47_9	135.00	200.0	0.0050	0.0752	Open
P5858	J47_8	J48_8	135.00	200.0	0.0050	0.0584	Open
P5859	J47_9	J47_10	135.00	300.0	0.0050	0.1460	Open
P5860	J47_9	J48_9	135.00	250.0	0.0050	0.1257	Open
P5861	J47_10	J47_11	135.00	150.0	0.0050	0.0210	Open
P5862	J47_10	J48_10	135.00	150.0	0.0050	0.0651	Open
P5863	J47_11	J47_12	135.00	600.0	0.0050	0.0164	Open
P5864	J47_11	J48_11	135.00	400.0	0.0050	0.0133	Open
P5865	J47_12	J47_13	135.00	100.0	0.0050	0.0087	Open
P5866	J47_12	J48_12	135.00	150.0	0.0050	0.1288	Open
P5867	J47_13	J47_14	135.00	250.0	0.0050	0.0222	Open
P5868	J47_13	J48_13	135.00	250.0	0.0050	0.1257	Open
P5869	J47_14	J47_15	135.00	150.0	0.0050	0.1092	Open
P5870	J47_14	J48_14	135.00	150.0	0.0050	0.1440	Open
P5871	J47_15	J47_16	135.00	250.0	0.0050	0.1498	Open
P5872	J47_15	J48_15	135.00	150.0	0.0050	0.0722	Open
P5873	J47_16	J47_17	135.00	300.0	0.0050	0.1106	Open
P5874	J47_16	J48_16	135.00	250.0	0.0050	0.1497	Open
P5875	J47_17	J47_18	135.00	150.0	0.0050	0.0001	Open
P5876	J47_17	J48_17	135.00	250.0	0.0050	0.0592	Open
P5877	J47_18	J47_19	135.00	250.0	0.0050	0.0740	Open
P5878	J47_18	J48_18	135.00	250.0	0.0050	0.0051	Open
P5879	J47_19	J47_20	135.00	200.0	0.0050	0.1370	Open
P5880	J47_19	J48_19	135.00	250.0	0.0050	0.0629	Open
P5881	J47_20	J47_21	135.00	300.0	0.0050	0.0281	Open
P5882	J47_20	J48_20	135.00	150.0	0.0050	0.0325	Open
P5883	J47_21	J47_22	135.00	400.0	0.0050	0.0379	Open
P5884	J47_21	J48_21	135.00	500.0	0.0050	0.0020	Open
P5885	J47_22	J47_23	135.00	150.0	0.0050	0.0414	Open
P5886	J47_22	J48_22	135.00	250.0	0.0050	0.0848	Open
P5887	J47_23	J47_24	135.00	150.0	0.0050	0.0607	Open
P5888	J47_23	J48_23	135.00	100.0	0.0050	0.1228	Open
P5889	J47_24	J47_25	135.00	250.0	0.0050	0.0262	Open
P5890	J47_24	J48_24	135.00	100.0	0.0050	0.0426	Open
P5891	J47_25	J47_26	135.00	300.0	0.0050	0.0975	Open
P5892	J47_25	J48_25	135.00	300.0	0.0050	0.0804	Open
P5893	J47_26	J47_27	135.00	300.0	0.0050	0.0519	Open
P5894	J47_26	J48_26	135.00	300.0	0.0050	0.0778	Open
P5895	J47_27	J47_28	135.00	300.0	0.0050	0.0307	Open
P5896	J47_27	J48_27	135.00	250.0	0.0050	0.0627	Open
P5897	J47_28	J47_29	135.00	150.0	0.0050	0.1219	Open
P5898	J47_28	J48_28	135.00	100.0	0.0050	0.0026	Open
P5899	J47_29	J47_30	135.00	300.0	0.0050	0.0736	Open
P5900	J47_29	J48_29	135.00	250.0	0.0050	0.0478	Open
P5901	J47_30	J47_31	135.00	250.0	0.0050	0.0523	Open
P5902	J47_30	J48_30	135.00	100.0	0.0050	0.0652	Open
P5903	J47_31	J47_32	135.00	500.0	0.0050	0.0275	Open
P5904	J47_31	J48_31	135.00	350.0	0.0050	0.0384	Open
P5905	J47_32	J47_33	135.00	100.0	0.0050	0.1383	Open
P5906	J47_32	J48_32	135.00	250.0	0.0050	0.0593	Open
P5907	J47_33	J47_34	135.00	250.0	0.0050	0.0483	Open
P5908	J47_33	J48_33	135.00	300.0	0.0050	0.0234	Open
P5909	J47_34	J47_35	135.00	250.0	0.0050	0.1457	Open
P5910	J47_34	J48_34	135.00	150.0	0.0050	0.0388	Open
P5911	J47_35	J47_36	135.00	200.0	0.0050	0.0117	Open
P5912	J47_35	J48_35	135.00	100.0	0.0050	0.0999	Open
P5913	J47_36	J47_37	135.00	100.0	0.0050	0.1208	Open
P5914	J47_36	J48_36	135.00	200.0	0.0050	0.1203	Open
P5915	J47_37	J47_38	135.00	150.0	0.0050	0.0431	Open
P5916	J47_37	J48_37	135.00	250.0	0.0050	0.0370	Open
P5917	J47_38	J47_39	135.00	150.0	0.0050	0.0150	Open
P5918	J47_38	J48_38	135.00	200.0	0.0050	0.0557	Open
P5919	J47_39	J47_40	135.00	300.0	0.0050	0.0675	Open
P5920	J47_39	J48_39	135.00	300.0	0.0050	0.1409	Open
P5921	J47_40	J47_41	135.00	200.0	0.0050	0.0016	Open
P5922	J47_40	J48_40	135.00	200.0	0.0050	0.0860	Open
P5923	J47_41	J47_42	135.00	500.0	0.0050	0.0452	Open
P5924	J47_41	J48_41	135.00	600.0	0.0050	0.0406	Open
P5925	J47_42	J47_43	135.00	200.0	0.0050	0.0818	Open
P5926	J47_42	J48_42	135.00	150.0	0.0050	0.0535	Open
P5927	J47_43	J47_44	135.00	300.0	0.0050	0.0608	Open
P5928	J47_43	J48_43	135.00	300.0	0.0050	0.0315	Open
P5929	J47_44	J47_45	135.00	150.0	0.0050	0.0717	Open
P5930	J47_44	J48_44	135.00	150.0	0.0050	0.0319	Open
P5931	J47_45	J47_46	135.00	200.0	0.0050	0.0521	Open
P5932	J47_45	J48_45	135.00	300.0	0.0050	0.0884	Open
P5933	J47_46	J47_47	135.00	150.0	0.0050	0.0958	Open
P5934	J47_46	J48_46	135.00	150.0	0.0050	0.1297	Open
P5935	J47_47	J47_48	135.00	150.0	0.0050	0.1269	Open
P5936	J47_47	J48_47	135.00	100.0	0.0050	0.1353	Open
P5937	J47_48	J47_49	135.00	100.0	0.0050	0.0132	Open
P5938	J47_48	J48_48	135.00	250.0	0.0050	0.0304	Open
P5939	J47_49	J47_50	135.00	200.0	0.0050	0.0980	Open
P5940	J47_49	J48_49	135.00	300.0	0.0050	0.0902	Open
P5941	J47_50	J47_51	135.00	150.0	0.0050	0.0779	Open
P5942	J47_50	J48_50	135.00	150.0	0.0050	0.0587	Open
P5943	J47_51	J47_52	135.00	450.0	0.0050	0.0398	Open
P5944	J47_51	J48_51	135.00	400.0	0.0050	0.0310	Open
P5945	J47_52	J47_53	135.00	250.0	0.0050	0.1290	Open
P5946	J47_52	J48_52	135.00	100.0	0.0050	0.0338	Open
P5947	J47_53	J47_54	135.00	250.0	0.0050	0.0383	Open
P5948	J47_53	J48_53	135.00	150.0	0.0050	0.1309	Open
P5949	J47_54	J47_55	135.00	150.0	0.0050	0.0294	Open
P5950	J47_54	J48_54	135.00	100.0	0.0050	0.0971	Open
P5951	J47_55	J47_56	135.00	300.0	0.0050	0.0161	Open
P5952	J47_55	J48_55	135.00	100.0	0.0050	0.0930	Open
P5953	J47_56	J47_57	135.00	200.0	0.0050	0.0077	Open
P5954	J47_56	J48_56	135.00	300.0	0.0050	0.0547	Open
P5955	J47_57	J47_58	135.00	150.0	0.0050	0.1123	Open
P5956	J47_57	J48_57	135.00	300.0	0.0050	0.0449	Open
P5957	J47_58	J47_59	135.00	300.0	0.0050	0.0243	Open
P5958	J47_58	J48_58	135.00	100.0	0.0050	0.0258	Open
P5959	J47_59	J47_60	135.00	300.0	0.0050	0.0199	Open
P5960	J47_59	J48_59	135.00	250.0	0.0050	0.0849	Open
P5961	J47_60	J47_61	135.00	100.0	0.0050	0.1207	Open
P5962	J47_60	J48_60	135.00	200.0	0.0050	0.0177	Open
P5963	J47_61	J47_62	135.00	450.0	0.0050	0.0040	Open
P5964	J47_61	J48_61	135.00	400.0	0.0050	0.0223	Open
P5965	J47_62	J47_63	135.00	250.0	0.0050	0.0073	Open
P5966	J47_62	J48_62	135.00	300.0	0.0050	0.0828	Open
P5967	J47_63	J47_64	135.00	300.0	0.0050	0.0095	Open
P5968	J47_63	J48_63	135.00	200.0	0.0050	0.0286	Open
P5969	J47_64	J48_64	135.00	300.0	0.0050	0.1284	Open
P5970	J48_1	J48_2	135.00	400.0	0.0050	0.0052	Open
P5971	J48_1	J49_1	135.00	400.0	0.0050	0.0336	Open
P5972	J48_2	J48_3	135.00	300.0	0.0050	0.1483	Open
P5973	J48_2	J49_2	135.00	300.0	0.0050	0.1024	Open
P5974	J48_3	J48_4	135.00	100.0	0.0050	0.1367	Open
P5975	J48_3	J49_3	135.00	150.0	0.0050	0.0211	Open
P5976	J48_4	J48_5	135.00	150.0	0.0050	0.1120	Open
P5977	J48_4	J49_4	135.00	150.0	0.0050	0.1122	Open
P5978	J48_5	J48_6	135.00	300.0	0.0050	0.1071	Open
P5979	J48_5	J49_5	135.00	150.0	0.0050	0.0859	Open
P5980	J48_6	J48_7	135.00	250.0	0.0050	0.0491	Open
P5981	J48_6	J49_6	135.00	150.0	0.0050	0.0324	Open
P5982	J48_7	J48_8	135.00	100.0	0.0050	0.1099	Open
P5983	J48_7	J49_7	135.00	250.0	0.0050	0.0095	Open
P5984	J48_8	J48_9	135.00	250.0	0.0050	0.0460	Open
P5985	J48_8	J49_8	135.00	100.0	0.0050	0.0503	Open
P5986	J48_9	J48_10	135.00	200.0	0.0050	0.0901	Open
P5987	J48_9	J49_9	135.00	300.0	0.0050	0.1131	Open
P5988	J48_10	J48_11	135.00	250.0	0.0050	0.0615	Open
P5989	J48_10	J49_10	135.00	200.0	0.0050	0.0082	Open
P5990	J48_11	J48_12	135.00	400.0	0.0050	0.0055	Open
P5991	J48_11	J49_11	135.00	600.0	0.0050	0.0089	Open
P5992	J48_12	J48_13	135.00	200.0	0.0050	0.1343	Open
P5993	J48_12	J49_12	135.00	200.0	0.0050	0.1372	Open
P5994	J48_13	J48_14	135.00	300.0	0.0050	0.0819	Open
P5995	J48_13	J49_13	135.00	300.0	0.0050	0.1046	Open
P5996	J48_14	J48_15	135.00	100.0	0.0050	0.0488	Open
P5997	J48_14	J49_14	135.00	300.0	0.0050	0.0329	Open
P5998	J48_15	J48_16	135.00	150.0	0.0050	0.1434	Open
P5999	J48_15	J49_15	135.00	250.0	0.0050	0.1000	Open
P6000	J48_16	J48_17	135.00	200.0	0.0050	0.0949	Open
P6001	J48_16	J49_16	135.00	100.0	0.0050	0.0489	Open
P6002	J48_17	J48_18	135.00	200.0	0.0050	0.1142	Open
P6003	J48_17	J49_17	135.00	200.0	0.0050	0.0628	Open
P6004	J48_18	J48_19	135.00	300.0	0.0050	0.0861	Open
P6005	J48_18	J49_18	135.00	100.0	0.0050	0.0147	Open
P6006	J48_19	J48_20	135.00	300.0	0.0050	0.1127	Open
P6007	J48_19	J49_19	135.00	250.0	0.0050	0.1465	Open
P6008	J48_20	J48_21	135.00	100.0	0.0050	0.0943	Open
P6009	J48_20	J49_20	135.00	200.0	0.0050	0.0202	Open
P6010	J48_21	J48_22	135.00	350.0	0.0050	0.0138	Open
P6011	J48_21	J49_21	135.00	350.0	0.0050	0.0367	Open
P6012	J48_22	J48_23	135.00	250.0	0.0050	0.1213	Open
P6013	J48_22	J49_22	135.00	150.0	0.0050	0.0267	Open
P6014	J48_23	J48_24	135.00	100.0	0.0050	0.0701	Open
P6015	J48_23	J49_23	135.00	100.0	0.0050	0.0371	Open
P6016	J48_24	J48_25	135.00	100.0	0.0050	0.1426	Open
P6017	J48_24	J49_24	135.00	150.0	0.0050	0.0005	Open
P6018	J48_25	J48_26	135.00	100.0	0.0050	0.0057	Open
P6019	J48_25	J49_25	135.00	200.0	0.0050	0.0937	Open
P6020	J48_26	J48_27	135.00	100.0	0.0050	0.0331	Open
P6021	J48_26	J49_26	135.00	100.0	0.0050	0.0705	Open
P6022	J48_27	J48_28	135.00	200.0	0.0050	0.0314	Open
P6023	J48_27	J49_27	135.00	100.0	0.0050	0.0695	Open
P6024	J48_28	J48_29	135.00	250.0	0.0050	0.0689	Open
P6025	J48_28	J49_28	135.00	100.0	0.0050	0.0432	Open
P6026	J48_29	J48_30	135.00	150.0	0.0050	0.1236	Open
P6027	J48_29	J49_29	135.00	250.0	0.0050	0.0540	Open
P6028	J48_30	J48_31	135.00	100.0	0.0050	0.0879	Open
P6029	J48_30	J49_30	135.00	200.0	0.0050	0.1416	Open
P6030	J48_31	J48_32	135.00	350.0	0.0050	0.0217	Open
P6031	J48_31	J49_31	135.00	450.0	0.0050	0.0486	Open
P6032	J48_32	J48_33	135.00	250.0	0.0050	0.1015	Open
P6033	J48_32	J49_32	135.00	150.0	0.0050	0.1498	Open
P6034	J48_33	J48_34	135.00	300.0	0.0050	0.1322	Open
P6035	J48_33	J49_33	135.00	250.0	0.0050	0.1133	Open
P6036	J48_34	J48_35	135.00	300.0	0.0050	0.1440	Open
P6037	J48_34	J49_34	135.00	300.0	0.0050	0.1327	Open
P6038	J48_35	J48_36	135.00	150.0	0.0050	0.1029	Open
P6039	J48_35	J49_35	135.00	100.0	0.0050	0.0666	Open
P6040	J48_36	J48_37	135.00	100.0	0.0050	0.0362	Open
P6041	J48_36	J49_36	135.00	200.0	0.0050	0.0160	Open
P6042	J48_37	J48_38	135.00	150.0	0.0050	0.0242	Open
P6043	J48_37	J49_37	135.00	200.0	0.0050	0.0583	Open
P6044	J48_38	J48_39	135.00	150.0	0.0050	0.0694	Open
P6045	J48_38	J49_38	135.00	150.0	0.0050	0.0172	Open
P6046	J48_39	J48_40	135.00	300.0	0.0050	0.1114	Open
P6047	J48_39	J49_39	135.00	100.0	0.0050	0.0566	Open
P6048	J48_40	J48_41	135.00	250.0	0.0050	0.0875	Open
P6049	J48_40	J49_40	135.00	300.0	0.0050	0.0386	Open
P6050	J48_41	J48_42	135.00	400.0	0.0050	0.0104	Open
P6051	J48_41	J49_41	135.00	450.0	0.0050	0.0208	Open
P6052	J48_42	J48_43	135.00	300.0	0.0050	0.0863	Open
P6053	J48_42	J49_42	135.00	300.0	0.0050	0.0632	Open
P6054	J48_43	J48_44	135.00	300.0	0.0050	0.0765	Open
P6055	J48_43	J49_43	135.00	250.0	0.0050	0.1076	Open
P6056	J48_44	J48_45	135.00	300.0	0.0050	0.1364	Open
P6057	J48_44	J49_44	135.00	100.0	0.0050	0.1014	Open
P6058	J48_45	J48_46	135.00	250.0	0.0050	0.0401	Open
P6059	J48_45	J49_45	135.00	300.0	0.0050	0.1437	Open
P6060	J48_46	J48_47	135.00	100.0	0.0050	0.0635	Open
P6061	J48_46	J49_46	135.00	200.0	0.0050	0.0503	Open
P6062	J48_47	J48_48	135.00	250.0	0.0050	0.0592	Open
P6063	J48_47	J49_47	135.00	250.0	0.0050	0.1270	Open
P6064	J48_48	J48_49	135.00	150.0	0.0050	0.1173	Open
P6065	J48_48	J49_48	135.00	150.0	0.0050	0.0176	Open
P6066	J48_49	J48_50	135.00	150.0	0.0050	0.1031	Open
P6067	J48_49	J49_49	135.00	150.0	0.0050	0.0812	Open
P6068	J48_50	J48_51	135.00	300.0	0.0050	0.0010	Open
P6069	J48_50	J49_50	135.00	150.0	0.0050	0.0505	Open
P6070	J48_51	J48_52	135.00	300.0	0.0050	0.0495	Open
P6071	J48_51	J49_51	135.00	500.0	0.0050	0.0019	Open
P6072	J48_52	J48_53	135.00	250.0	0.0050	0.1248	Open
P6073	J48_52	J49_52	135.00	250.0	0.0050	0.0004	Open
P6074	J48_53	J48_54	135.00	250.0	0.0050	0.1301	Open
P6075	J48_53	J49_53	135.00	250.0	0.0050	0.0523	Open
P6076	J48_54	J48_55	135.00	200.0	0.0050	0.0517	Open
P6077	J48_54	J49_54	135.00	250.0	0.0050	0.0236	Open
P6078	J48_55	J48_56	135.00	300.0	0.0050	0.0634	Open
P6079	J48_55	J49_55	135.00	300.0	0.0050	0.1279	Open
P6080	J48_56	J48_57	135.00	200.0	0.0050	0.1308	Open
P6081	J48_56	J49_56	135.00	250.0	0.0050	0.0401	Open
P6082	J48_57	J48_58	135.00	200.0	0.0050	0.0956	Open
P6083	J48_57	J49_57	135.00	300.0	0.0050	0.1285	Open
P6084	J48_58	J48_59	135.00	250.0	0.0050	0.1107	Open
P6085	J48_58	J49_58	135.00	100.0	0.0050	0.0623	Open
P6086	J48_59	J48_60	135.00	150.0	0.0050	0.0004	Open
P6087	J48_59	J49_59	135.00	250.0	0.0050	0.0304	Open
P6088	J48_60	J48_61	135.00	250.0	0.0050	0.0523	Open
P6089	J48_60	J49_60	135.00	250.0	0.0050	0.1213	Open
P6090	J48_61	J48_62	135.00	300.0	0.0050	0.0346	Open
P6091	J48_61	J49_61	135.00	300.0	0.0050	0.0331	Open
P6092	J48_62	J48_63	135.00	100.0	0.0050	0.0933	Open
P6093	J48_62	J49_62	135.00	300.0	0.0050	0.1260	Open
P6094	J48_63	J48_64	135.00	100.0	0.0050	0.0474	Open
P6095	J48_63	J49_63	135.00	300.0	0.0050	0.1148	Open
P6096	J48_64	J49_64	135.00	150.0	0.0050	0.0520	Open
P6097	J49_1	J49_2	135.00	450.0	0.0050	0.0307	Open
P6098	J49_1	J50_1	135.00	500.0	0.0050	0.0430	Open
P6099	J49_2	J49_3	135.00	150.0	0.0050	0.0326	Open
P6100	J49_2	J50_2	135.00	100.0	0.0050	0.0959	Open
P6101	J49_3	J49_4	135.00	150.0	0.0050	0.0301	Open
P6102	J49_3	J50_3	135.00	250.0	0.0050	0.1290	Open
P6103	J49_4	J49_5	135.00	300.0	0.0050	0.0319	Open
P6104	J49_4	J50_4	135.00	150.0	0.0050	0.1487	Open
P6105	J49_5	J49_6	135.00	200.0	0.0050	0.0629	Open
P6106	J49_5	J50_5	135.00	100.0	0.0050	0.0806	Open
P6107	J49_6	J49_7	135.00	250.0	0.0050	0.0294	Open
P6108	J49_6	J50_6	135.00	150.0	0.0050	0.0116	Open
P6109	J49_7	J49_8	135.00	150.0	0.0050	0.1189	Open
P6110	J49_7	J50_7	135.00	150.0	0.0050	0.0520	Open
P6111	J49_8	J49_9	135.00	200.0	0.0050	0.0351	Open
P6112	J49_8	J50_8	135.00	300.0	0.0050	0.1122	Open
P6113	J49_9	J49_10	135.00	250.0	0.0050	0.0842	Open
P6114	J49_9	J50_9	135.00	200.0	0.0050	0.1308	Open
P6115	J49_10	J49_11	135.00	250.0	0.0050	0.0959	Open
P6116	J49_10	J50_10	135.00	300.0	0.0050	0.0557	Open
P6117	J49_11	J49_12	135.00	600.0	0.0050	0.0043	Open
P6118	J49_11	J50_11	135.00	350.0	0.0050	0.0006	Open
P6119	J49_12	J49_13	135.00	150.0	0.0050	0.0766	Open
P6120	J49_12	J50_12	135.00	250.0	0.0050	0.1391	Open
P6121	J49_13	J49_14	135.00	300.0	0.0050	0.0960	Open
P6122	J49_13	J50_13	135.00	100.0	0.0050	0.0533	Open
P6123	J49_14	J49_15	135.00	200.0	0.0050	0.0462	Open
P6124	J49_14	J50_14	135.00	250.0	0.0050	0.1470	Open
P6125	J49_15	J49_16	135.00	250.0	0.0050	0.0601	Open
P6126	J49_15	J50_15	135.00	150.0	0.0050	0.1384	Open
P6127	J49_16	J49_17	135.00	200.0	0.0050	0.1216	Open
P6128	J49_16	J50_16	135.00	150.0	0.0050	0.0699	Open
P6129	J49_17	J49_18	135.00	250.0	0.0050	0.0073	Open
P6130	J49_17	J50_17	135.00	300.0	0.0050	0.0589	Open
P6131	J49_18	J49_19	135.00	200.0	0.0050	0.0157	Open
P6132	J49_18	J50_18	135.00	200.0	0.0050	0.1070	Open
P6133	J49_19	J49_20	135.00	100.0	0.0050	0.1282	Open
P6134	J49_19	J50_19	135.00	250.0	0.0050	0.0918	Open
P6135	J49_20	J49_21	135.00	300.0	0.0050	0.0403	Open
P6136	J49_20	J50_20	135.00	200.0	0.0050	0.1241	Open
P6137	J49_21	J49_22	135.00	500.0	0.0050	0.0422	Open
P6138	J49_21	J50_21	135.00	600.0	0.0050	0.0106	Open
P6139	J49_22	J49_23	135.00	300.0	0.0050	0.1451	Open
P6140	J49_22	J50_22	135.00	300.0	0.0050	0.0880	Open
P6141	J49_23	J49_24	135.00	100.0	0.0050	0.1179	Open
P6142	J49_23	J50_23	135.00	250.0	0.0050	0.0585	Open
P6143	J49_24	J49_25	135.00	100.0	0.0050	0.0963	Open
P6144	J49_24	J50_24	135.00	250.0	0.0050	0.1041	Open
P6145	J49_25	J49_26	135.00	200.0	0.0050	0.0703	Open
P6146	J49_25	J50_25	135.00	300.0	0.0050	0.1115	Open
P6147	J49_26	J49_27	135.00	200.0	0.0050	0.1137	Open
P6148	J49_26	J50_26	135.00	200.0	0.0050	0.1491	Open
P6149	J49_27	J49_28	135.00	100.0	0.0050	0.0323	Open
P6150	J49_27	J50_27	135.00	250.0	0.0050	0.1057	Open
P6151	J49_28	J49_29	135.00	250.0	0.0050	0.0313	Open
P6152	J49_28	J50_28	135.00	250.0	0.0050	0.1359	Open
P6153	J49_29	J49_30	135.00	300.0	0.0050	0.0177	Open
P6154	J49_29	J50_29	135.00	150.0	0.0050	0.1110	Open
P6155	J49_30	J49_31	135.00	250.0	0.0050	0.0348	Open
P6156	J49_30	J50_30	135.00	250.0	0.0050	0.1252	Open
P6157	J49_31	J49_32	135.00	300.0	0.0050	0.0210	Open
P6158	J49_31	J50_31	135.00	500.0	0.0050	0.0370	Open
P6159	J49_32	J49_33	135.00	200.0	0.0050	0.0638	Open
P6160	J49_32	J50_32	135.00	200.0	0.0050	0.0340	Open
P6161	J49_33	J49_34	135.00	150.0	0.0050	0.0848	Open
P6162	J49_33	J50_33	135.00	300.0	0.0050	0.1264	Open
P6163	J49_34	J49_35	135.00	300.0	0.0050	0.0807	Open
P6164	J49_34	J50_34	135.00	200.0	0.0050	0.0520	Open
P6165	J49_35	J49_36	135.00	100.0	0.0050	0.1278	Open
P6166	J49_35	J50_35	135.00	150.0	0.0050	0.1196	Open
P6167	J49_36	J49_37	135.00	250.0	0.0050	0.0928	Open
P6168	J49_36	J50_36	135.00	200.0	0.0050	0.1057	Open
P6169	J49_37	J49_38	135.00	150.0	0.0050	0.1454	Open
P6170	J49_37	J50_37	135.00	150.0	0.0050	0.0700	Open
P6171	J49_38	J49_39	135.00	250.0	0.0050	0.1338	Open
P6172	J49_38	J50_38	135.00	250.0	0.0050	0.0206	Open
P6173	J49_39	J49_40	135.00	150.0	0.0050	0.0194	Open
P6174	J49_39	J50_39	135.00	300.0	0.0050	0.0393	Open
P6175	J49_40	J49_41	135.00	200.0	0.0050	0.1214	Open
P6176	J49_40	J50_40	135.00	250.0	0.0050	0.0517	Open
P6177	J49_41	J49_42	135.00	350.0	0.0050	0.0447	Open
P6178	J49_41	J50_41	135.00	350.0	0.0050	0.0038	Open
P6179	J49_42	J49_43	135.00	100.0	0.0050	0.1414	Open
P6180	J49_42	J50_42	135.00	250.0	0.0050	0.1024	Open
P6181	J49_43	J49_44	135.00	200.0	0.0050	0.1169	Open
P6182	J49_43	J50_43	135.00	100.0	0.0050	0.0015	Open
P6183	J49_44	J49_45	135.00	250.0	0.0050	0.0712	Open
P6184	J49_44	J50_44	135.00	150.0	0.0050	0.0099	Open
P6185	J49_45	J49_46	135.00	200.0	0.0050	0.0902	Open
P6186	J49_45	J50_45	135.00	250.0	0.0050	0.0642	Open
P6187	J49_46	J49_47	135.00	250.0	0.0050	0.0912	Open
P6188	J49_46	J50_46	135.00	100.0	0.0050	0.1048	Open
P6189	J49_47	J49_48	135.00	150.0	0.0050	0.0268	Open
P6190	J49_47	J50_47	135.00	300.0	0.0050	0.1214	Open
P6191	J49_48	J49_49	135.00	300.0	0.0050	0.1117	Open
P6192	J49_48	J50_48	135.00	200.0	0.0050	0.1482	Open
P6193	J49_49	J49_50	135.00	300.0	0.0050	0.1232	Open
P6194	J49_49	J50_49	135.00	200.0	0.0050	0.0315	Open
P6195	J49_50	J49_51	135.00	150.0	0.0050	0.1020	Open
P6196	J49_50	J50_50	135.00	200.0	0.0050	0.0562	Open
P6197	J49_51	J49_52	135.00	500.0	0.0050	0.0268	Open
P6198	J49_51	J50_51	135.00	450.0	0.0050	0.0419	Open
P6199	J49_52	J49_53	135.00	250.0	0.0050	0.1293	Open
P6200	J49_52	J50_52	135.00	250.0	0.0050	0.1083	Open
P6201	J49_53	J49_54	135.00	250.0	0.0050	0.0462	Open
P6202	J49_53	J50_53	135.00	150.0	0.0050	0.0284	Open
P6203	J49_54	J49_55	135.00	250.0	0.0050	0.0988	Open
P6204	J49_54	J50_54	135.00	150.0	0.0050	0.0322	Open
P6205	J49_55	J49_56	135.00	150.0	0.0050	0.0085	Open
P6206	J49_55	J50_55	135.00	250.0	0.0050	0.0817	Open
P6207	J49_56	J49_57	135.00	300.0	0.0050	0.0040	Open
P6208	J49_56	J50_56	135.00	150.0	0.0050	0.1414	Open
P6209	J49_57	J49_58	135.00	200.0	0.0050	0.0145	Open
P6210	J49_57	J50_57	135.00	100.0	0.0050	0.1331	Open
P6211	J49_58	J49_59	135.00	200.0	0.0050	0.1290	Open
P6212	J49_58	J50_58	135.00	150.0	0.0050	0.0260	Open
P6213	J49_59	J49_60	135.00	300.0	0.0050	0.1266	Open
P6214	J49_59	J50_59	135.00	250.0	0.0050	0.0309	Open
P6215	J49_60	J49_61	135.00	300.0	0.0050	0.0157	Open
P6216	J49_60	J50_60	135.00	150.0	0.0050	0.0778	Open
P6217	J49_61	J49_62	135.00	400.0	0.0050	0.0178	Open
P6218	J49_61	J50_61	135.00	350.0	0.0050	0.0124	Open
P6219	J49_62	J49_63	135.00	100.0	0.0050	0.0352	Open
P6220	J49_62	J50_62	135.00	150.0	0.0050	0.1257	Open
P6221	J49_63	J49_64	135.00	150.0	0.0050	0.0955	Open
P6222	J49_63	J50_63	135.00	250.0	0.0050	0.1006	Open
P6223	J49_64	J50_64	135.00	200.0	0.0050	0.1376	Open
P6224	J50_1	J50_2	135.00	300.0	0.0050	0.0361	Open
P6225	J50_1	J51_1	135.00	600.0	0.0050	0.0174	Open
P6226	J50_2	J50_3	135.00	100.0	0.0050	0.0224	Open
P6227	J50_2	J51_2	135.00	150.0	0.0050	0.1410	Open
P6228	J50_3	J50_4	135.00	300.0	0.0050	0.0731	Open
P6229	J50_3	J51_3	135.00	150.0	0.0050	0.0542	Open
P6230	J50_4	J50_5	135.00	200.0	0.0050	0.0579	Open
P6231	J50_4	J51_4	135.00	250.0	0.0050	0.1456	Open
P6232	J50_5	J50_6	135.00	100.0	0.0050	0.1238	Open
P6233	J50_5	J51_5	135.00	100.0	0.0050	0.0707	Open
P6234	J50_6	J50_7	135.00	300.0	0.0050	0.0223	Open
P6235	J50_6	J51_6	135.00	300.0	0.0050	0.1466	Open
P6236	J50_7	J50_8	135.00	100.0	0.0050	0.0024	Open
P6237	J50_7	J51_7	135.00	100.0	0.0050	0.1275	Open
P6238	J50_8	J50_9	135.00	100.0	0.0050	0.0655	Open
P6239	J50_8	J51_8	135.00	250.0	0.0050	0.1263	Open
P6240	J50_9	J50_10	135.00	150.0	0.0050	0.1265	Open
P6241	J50_9	J51_9	135.00	300.0	0.0050	0.1255	Open
P6242	J50_10	J50_11	135.00	250.0	0.0050	0.0676	Open
P6243	J50_10	J51_10	135.00	150.0	0.0050	0.0006	Open
P6244	J50_11	J50_12	135.00	350.0	0.0050	0.0254	Open
P6245	J50_11	J51_11	135.00	600.0	0.0050	0.0213	Open
P6246	J50_12	J50_13	135.00	150.0	0.0050	0.0793	Open
P6247	J50_12	J51_12	135.00	100.0	0.0050	0.0345	Open
P6248	J50_13	J50_14	135.00	250.0	0.0050	0.1028	Open
P6249	J50_13	J51_13	135.00	300.0	0.0050	0.0132	Open
P6250	J50_14	J50_15	135.00	100.0	0.0050	0.0354	Open
P6251	J50_14	J51_14	135.00	150.0	0.0050	0.0218	Open
P6252	J50_15	J50_16	135.00	300.0	0.0050	0.1313	Open
P6253	J50_15	J51_15	135.00	200.0	0.0050	0.0678	Open
P6254	J50_16	J50_17	135.00	100.0	0.0050	0.0304	Open
P6255	J50_16	J51_16	135.00	300.0	0.0050	0.1130	Open
P6256	J50_17	J50_18	135.00	250.0	0.0050	0.1162	Open
P6257	J50_17	J51_17	135.00	300.0	0.0050	0.1167	Open
P6258	J50_18	J50_19	135.00	250.0	0.0050	0.1027	Open
P6259	J50_18	J51_18	135.00	100.0	0.0050	0.0026	Open
P6260	J50_19	J50_20	135.00	300.0	0.0050	0.0766	Open
P6261	J50_19	J51_19	135.00	200.0	0.0050	0.0455	Open
P6262	J50_20	J50_21	135.00	100.0	0.0050	0.0372	Open
P6263	J50_20	J51_20	135.00	250.0	0.0050	0.0570	Open
P6264	J50_21	J50_22	135.00	450.0	0.0050	0.0082	Open
P6265	J50_21	J51_21	135.00	400.0	0.0050	0.0467	Open
P6266	J50_22	J50_23	135.00	250.0	0.0050	0.0596	Open
P6267	J50_22	J51_22	135.00	100.0	0.0050	0.1265	Open
P6268	J50_23	J50_24	135.00	100.0	0.0050	0.0987	Open
P6269	J50_23	J51_23	135.00	250.0	0.0050	0.0718	Open
P6270	J50_24	J50_25	135.00	300.0	0.0050	0.1329	Open
P6271	J50_24	J51_24	135.00	250.0	0.0050	0.0417	Open
P6272	J50_25	J50_26	135.00	100.0	0.0050	0.1451	Open
P6273	J50_25	J51_25	135.00	200.0	0.0050	0.0272	Open
P6274	J50_26	J50_27	135.00	150.0	0.0050	0.0965	Open
P6275	J50_26	J51_26	135.00	300.0	0.0050	0.1381	Open
P6276	J50_27	J50_28	135.00	300.0	0.0050	0.0325	Open
P6277	J50_27	J51_27	135.00	250.0	0.0050	0.1279	Open
P6278	J50_28	J50_29	135.00	300.0	0.0050	0.1063	Open
P6279	J50_28	J51_28	135.00	150.0	0.0050	0.0785	Open
P6280	J50_29	J50_30	135.00	150.0	0.0050	0.1289	Open
P6281	J50_29	J51_29	135.00	250.0	0.0050	0.0866	Open
P6282	J50_30	J50_31	135.00	300.0	0.0050	0.0882	Open
P6283	J50_30	J51_30	135.00	200.0	0.0050	0.1378	Open
P6284	J50_31	J50_32	135.00	400.0	0.0050	0.0337	Open
P6285	J50_31	J51_31	135.00	300.0	0.0050	0.0307	Open
P6286	J50_32	J50_33	135.00	250.0	0.0050	0.0313	Open
P6287	J50_32	J51_32	135.00	250.0	0.0050	0.0296	Open
P6288	J50_33	J50_34	135.00	100.0	0.0050	0.0307	Open
P6289	J50_33	J51_33	135.00	250.0	0.0050	0.0761	Open
P6290	J50_34	J50_35	135.00	300.0	0.0050	0.0134	Open
P6291	J50_34	J51_34	135.00	300.0	0.0050	0.1396	Open
P6292	J50_35	J50_36	135.00	150.0	0.0050	0.1258	Open
P6293	J50_35	J51_35	135.00	150.0	0.0050	0.0372	Open
P6294	J50_36	J50_37	135.00	100.0	0.0050	0.0131	Open
P6295	J50_36	J51_36	135.00	300.0	0.0050	0.1265	Open
P6296	J50_37	J50_38	135.00	150.0	0.0050	0.1127	Open
P6297	J50_37	J51_37	135.00	150.0	0.0050	0.1041	Open
P6298	J50_38	J50_39	135.00	100.0	0.0050	0.1127	Open
P6299	J50_38	J51_38	135.00	100.0	0.0050	0.0260	Open
P6300	J50_39	J50_40	135.00	250.0	0.0050	0.0247	Open
P6301	J50_39	J51_39	135.00	100.0	0.0050	0.0586	Open
P6302	J50_40	J50_41	135.00	250.0	0.0050	0.0034	Open
P6303	J50_40	J51_40	135.00	150.0	0.0050	0.0472	Open
P6304	J50_41	J50_42	135.00	300.0	0.0050	0.0404	Open
P6305	J50_41	J51_41	135.00	450.0	0.0050	0.0033	Open
P6306	J50_42	J50_43	135.00	100.0	0.0050	0.0445	Open
P6307	J50_42	J51_42	135.00	200.0	0.0050	0.1002	Open
P6308	J50_43	J50_44	135.00	250.0	0.0050	0.0150	Open
P6309	J50_43	J51_43	135.00	200.0	0.0050	0.0540	Open
P6310	J50_44	J50_45	135.00	300.0	0.0050	0.0294	Open
P6311	J50_44	J51_44	135.00	100.0	0.0050	0.1382	Open
P6312	J50_45	J50_46	135.00	100.0	0.0050	0.1497	Open
P6313	J50_45	J51_45	135.00	150.0	0.0050	0.0684	Open
P6314	J50_46	J50_47	135.00	200.0	0.0050	0.0869	Open
P6315	J50_46	J51_46	135.00	100.0	0.0050	0.0882	Open
P6316	J50_47	J50_48	135.00	300.0	0.0050	0.0954	Open
P6317	J50_47	J51_47	135.00	300.0	0.0050	0.0364	Open
P6318	J50_48	J50_49	135.00	250.0	0.0050	0.1462	Open
P6319	J50_48	J51_48	135.00	300.0	0.0050	0.0992	Open
P6320	J50_49	J50_50	135.00	300.0	0.0050	0.0945	Open
P6321	J50_49	J51_49	135.00	300.0	0.0050	0.1367	Open
P6322	J50_50	J50_51	135.00	200.0	0.0050	0.1094	Open
P6323	J50_50	J51_50	135.00	100.0	0.0050	0.0385	Open
P6324	J50_51	J50_52	135.00	450.0	0.0050	0.0121	Open
P6325	J50_51	J51_51	135.00	400.0	0.0050	0.0475	Open
P6326	J50_52	J50_53	135.00	200.0	0.0050	0.0932	Open
P6327	J50_52	J51_52	135.00	200.0	0.0050	0.0966	Open
P6328	J50_53	J50_54	135.00	150.0	0.0050	0.1235	Open
P6329	J50_53	J51_53	135.00	100.0	0.0050	0.1262	Open
P6330	J50_54	J50_55	135.00	300.0	0.0050	0.1349	Open
P6331	J50_54	J51_54	135.00	150.0	0.0050	0.0002	Open
P6332	J50_55	J50_56	135.00	150.0	0.0050	0.0317	Open
P6333	J50_55	J51_55	135.00	200.0	0.0050	0.0032	Open
P6334	J50_56	J50_57	135.00	200.0	0.0050	0.0362	Open
P6335	J50_56	J51_56	135.00	250.0	0.0050	0.1203	Open
P6336	J50_57	J50_58	135.00	250.0	0.0050	0.0575	Open
P6337	J50_57	J51_57	135.00	150.0	0.0050	0.0720	Open
P6338	J50_58	J50_59	135.00	100.0	0.0050	0.0006	Open
P6339	J50_58	J51_58	135.00	300.0	0.0050	0.0199	Open
P6340	J50_59	J50_60	135.00	250.0	0.0050	0.0658	Open
P6341	J50_59	J51_59	135.00	100.0	0.0050	0.0213	Open
P6342	J50_60	J50_61	135.00	100.0	0.0050	0.0033	Open
P6343	J50_60	J51_60	135.00	100.0	0.0050	0.0517	Open
P6344	J50_61	J50_62	135.00	500.0	0.0050	0.0215	Open
P6345	J50_61	J51_61	135.00	400.0	0.0050	0.0153	Open
P6346	J50_62	J50_63	135.00	200.0	0.0050	0.0613	Open
P6347	J50_62	J51_62	135.00	200.0	0.0050	0.1450	Open
P6348	J50_63	J50_64	135.00	300.0	0.0050	0.1417	Open
P6349	J50_63	J51_63	135.00	250.0	0.0050	0.0673	Open
P6350	J50_64	J51_64	135.00	100.0	0.0050	0.0227	Open
P6351	J51_1	J51_2	135.00	450.0	0.0050	0.0300	Open
P6352	J51_1	J52_1	135.00	450.0	0.0050	0.0276	Open
P6353	J51_2	J51_3	135.00	600.0	0.0050	0.0487	Open
P6354	J51_2	J52_2	135.00	500.0	0.0050	0.0425	Open
P6355	J51_3	J51_4	135.00	300.0	0.0050	0.0419	Open
P6356	J51_3	J52_3	135.00	400.0	0.0050	0.0482	Open
P6357	J51_4	J51_5	135.00	300.0	0.0050	0.0210	Open
P6358	J51_4	J52_4	135.00	400.0	0.0050	0.0110	Open
P6359	J51_5	J51_6	135.00	300.0	0.0050	0.0384	Open
P6360	J51_5	J52_5	135.00	500.0	0.0050	0.0104	Open
P6361	J51_6	J51_7	135.00	500.0	0.0050	0.0083	Open
P6362	J51_6	J52_6	135.00	300.0	0.0050	0.0455	Open
P6363	J51_7	J51_8	135.00	600.0	0.0050	0.0381	Open
P6364	J51_7	J52_7	135.00	350.0	0.0050	0.0142	Open
P6365	J51_8	J51_9	135.00	450.0	0.0050	0.0032	Open
P6366	J51_8	J52_8	135.00	400.0	0.0050	0.0211	Open
P6367	J51_9	J51_10	135.00	300.0	0.0050	0.0415	Open
P6368	J51_9	J52_9	135.00	450.0	0.0050	0.0037	Open
P6369	J51_10	J51_11	135.00	600.0	0.0050	0.0472	Open
P6370	J51_10	J52_10	135.00	450.0	0.0050	0.0253	Open
P6371	J51_11	J51_12	135.00	450.0	0.0050	0.0026	Open
P6372	J51_11	J52_11	135.00	500.0	0.0050	0.0361	Open
P6373	J51_12	J51_13	135.00	300.0	0.0050	0.0459	Open
P6374	J51_12	J52_12	135.00	500.0	0.0050	0.0204	Open
P6375	J51_13	J51_14	135.00	400.0	0.0050	0.0149	Open
P6376	J51_13	J52_13	135.00	500.0	0.0050	0.0108	Open
P6377	J51_14	J51_15	135.00	350.0	0.0050	0.0128	Open
P6378	J51_14	J52_14	135.00	300.0	0.0050	0.0065	Open
P6379	J51_15	J51_16	135.00	400.0	0.0050	0.0230	Open
P6380	J51_15	J52_15	135.00	500.0	0.0050	0.0042	Open
P6381	J51_16	J51_17	135.00	350.0	0.0050	0.0212	Open
P6382	J51_16	J52_16	135.00	600.0	0.0050	0.0119	Open
P6383	J51_17	J51_18	135.00	350.0	0.0050	0.0416	Open
P6384	J51_17	J52_17	135.00	600.0	0.0050	0.0195	Open
P6385	J51_18	J51_19	135.00	500.0	0.0050	0.0309	Open
P6386	J51_18	J52_18	135.00	600.0	0.0050	0.0049	Open
P6387	J51_19	J51_20	135.00	350.0	0.0050	0.0395	Open
P6388	J51_19	J52_19	135.00	350.0	0.0050	0.0466	Open
P6389	J51_20	J51_21	135.00	500.0	0.0050	0.0334	Open
P6390	J51_20	J52_20	135.00	300.0	0.0050	0.0097	Open
P6391	J51_21	J51_22	135.00	400.0	0.0050	0.0333	Open
P6392	J51_21	J52_21	135.00	450.0	0.0050	0.0376	Open
P6393	J51_22	J51_23	135.00	500.0	0.0050	0.0022	Open
P6394	J51_22	J52_22	135.00	300.0	0.0050	0.0425	Open
P6395	J51_23	J51_24	135.00	400.0	0.0050	0.0442	Open
P6396	J51_23	J52_23	135.00	500.0	0.0050	0.0203	Open
P6397	J51_24	J51_25	135.00	350.0	0.0050	0.0187	Open
P6398	J51_24	J52_24	135.00	500.0	0.0050	0.0400	Open
P6399	J51_25	J51_26	135.00	600.0	0.0050	0.0489	Open
P6400	J51_25	J52_25	135.00	500.0	0.0050	0.0414	Open
P6401	J51_26	J51_27	135.00	350.0	0.0050	0.0090	Open
P6402	J51_26	J52_26	135.00	500.0	0.0050	0.0181	Open
P6403	J51_27	J51_28	135.00	500.0	0.0050	0.0201	Open
P6404	J51_27	J52_27	135.00	300.0	0.0050	0.0189	Open
P6405	J51_28	J51_29	135.00	450.0	0.0050	0.0095	Open
P6406	J51_28	J52_28	135.00	600.0	0.0050	0.0150	Open
P6407	J51_29	J51_30	135.00	400.0	0.0050	0.0002	Open
P6408	J51_29	J52_29	135.00	500.0	0.0050	0.0291	Open
P6409	J51_30	J51_31	135.00	450.0	0.0050	0.0351	Open
P6410	J51_30	J52_30	135.00	500.0	0.0050	0.0167	Open
P6411	J51_31	J51_32	135.00	500.0	0.0050	0.0396	Open
P6412	J51_31	J52_31	135.00	500.0	0.0050	0.0217	Open
P6413	J51_32	J51_33	135.00	300.0	0.0050	0.0016	Open
P6414	J51_32	J52_32	135.00	300.0	0.0050	0.0102	Open
P6415	J51_33	J51_34	135.00	450.0	0.0050	0.0255	Open
P6416	J51_33	J52_33	135.00	600.0	0.0050	0.0169	Open
P6417	J51_34	J51_35	135.00	400.0	0.0050	0.0267	Open
P6418	J51_34	J52_34	135.00	400.0	0.0050	0.0211	Open
P6419	J51_35	J51_36	135.00	450.0	0.0050	0.0390	Open
P6420	J51_35	J52_35	135.00	400.0	0.0050	0.0413	Open
P6421	J51_36	J51_37	135.00	600.0	0.0050	0.0097	Open
P6422	J51_36	J52_36	135.00	350.0	0.0050	0.0228	Open
P6423	J51_37	J51_38	135.00	400.0	0.0050	0.0149	Open
P6424	J51_37	J52_37	135.00	500.0	0.0050	0.0377	Open
P6425	J51_38	J51_39	135.00	500.0	0.0050	0.0362	Open
P6426	J51_38	J52_38	135.00	600.0	0.0050	0.0452	Open
P6427	J51_39	J51_40	135.00	350.0	0.0050	0.0103	Open
P6428	J51_39	J52_39	135.00	400.0	0.0050	0.0202	Open
P6429	J51_40	J51_41	135.00	350.0	0.0050	0.0237	Open
P6430	J51_40	J52_40	135.00	300.0	0.0050	0.0062	Open
P6431	J51_41	J51_42	135.00	400.0	0.0050	0.0445	Open
P6432	J51_41	J52_41	135.00	400.0	0.0050	0.0139	Open
P6433	J51_42	J51_43	135.00	400.0	0.0050	0.0170	Open
P6434	J51_42	J52_42	135.00	500.0	0.0050	0.0162	Open
P6435	J51_43	J51_44	135.00	450.0	0.0050	0.0084	Open
P6436	J51_43	J52_43	135.00	450.0	0.0050	0.0423	Open
P6437	J51_44	J51_45	135.00	500.0	0.0050	0.0114	Open
P6438	J51_44	J52_44	135.00	300.0	0.0050	0.0297	Open
P6439	J51_45	J51_46	135.00	600.0	0.0050	0.0019	Open
P6440	J51_45	J52_45	135.00	300.0	0.0050	0.0466	Open
P6441	J51_46	J51_47	135.00	450.0	0.0050	0.0499	Open
P6442	J51_46	J52_46	135.00	350.0	0.0050	0.0165	Open
P6443	J51_47	J51_48	135.00	600.0	0.0050	0.0164	Open
P6444	J51_47	J52_47	135.00	450.0	0.0050	0.0452	Open
P6445	J51_48	J51_49	135.00	300.0	0.0050	0.0442	Open
P6446	J51_48	J52_48	135.00	600.0	0.0050	0.0021	Open
P6447	J51_49	J51_50	135.00	600.0	0.0050	0.0259	Open
P6448	J51_49	J52_49	135.00	500.0	0.0050	0.0106	Open
P6449	J51_50	J51_51	135.00	400.0	0.0050	0.0401	Open
P6450	J51_50	J52_50	135.00	450.0	0.0050	0.0137	Open
P6451	J51_51	J51_52	135.00	400.0	0.0050	0.0470	Open
P6452	J51_51	J52_51	135.00	600.0	0.0050	0.0466	Open
P6453	J51_52	J51_53	135.00	400.0	0.0050	0.0426	Open
P6454	J51_52	J52_52	135.00	450.0	0.0050	0.0401	Open
P6455	J51_53	J51_54	135.00	400.0	0.0050	0.0340	Open
P6456	J51_53	J52_53	135.00	450.0	0.0050	0.0016	Open
P6457	J51_54	J51_55	135.00	500.0	0.0050	0.0157	Open
P6458	J51_54	J52_54	135.00	450.0	0.0050	0.0107	Open
P6459	J51_55	J51_56	135.00	600.0	0.0050	0.0231	Open
P6460	J51_55	J52_55	135.00	400.0	0.0050	0.0346	Open
P6461	J51_56	J51_57	135.00	400.0	0.0050	0.0048	Open
P6462	J51_56	J52_56	135.00	300.0	0.0050	0.0338	Open
P6463	J51_57	J51_58	135.00	400.0	0.0050	0.0319	Open
P6464	J51_57	J52_57	135.00	300.0	0.0050	0.0071	Open
P6465	J51_58	J51_59	135.00	400.0	0.0050	0.0388	Open
P6466	J51_58	J52_58	135.00	450.0	0.0050	0.0002	Open
P6467	J51_59	J51_60	135.00	500.0	0.0050	0.0099	Open
P6468	J51_59	J52_59	135.00	300.0	0.0050	0.0263	Open
P6469	J51_60	J51_61	135.00	300.0	0.0050	0.0024	Open
P6470	J51_60	J52_60	135.00	300.0	0.0050	0.0412	Open
P6471	J51_61	J51_62	135.00	300.0	0.0050	0.0331	Open
P6472	J51_61	J52_61	135.00	350.0	0.0050	0.0194	Open
P6473	J51_62	J51_63	135.00	600.0	0.0050	0.0426	Open
P6474	J51_62	J52_62	135.00	400.0	0.0050	0.0150	Open
P6475	J51_63	J51_64	135.00	300.0	0.0050	0.0251	Open
P6476	J51_63	J52_63	135.00	500.0	0.0050	0.0127	Open
P6477	J51_64	J52_64	135.00	500.0	0.0050	0.0348	Open
P6478	J52_1	J52_2	135.00	600.0	0.0050	0.0106	Open
P6479	J52_1	J53_1	135.00	500.0	0.0050	0.0323	Open
P6480	J52_2	J52_3	135.00	200.0	0.0050	0.0675	Open
P6481	J52_2	J53_2	135.00	100.0	0.0050	0.0478	Open
P6482	J52_3	J52_4	135.00	100.0	0.0050	0.1450	Open
P6483	J52_3	J53_3	135.00	250.0	0.0050	0.0693	Open
P6484	J52_4	J52_5	135.00	150.0	0.0050	0.0554	Open
P6485	J52_4	J53_4	135.00	200.0	0.0050	0.0423	Open
P6486	J52_5	J52_6	135.00	100.0	0.0050	0.1041	Open
P6487	J52_5	J53_5	135.00	200.0	0.0050	0.1282	Open
P6488	J52_6	J52_7	135.00	150.0	0.0050	0.0964	Open
P6489	J52_6	J53_6	135.00	250.0	0.0050	0.0844	Open
P6490	J52_7	J52_8	135.00	250.0	0.0050	0.0683	Open
P6491	J52_7	J53_7	135.00	150.0	0.0050	0.0304	Open
P6492	J52_8	J52_9	135.00	150.0	0.0050	0.0452	Open
P6493	J52_8	J53_8	135.00	100.0	0.0050	0.1170	Open
P6494	J52_9	J52_10	135.00	200.0	0.0050	0.1433	Open
P6495	J52_9	J53_9	135.00	200.0	0.0050	0.1088	Open
P6496	J52_10	J52_11	135.00	150.0	0.0050	0.0644	Open
P6497	J52_10	J53_10	135.00	250.0	0.0050	0.0807	Open
P6498	J52_11	J52_12	135.00	450.0	0.0050	0.0287	Open
P6499	J52_11	J53_11	135.00	450.0	0.0050	0.0301	Open
P6500	J52_12	J52_13	135.00	150.0	0.0050	0.0976	Open
P6501	J52_12	J53_12	135.00	150.0	0.0050	0.0193	Open
P6502	J52_13	J52_14	135.00	150.0	0.0050	0.0874	Open
P6503	J52_13	J53_13	135.00	150.0	0.0050	0.1214	Open
P6504	J52_14	J52_15	135.00	200.0	0.0050	0.1156	Open
P6505	J52_14	J53_14	135.00	200.0	0.0050	0.1306	Open
P6506	J52_15	J52_16	135.00	150.0	0.0050	0.1284	Open
P6507	J52_15	J53_15	135.00	300.0	0.0050	0.0425	Open
P6508	J52_16	J52_17	135.00	200.0	0.0050	0.0564	Open
P6509	J52_16	J53_16	135.00	100.0	0.0050	0.0565	Open
P6510	J52_17	J52_18	135.00	300.0	0.0050	0.1092	Open
P6511	J52_17	J53_17	135.00	200.0	0.0050	0.0570	Open
P6512	J52_18	J52_19	135.00	300.0	0.0050	0.0328	Open
P6513	J52_18	J53_18	135.00	100.0	0.0050	0.1383	Open
P6514	J52_19	J52_20	135.00	100.0	0.0050	0.1333	Open
P6515	J52_19	J53_19	135.00	200.0	0.0050	0.0082	Open
P6516	J52_20	J52_21	135.00	250.0	0.0050	0.0850	Open
P6517	J52_20	J53_20	135.00	200.0	0.0050	0.1419	Open
P6518	J52_21	J52_22	135.00	350.0	0.0050	0.0265	Open
P6519	J52_21	J53_21	135.00	350.0	0.0050	0.0019	Open
P6520	J52_22	J52_23	135.00	250.0	0.0050	0.0519	Open
P6521	J52_22	J53_22	135.00	250.0	0.0050	0.1395	Open
P6522	J52_23	J52_24	135.00	200.0	0.0050	0.0466	Open
P6523	J52_23	J53_23	135.00	150.0	0.0050	0.1251	Open
P6524	J52_24	J52_25	135.00	150.0	0.0050	0.0132	Open
P6525	J52_24	J53_24	135.00	250.0	0.0050	0.0268	Open
P6526	J52_25	J52_26	135.00	300.0	0.0050	0.0614	Open
P6527	J52_25	J53_25	135.00	150.0	0.0050	0.1054	Open
P6528	J52_26	J52_27	135.00	100.0	0.0050	0.1459	Open
P6529	J52_26	J53_26	135.00	100.0	0.0050	0.0887	Open
P6530	J52_27	J52_28	135.00	250.0	0.0050	0.0116	Open
P6531	J52_27	J53_27	135.00	100.0	0.0050	0.0407	Open
P6532	J52_28	J52_29	135.00	150.0	0.0050	0.0291	Open
P6533	J52_28	J53_28	135.00	100.0	0.0050	0.0776	Open
P6534	J52_29	J52_30	135.00	250.0	0.0050	0.0411	Open
P6535	J52_29	J53_29	135.00	100.0	0.0050	0.0185	Open
P6536	J52_30	J52_31	135.00	200.0	0.0050	0.0774	Open
P6537	J52_30	J53_30	135.00	250.0	0.0050	0.1271	Open
P6538	J52_31	J52_32	135.00	300.0	0.0050	0.0357	Open
P6539	J52_31	J53_31	135.00	300.0	0.0050	0.0265	Open
P6540	J52_32	J52_33	135.00	250.0	0.0050	0.0529	Open
P6541	J52_32	J53_32	135.00	250.0	0.0050	0.0062	Open
P6542	J52_33	J52_34	135.00	150.0	0.0050	0.0884	Open
P6543	J52_33	J53_33	135.00	300.0	0.0050	0.0368	Open
P6544	J52_34	J52_35	135.00	200.0	0.0050	0.0726	Open
P6545	J52_34	J53_34	135.00	250.0	0.0050	0.0508	Open
P6546	J52_35	J52_36	135.00	250.0	0.0050	0.0765	Open
P6547	J52_35	J53_35	135.00	300.0	0.0050	0.0952	Open
P6548	J52_36	J52_37	135.00	200.0	0.0050	0.0168	Open
P6549	J52_36	J53_36	135.00	300.0	0.0050	0.0733	Open
P6550	J52_37	J52_38	135.00	250.0	0.0050	0.0421	Open
P6551	J52_37	J53_37	135.00	250.0	0.0050	0.0049	Open
P6552	J52_38	J52_39	135.00	100.0	0.0050	0.0081	Open
P6553	J52_38	J53_38	135.00	300.0	0.0050	0.0851	Open
P6554	J52_39	J52_40	135.00	100.0	0.0050	0.1018	Open
P6555	J52_39	J53_39	135.00	300.0	0.0050	0.0410	Open
P6556	J52_40	J52_41	135.00	100.0	0.0050	0.1417	Open
P6557	J52_40	J53_40	135.00	250.0	0.0050	0.0076	Open
P6558	J52_41	J52_42	135.00	400.0	0.0050	0.0181	Open
P6559	J52_41	J53_41	135.00	300.0	0.0050	0.0209	Open
P6560	J52_42	J52_43	135.00	250.0	0.0050	0.0531	Open
P6561	J52_42	J53_42	135.00	200.0	0.0050	0.1316	Open
P6562	J52_43	J52_44	135.00	200.0	0.0050	0.0545	Open
P6563	J52_43	J53_43	135.00	300.0	0.0050	0.0730	Open
P6564	J52_44	J52_45	135.00	100.0	0.0050	0.0821	Open
P6565	J52_44	J53_44	135.00	250.0	0.0050	0.1233	Open
P6566	J52_45	J52_46	135.00	100.0	0.0050	0.0793	Open
P6567	J52_45	J53_45	135.00	300.0	0.0050	0.0921	Open
P6568	J52_46	J52_47	135.00	300.0	0.0050	0.1002	Open
P6569	J52_46	J53_46	135.00	150.0	0.0050	0.0155	Open
P6570	J52_47	J52_48	135.00	200.0	0.0050	0.0018	Open
P6571	J52_47	J53_47	135.00	100.0	0.0050	0.1476	Open
P6572	J52_48	J52_49	135.00	250.0	0.0050	0.0651	Open
P6573	J52_48	J53_48	135.00	300.0	0.0050	0.0281	Open
P6574	J52_49	J52_50	135.00	100.0	0.0050	0.1165	Open
P6575	J52_49	J53_49	135.00	300.0	0.0050	0.0584	Open
P6576	J52_50	J52_51	135.00	250.0	0.0050	0.0675	Open
P6577	J52_50	J53_50	135.00	100.0	0.0050	0.0899	Open
P6578	J52_51	J52_52	135.00	400.0	0.0050	0.0421	Open
P6579	J52_51	J53_51	135.00	300.0	0.0050	0.0184	Open
P6580	J52_52	J52_53	135.00	150.0	0.0050	0.0353	Open
P6581	J52_52	J53_52	135.00	200.0	0.0050	0.1499	Open
P6582	J52_53	J52_54	135.00	300.0	0.0050	0.0941	Open
P6583	J52_53	J53_53	135.00	150.0	0.0050	0.0976	Open
P6584	J52_54	J52_55	135.00	200.0	0.0050	0.0908	Open
P6585	J52_54	J53_54	135.00	100.0	0.0050	0.0109	Open
P6586	J52_55	J52_56	135.00	150.0	0.0050	0.0486	Open
P6587	J52_55	J53_55	135.00	200.0	0.0050	0.0624	Open
P6588	J52_56	J52_57	135.00	150.0	0.0050	0.1209	Open
P6589	J52_56	J53_56	135.00	300.0	0.0050	0.0201	Open
P6590	J52_57	J52_58	135.00	100.0	0.0050	0.1395	Open
P6591	J52_57	J53_57	135.00	200.0	0.0050	0.1479	Open
P6592	J52_58	J52_59	135.00	250.0	0.0050	0.0617	Open
P6593	J52_58	J53_58	135.00	300.0	0.0050	0.0515	Open
P6594	J52_59	J52_60	135.00	200.0	0.0050	0.0833	Open
P6595	J52_59	J53_59	135.00	100.0	0.0050	0.0761	Open
P6596	J52_60	J52_61	135.00	200.0	0.0050	0.1420	Open
P6597	J52_60	J53_60	135.00	200.0	0.0050	0.1063	Open
P6598	J52_61	J52_62	135.00	450.0	0.0050	0.0176	Open
P6599	J52_61	J53_61	135.00	450.0	0.0050	0.0394	Open
P6600	J52_62	J52_63	135.00	200.0	0.0050	0.0931	Open
P6601	J52_62	J53_62	135.00	150.0	0.0050	0.0090	Open
P6602	J52_63	J52_64	135.00	300.0	0.0050	0.1277	Open
P6603	J52_63	J53_63	135.00	300.0	0.0050	0.0010	Open
P6604	J52_64	J53_64	135.00	200.0	0.0050	0.0032	Open
P6605	J53_1	J53_2	135.00	500.0	0.0050	0.0252	Open
P6606	J53_1	J54_1	135.00	450.0	0.0050	0.0256	Open
P6607	J53_2	J53_3	135.00	300.0	0.0050	0.0620	Open
P6608	J53_2	J54_2	135.00	150.0	0.0050	0.1243	Open
P6609	J53_3	J53_4	135.00	200.0	0.0050	0.0293	Open
P6610	J53_3	J54_3	135.00	100.0	0.0050	0.0640	Open
P6611	J53_4	J53_5	135.00	250.0	0.0050	0.0969	Open
P6612	J53_4	J54_4	135.00	100.0	0.0050	0.1331	Open
P6613	J53_5	J53_6	135.00	300.0	0.0050	0.0810	Open
P6614	J53_5	J54_5	135.00	100.0	0.0050	0.0285	Open
P6615	J53_6	J53_7	135.00	100.0	0.0050	0.0986	Open
P6616	J53_6	J54_6	135.00	250.0	0.0050	0.0570	Open
P6617	J53_7	J53_8	135.00	250.0	0.0050	0.0188	Open
P6618	J53_7	J54_7	135.00	200.0	0.0050	0.0294	Open
P6619	J53_8	J53_9	135.00	200.0	0.0050	0.0339	Open
P6620	J53_8	J54_8	135.00	250.0	0.0050	0.0607	Open
P6621	J53_9	J53_10	135.00	200.0	0.0050	0.0365	Open
P6622	J53_9	J54_9	135.00	150.0	0.0050	0.0501	Open
P6623	J53_10	J53_11	135.00	300.0	0.0050	0.1062	Open
P6624	J53_10	J54_10	135.00	200.0	0.0050	0.1056	Open
P6625	J53_11	J53_12	135.00	350.0	0.0050	0.0015	Open
P6626	J53_11	J54_11	135.00	600.0	0.0050	0.0358	Open
P6627	J53_12	J53_13	135.00	250.0	0.0050	0.0740	Open
P6628	J53_12	J54_12	135.00	150.0	0.0050	0.0874	Open
P6629	J53_13	J53_14	135.00	300.0	0.0050	0.0358	Open
P6630	J53_13	J54_13	135.00	150.0	0.0050	0.0574	Open
P6631	J53_14	J53_15	135.00	300.0	0.0050	0.0918	Open
P6632	J53_14	J54_14	135.00	100.0	0.0050	0.0106	Open
P6633	J53_15	J53_16	135.00	300.0	0.0050	0.0733	Open
P6634	J53_15	J54_15	135.00	200.0	0.0050	0.1306	Open
P6635	J53_16	J53_17	135.00	200.0	0.0050	0.1265	Open
P6636	J53_16	J54_16	135.00	100.0	0.0050	0.0109	Open
P6637	J53_17	J53_18	135.00	200.0	0.0050	0.0399	Open
P6638	J53_17	J54_17	135.00	150.0	0.0050	0.1047	Open
P6639	J53_18	J53_19	135.00	250.0	0.0050	0.0639	Open
P6640	J53_18	J54_18	135.00	250.0	0.0050	0.0254	Open
P6641	J53_19	J53_20	135.00	100.0	0.0050	0.1160	Open
P6642	J53_19	J54_19	135.00	150.0	0.0050	0.1114	Open
P6643	J53_20	J53_21	135.00	200.0	0.0050	0.0476	Open
P6644	J53_20	J54_20	135.00	250.0	0.0050	0.0861	Open
P6645	J53_21	J53_22	135.00	350.0	0.0050	0.0339	Open
P6646	J53_21	J54_21	135.00	450.0	0.0050	0.0192	Open
P6647	J53_22	J53_23	135.00	200.0	0.0050	0.1415	Open
P6648	J53_22	J54_22	135.00	100.0	0.0050	0.1112	Open
P6649	J53_23	J53_24	135.00	300.0	0.0050	0.1289	Open
P6650	J53_23	J54_23	135.00	250.0	0.0050	0.1024	Open
P6651	J53_24	J53_25	135.00	200.0	0.0050	0.1355	Open
P6652	J53_24	J54_24	135.00	150.0	0.0050	0.1477	Open
P6653	J53_25	J53_26	135.00	250.0	0.0050	0.0426	Open
P6654	J53_25	J54_25	135.00	100.0	0.0050	0.1042	Open
P6655	J53_26	J53_27	135.00	100.0	0.0050	0.0631	Open
P6656	J53_26	J54_26	135.00	200.0	0.0050	0.0118	Open
P6657	J53_27	J53_28	135.00	150.0	0.0050	0.1398	Open
P6658	J53_27	J54_27	135.00	300.0	0.0050	0.0003	Open
P6659	J53_28	J53_29	135.00	150.0	0.0050	0.0054	Open
P6660	J53_28	J54_28	135.00	200.0	0.0050	0.1100	Open
P6661	J53_29	J53_30	135.00	250.0	0.0050	0.0394	Open
P6662	J53_29	J54_29	135.00	150.0	0.0050	0.0590	Open
P6663	J53_30	J53_31	135.00	150.0	0.0050	0.0930	Open
P6664	J53_30	J54_30	135.00	100.0	0.0050	0.0467	Open
P6665	J53_31	J53_32	135.00	600.0	0.0050	0.0410	Open
P6666	J53_31	J54_31	135.00	600.0	0.0050	0.0459	Open
P6667	J53_32	J53_33	135.00	150.0	0.0050	0.1285	Open
P6668	J53_32	J54_32	135.00	200.0	0.0050	0.0475	Open
P6669	J53_33	J53_34	135.00	250.0	0.0050	0.0576	Open
P6670	J53_33	J54_33	135.00	300.0	0.0050	0.0067	Open
P6671	J53_34	J53_35	135.00	150.0	0.0050	0.1353	Open
P6672	J53_34	J54_34	135.00	100.0	0.0050	0.0740	Open
P6673	J53_35	J53_36	135.00	150.0	0.0050	0.0467	Open
P6674	J53_35	J54_35	135.00	150.0	0.0050	0.0643	Open
P6675	J53_36	J53_37	135.00	300.0	0.0050	0.1475	Open
P6676	J53_36	J54_36	135.00	100.0	0.0050	0.0579	Open
P6677	J53_37	J53_38	135.00	100.0	0.0050	0.0880	Open
P6678	J53_37	J54_37	135.00	300.0	0.0050	0.0943	Open
P6679	J53_38	J53_39	135.00	150.0	0.0050	0.0712	Open
P6680	J53_38	J54_38	135.00	150.0	0.0050	0.0884	Open
P6681	J53_39	J53_40	135.00	200.0	0.0050	0.1412	Open
P6682	J53_39	J54_39	135.00	100.0	0.0050	0.1093	Open
P6683	J53_40	J53_41	135.00	200.0	0.0050	0.1275	Open
P6684	J53_40	J54_40	135.00	100.0	0.0050	0.0702	Open
P6685	J53_41	J53_42	135.00	300.0	0.0050	0.0453	Open
P6686	J53_41	J54_41	135.00	450.0	0.0050	0.0248	Open
P6687	J53_42	J53_43	135.00	300.0	0.0050	0.1205	Open
P6688	J53_42	J54_42	135.00	200.0	0.0050	0.0312	Open
P6689	J53_43	J53_44	135.00	300.0	0.0050	0.0864	Open
P6690	J53_43	J54_43	135.00	150.0	0.0050	0.0996	Open
P6691	J53_44	J53_45	135.00	300.0	0.0050	0.0751	Open
P6692	J53_44	J54_44	135.00	100.0	0.0050	0.0343	Open
P6693	J53_45	J53_46	135.00	100.0	0.0050	0.0316	Open
P6694	J53_45	J54_45	135.00	200.0	0.0050	0.0078	Open
P6695	J53_46	J53_47	135.00	300.0	0.0050	0.1487	Open
P6696	J53_46	J54_46	135.00	300.0	0.0050	0.0015	Open
P6697	J53_47	J53_48	135.00	200.0	0.0050	0.0121	Open
P6698	J53_47	J54_47	135.00	100.0	0.0050	0.0757	Open
P6699	J53_48	J53_49	135.00	250.0	0.0050	0.0589	Open
P6700	J53_48	J54_48	135.00	300.0	0.0050	0.0046	Open
P6701	J53_49	J53_50	135.00	250.0	0.0050	0.0071	Open
P6702	J53_49	J54_49	135.00	150.0	0.0050	0.0759	Open
P6703	J53_50	J53_51	135.00	100.0	0.0050	0.0798	Open
P6704	J53_50	J54_50	135.00	250.0	0.0050	0.0387	Open
P6705	J53_51	J53_52	135.00	450.0	0.0050	0.0216	Open
P6706	J53_51	J54_51	135.00	450.0	0.0050	0.0207	Open
P6707	J53_52	J53_53	135.00	300.0	0.0050	0.0967	Open
P6708	J53_52	J54_52	135.00	300.0	0.0050	0.0565	Open
P6709	J53_53	J53_54	135.00	100.0	0.0050	0.0540	Open
P6710	J53_53	J54_53	135.00	250.0	0.0050	0.0041	Open
P6711	J53_54	J53_55	135.00	300.0	0.0050	0.0035	Open
P6712	J53_54	J54_54	135.00	100.0	0.0050	0.0216	Open
P6713	J53_55	J53_56	135.00	200.0	0.0050	0.0056	Open
P6714	J53_55	J54_55	135.00	150.0	0.0050	0.0709	Open
P6715	J53_56	J53_57	135.00	250.0	0.0050	0.1163	Open
P6716	J53_56	J54_56	135.00	300.0	0.0050	0.0236	Open
P6717	J53_57	J53_58	135.00	300.0	0.0050	0.1045	Open
P6718	J53_57	J54_57	135.00	100.0	0.0050	0.0231	Open
P6719	J53_58	J53_59	135.00	200.0	0.0050	0.1415	Open
P6720	J53_58	J54_58	135.00	100.0	0.0050	0.1249	Open
P6721	J53_59	J53_60	135.00	300.0	0.0050	0.0539	Open
P6722	J53_59	J54_59	135.00	150.0	0.0050	0.0701	Open
P6723	J53_60	J53_61	135.00	150.0	0.0050	0.1255	Open
P6724	J53_60	J54_60	135.00	100.0	0.0050	0.0643	Open
P6725	J53_61	J53_62	135.00	400.0	0.0050	0.0392	Open
P6726	J53_61	J54_61	135.00	400.0	0.0050	0.0214	Open
P6727	J53_62	J53_63	135.00	250.0	0.0050	0.1075	Open
P6728	J53_62	J54_62	135.00	250.0	0.0050	0.0256	Open
P6729	J53_63	J53_64	135.00	100.0	0.0050	0.1454	Open
P6730	J53_63	J54_63	135.00	100.0	0.0050	0.0708	Open
P6731	J53_64	J54_64	135.00	250.0	0.0050	0.1003	Open
P6732	J54_1	J54_2	135.00	450.0	0.0050	0.0395	Open
P6733	J54_1	J55_1	135.00	600.0	0.0050	0.0347	Open
P6734	J54_2	J54_3	135.00	150.0	0.0050	0.0870	Open
P6735	J54_2	J55_2	135.00	100.0	0.0050	0.0665	Open
P6736	J54_3	J54_4	135.00	250.0	0.0050	0.0237	Open
P6737	J54_3	J55_3	135.00	300.0	0.0050	0.1058	Open
P6738	J54_4	J54_5	135.00	150.0	0.0050	0.0645	Open
P6739	J54_4	J55_4	135.00	150.0	0.0050	0.1181	Open
P6740	J54_5	J54_6	135.00	300.0	0.0050	0.0995	Open
P6741	J54_5	J55_5	135.00	150.0	0.0050	0.0503	Open
P6742	J54_6	J54_7	135.00	100.0	0.0050	0.0227	Open
P6743	J54_6	J55_6	135.00	150.0	0.0050	0.1467	Open
P6744	J54_7	J54_8	135.00	150.0	0.0050	0.1384	Open
P6745	J54_7	J55_7	135.00	100.0	0.0050	0.0613	Open
P6746	J54_8	J54_9	135.00	100.0	0.0050	0.1294	Open
P6747	J54_8	J55_8	135.00	150.0	0.0050	0.0707	Open
P6748	J54_9	J54_10	135.00	150.0	0.0050	0.1174	Open
P6749	J54_9	J55_9	135.00	300.0	0.0050	0.0136	Open
P6750	J54_10	J54_11	135.00	300.0	0.0050	0.0823	Open
P6751	J54_10	J55_10	135.00	150.0	0.0050	0.0667	Open
P6752	J54_11	J54_12	135.00	350.0	0.0050	0.0450	Open
P6753	J54_11	J55_11	135.00	300.0	0.0050	0.0351	Open
P6754	J54_12	J54_13	135.00	200.0	0.0050	0.1364	Open
P6755	J54_12	J55_12	135.00	150.0	0.0050	0.0530	Open
P6756	J54_13	J54_14	135.00	100.0	0.0050	0.1333	Open
P6757	J54_13	J55_13	135.00	250.0	0.0050	0.1219	Open
P6758	J54_14	J54_15	135.00	300.0	0.0050	0.0696	Open
P6759	J54_14	J55_14	135.00	250.0	0.0050	0.0607	Open
P6760	J54_15	J54_16	135.00	300.0	0.0050	0.1370	Open
P6761	J54_15	J55_15	135.00	150.0	0.0050	0.0559	Open
P6762	J54_16	J54_17	135.00	300.0	0.0050	0.0199	Open
P6763	J54_16	J55_16	135.00	200.0	0.0050	0.1436	Open
P6764	J54_17	J54_18	135.00	300.0	0.0050	0.0695	Open
P6765	J54_17	J55_17	135.00	250.0	0.0050	0.0449	Open
P6766	J54_18	J54_19	135.00	300.0	0.0050	0.0802	Open
P6767	J54_18	J55_18	135.00	250.0	0.0050	0.1401	Open
P6768	J54_19	J54_20	135.00	300.0	0.0050	0.1494	Open
P6769	J54_19	J55_19	135.00	200.0	0.0050	0.0285	Open
P6770	J54_20	J54_21	135.00	300.0	0.0050	0.0538	Open
P6771	J54_20	J55_20	135.00	150.0	0.0050	0.0018	Open
P6772	J54_21	J54_22	135.00	500.0	0.0050	0.0306	Open
P6773	J54_21	J55_21	135.00	500.0	0.0050	0.0453	Open
P6774	J54_22	J54_23	135.00	150.0	0.0050	0.0305	Open
P6775	J54_22	J55_22	135.00	250.0	0.0050	0.1426	Open
P6776	J54_23	J54_24	135.00	300.0	0.0050	0.0026	Open
P6777	J54_23	J55_23	135.00	250.0	0.0050	0.0550	Open
P6778	J54_24	J54_25	135.00	100.0	0.0050	0.1174	Open
P6779	J54_24	J55_24	135.00	300.0	0.0050	0.1423	Open
P6780	J54_25	J54_26	135.00	100.0	0.0050	0.0659	Open
P6781	J54_25	J55_25	135.00	250.0	0.0050	0.1157	Open
P6782	J54_26	J54_27	135.00	300.0	0.0050	0.1022	Open
P6783	J54_26	J55_26	135.00	300.0	0.0050	0.1219	Open
P6784	J54_27	J54_28	135.00	200.0	0.0050	0.0226	Open
P6785	J54_27	J55_27	135.00	250.0	0.0050	0.0158	Open
P6786	J54_28	J54_29	135.00	300.0	0.0050	0.0836	Open
P6787	J54_28	J55_28	135.00	200.0	0.0050	0.0658	Open
P6788	J54_29	J54_30	135.00	300.0	0.0050	0.0815	Open
P6789	J54_29	J55_29	135.00	250.0	0.0050	0.1171	Open
P6790	J54_30	J54_31	135.00	100.0	0.0050	0.0318	Open
P6791	J54_30	J55_30	135.00	200.0	0.0050	0.1191	Open
P6792	J54_31	J54_32	135.00	300.0	0.0050	0.0128	Open
P6793	J54_31	J55_31	135.00	350.0	0.0050	0.0293	Open
P6794	J54_32	J54_33	135.00	250.0	0.0050	0.1099	Open
P6795	J54_32	J55_32	135.00	250.0	0.0050	0.0421	Open
P6796	J54_33	J54_34	135.00	150.0	0.0050	0.0106	Open
P6797	J54_33	J55_33	135.00	100.0	0.0050	0.0672	Open
P6798	J54_34	J54_35	135.00	200.0	0.0050	0.0114	Open
P6799	J54_34	J55_34	135.00	200.0	0.0050	0.0226	Open
P6800	J54_35	J54_36	135.00	250.0	0.0050	0.0255	Open
P6801	J54_35	J55_35	135.00	100.0	0.0050	0.0402	Open
P6802	J54_36	J54_37	135.00	300.0	0.0050	0.0072	Open
P6803	J54_36	J55_36	135.00	150.0	0.0050	0.0757	Open
P6804	J54_37	J54_38	135.00	250.0	0.0050	0.0713	Open
P6805	J54_37	J55_37	135.00	200.0	0.0050	0.0904	Open
P6806	J54_38	J54_39	135.00	150.0	0.0050	0.0047	Open
P6807	J54_38	J55_38	135.00	250.0	0.0050	0.0021	Open
P6808	J54_39	J54_40	135.00	150.0	0.0050	0.0723	Open
P6809	J54_39	J55_39	135.00	100.0	0.0050	0.0922	Open
P6810	J54_40	J54_41	135.00	200.0	0.0050	0.1336	Open
P6811	J54_40	J55_40	135.00	150.0	0.0050	0.0620	Open
P6812	J54_41	J54_42	135.00	600.0	0.0050	0.0387	Open
P6813	J54_41	J55_41	135.00	450.0	0.0050	0.0075	Open
P6814	J54_42	J54_43	135.00	250.0	0.0050	0.1433	Open
P6815	J54_42	J55_42	135.00	300.0	0.0050	0.0709	Open
P6816	J54_43	J54_44	135.00	200.0	0.0050	0.0928	Open
P6817	J54_43	J55_43	135.00	100.0	0.0050	0.1012	Open
P6818	J54_44	J54_45	135.00	300.0	0.0050	0.0805	Open
P6819	J54_44	J55_44	135.00	300.0	0.0050	0.0792	Open
P6820	J54_45	J54_46	135.00	300.0	0.0050	0.0330	Open
P6821	J54_45	J55_45	135.00	150.0	0.0050	0.1096	Open
P6822	J54_46	J54_47	135.00	300.0	0.0050	0.0453	Open
P6823	J54_46	J55_46	135.00	150.0	0.0050	0.1385	Open
P6824	J54_47	J54_48	135.00	200.0	0.0050	0.1281	Open
P6825	J54_47	J55_47	135.00	300.0	0.0050	0.0082	Open
P6826	J54_48	J54_49	135.00	300.0	0.0050	0.1388	Open
P6827	J54_48	J55_48	135.00	150.0	0.0050	0.0532	Open
P6828	J54_49	J54_50	135.00	300.0	0.0050	0.0089	Open
P6829	J54_49	J55_49	135.00	250.0	0.0050	0.0251	Open
P6830	J54_50	J54_51	135.00	300.0	0.0050	0.0561	Open
P6831	J54_50	J55_50	135.00	200.0	0.0050	0.1351	Open
P6832	J54_51	J54_52	135.00	450.0	0.0050	0.0453	Open
P6833	J54_51	J55_51	135.00	350.0	0.0050	0.0081	Open
P6834	J54_52	J54_53	135.00	250.0	0.0050	0.0838	Open
P6835	J54_52	J55_52	135.00	100.0	0.0050	0.0733	Open
P6836	J54_53	J54_54	135.00	150.0	0.0050	0.0251	Open
P6837	J54_53	J55_53	135.00	250.0	0.0050	0.0844	Open
P6838	J54_54	J54_55	135.00	100.0	0.0050	0.0400	Open
P6839	J54_54	J55_54	135.00	300.0	0.0050	0.0441	Open
P6840	J54_55	J54_56	135.00	300.0	0.0050	0.0706	Open
P6841	J54_55	J55_55	135.00	200.0	0.0050	0.0736	Open
P6842	J54_56	J54_57	135.00	250.0	0.0050	0.1486	Open
P6843	J54_56	J55_56	135.00	100.0	0.0050	0.1358	Open
P6844	J54_57	J54_58	135.00	200.0	0.0050	0.1019	Open
P6845	J54_57	J55_57	135.00	150.0	0.0050	0.1080	Open
P6846	J54_58	J54_59	135.00	150.0	0.0050	0.0183	Open
P6847	J54_58	J55_58	135.00	200.0	0.0050	0.1450	Open
P6848	J54_59	J54_60	135.00	200.0	0.0050	0.0867	Open
P6849	J54_59	J55_59	135.00	250.0	0.0050	0.0984	Open
P6850	J54_60	J54_61	135.00	250.0	0.0050	0.0478	Open
P6851	J54_60	J55_60	135.00	150.0	0.0050	0.1358	Open
P6852	J54_61	J54_62	135.00	350.0	0.0050	0.0317	Open
P6853	J54_61	J55_61	135.00	400.0	0.0050	0.0190	Open
P6854	J54_62	J54_63	135.00	150.0	0.0050	0.0822	Open
P6855	J54_62	J55_62	135.00	150.0	0.0050	0.0151	Open
P6856	J54_63	J54_64	135.00	250.0	0.0050	0.0604	Open
P6857	J54_63	J55_63	135.00	150.0	0.0050	0.0867	Open
P6858	J54_64	J55_64	135.00	250.0	0.0050	0.1349	Open
P6859	J55_1	J55_2	135.00	350.0	0.0050	0.0197	Open
P6860	J55_1	J56_1	135.00	350.0	0.0050	0.0237	Open
P6861	J55_2	J55_3	135.00	200.0	0.0050	0.1023	Open
P6862	J55_2	J56_2	135.00	250.0	0.0050	0.0005	Open
P6863	J55_3	J55_4	135.00	250.0	0.0050	0.0555	Open
P6864	J55_3	J56_3	135.00	300.0	0.0050	0.0376	Open
P6865	J55_4	J55_5	135.00	100.0	0.0050	0.1264	Open
P6866	J55_4	J56_4	135.00	250.0	0.0050	0.0828	Open
P6867	J55_5	J55_6	135.00	250.0	0.0050	0.1482	Open
P6868	J55_5	J56_5	135.00	100.0	0.0050	0.0278	Open
P6869	J55_6	J55_7	135.00	100.0	0.0050	0.1482	Open
P6870	J55_6	J56_6	135.00	200.0	0.0050	0.0962	Open
P6871	J55_7	J55_8	135.00	250.0	0.0050	0.0316	Open
P6872	J55_7	J56_7	135.00	300.0	0.0050	0.1365	Open
P6873	J55_8	J55_9	135.00	250.0	0.0050	0.0552	Open
P6874	J55_8	J56_8	135.00	150.0	0.0050	0.1157	Open
P6875	J55_9	J55_10	135.00	200.0	0.0050	0.0996	Open
P6876	J55_9	J56_9	135.00	150.0	0.0050	0.0299	Open
P6877	J55_10	J55_11	135.00	300.0	0.0050	0.0793	Open
P6878	J55_10	J56_10	135.00	100.0	0.0050	0.1016	Open
P6879	J55_11	J55_12	135.00	300.0	0.0050	0.0258	Open
P6880	J55_11	J56_11	135.00	500.0	0.0050	0.0171	Open
P6881	J55_12	J55_13	135.00	150.0	0.0050	0.0414	Open
P6882	J55_12	J56_12	135.00	300.0	0.0050	0.0554	Open
P6883	J55_13	J55_14	135.00	200.0	0.0050	0.0293	Open
P6884	J55_13	J56_13	135.00	250.0	0.0050	0.0166	Open
P6885	J55_14	J55_15	135.00	150.0	0.0050	0.0148	Open
P6886	J55_14	J56_14	135.00	250.0	0.0050	0.0654	Open
P6887	J55_15	J55_16	135.00	200.0	0.0050	0.0440	Open
P6888	J55_15	J56_15	135.00	250.0	0.0050	0.0768	Open
P6889	J55_16	J55_17	135.00	200.0	0.0050	0.0770	Open
P6890	J55_16	J56_16	135.00	100.0	0.0050	0.1099	Open
P6891	J55_17	J55_18	135.00	250.0	0.0050	0.1211	Open
P6892	J55_17	J56_17	135.00	300.0	0.0050	0.0233	Open
P6893	J55_18	J55_19	135.00	250.0	0.0050	0.1120	Open
P6894	J55_18	J56_18	135.00	150.0	0.0050	0.0917	Open
P6895	J55_19	J55_20	135.00	250.0	0.0050	0.0173	Open
P6896	J55_19	J56_19	135.00	300.0	0.0050	0.0192	Open
P6897	J55_20	J55_21	135.00	300.0	0.0050	0.1068	Open
P6898	J55_20	J56_20	135.00	300.0	0.0050	0.0973	Open
P6899	J55_21	J55_22	135.00	450.0	0.0050	0.0418	Open
P6900	J55_21	J56_21	135.00	400.0	0.0050	0.0138	Open
P6901	J55_22	J55_23	135.00	100.0	0.0050	0.1408	Open
P6902	J55_22	J56_22	135.00	100.0	0.0050	0.0692	Open
P6903	J55_23	J55_24	135.00	300.0	0.0050	0.0759	Open
P6904	J55_23	J56_23	135.00	250.0	0.0050	0.1179	Open
P6905	J55_24	J55_25	135.00	300.0	0.0050	0.0906	Open
P6906	J55_24	J56_24	135.00	150.0	0.0050	0.1343	Open
P6907	J55_25	J55_26	135.00	250.0	0.0050	0.1001	Open
P6908	J55_25	J56_25	135.00	100.0	0.0050	0.0991	Open
P6909	J55_26	J55_27	135.00	150.0	0.0050	0.0312	Open
P6910	J55_26	J56_26	135.00	150.0	0.0050	0.0603	Open
P6911	J55_27	J55_28	135.00	300.0	0.0050	0.0297	Open
P6912	J55_27	J56_27	135.00	100.0	0.0050	0.0553	Open
P6913	J55_28	J55_29	135.00	150.0	0.0050	0.0763	Open
P6914	J55_28	J56_28	135.00	300.0	0.0050	0.0157	Open
P6915	J55_29	J55_30	135.00	250.0	0.0050	0.1107	Open
P6916	J55_29	J56_29	135.00	200.0	0.0050	0.0396	Open
P6917	J55_30	J55_31	135.00	300.0	0.0050	0.0299	Open
P6918	J55_30	J56_30	135.00	250.0	0.0050	0.0184	Open
P6919	J55_31	J55_32	135.00	400.0	0.0050	0.0495	Open
P6920	J55_31	J56_31	135.00	450.0	0.0050	0.0352	Open
P6921	J55_32	J55_33	135.00	100.0	0.0050	0.0676	Open
P6922	J55_32	J56_32	135.00	300.0	0.0050	0.1434	Open
P6923	J55_33	J55_34	135.00	200.0	0.0050	0.0392	Open
P6924	J55_33	J56_33	135.00	100.0	0.0050	0.0024	Open
P6925	J55_34	J55_35	135.00	100.0	0.0050	0.0790	Open
P6926	J55_34	J56_34	135.00	100.0	0.0050	0.0169	Open
P6927	J55_35	J55_36	135.00	200.0	0.0050	0.0260	Open
P6928	J55_35	J56_35	135.00	200.0	0.0050	0.0823	Open
P6929	J55_36	J55_37	135.00	100.0	0.0050	0.1385	Open
P6930	J55_36	J56_36	135.00	300.0	0.0050	0.0535	Open
P6931	J55_37	J55_38	135.00	150.0	0.0050	0.0653	Open
P6932	J55_37	J56_37	135.00	150.0	0.0050	0.0706	Open
P6933	J55_38	J55_39	135.00	200.0	0.0050	0.1498	Open
P6934	J55_38	J56_38	135.00	150.0	0.0050	0.0619	Open
P6935	J55_39	J55_40	135.00	150.0	0.0050	0.0112	Open
P6936	J55_39	J56_39	135.00	200.0	0.0050	0.0869	Open
P6937	J55_40	J55_41	135.00	200.0	0.0050	0.1121	Open
P6938	J55_40	J56_40	135.00	200.0	0.0050	0.1466	Open
P6939	J55_41	J55_42	135.00	300.0	0.0050	0.0068	Open
P6940	J55_41	J56_41	135.00	350.0	0.0050	0.0047	Open
P6941	J55_42	J55_43	135.00	300.0	0.0050	0.1205	Open
P6942	J55_42	J56_42	135.00	150.0	0.0050	0.0562	Open
P6943	J55_43	J55_44	135.00	150.0	0.0050	0.0299	Open
P6944	J55_43	J56_43	135.00	200.0	0.0050	0.0382	Open
P6945	J55_44	J55_45	135.00	300.0	0.0050	0.0930	Open
P6946	J55_44	J56_44	135.00	300.0	0.0050	0.1375	Open
P6947	J55_45	J55_46	135.00	250.0	0.0050	0.1123	Open
P6948	J55_45	J56_45	135.00	150.0	0.0050	0.0959	Open
P6949	J55_46	J55_47	135.00	250.0	0.0050	0.1147	Open
P6950	J55_46	J56_46	135.00	300.0	0.0050	0.1359	Open
P6951	J55_47	J55_48	135.00	250.0	0.0050	0.0189	Open
P6952	J55_47	J56_47	135.00	200.0	0.0050	0.1011	Open
P6953	J55_48	J55_49	135.00	150.0	0.0050	0.1282	Open
P6954	J55_48	J56_48	135.00	300.0	0.0050	0.0041	Open
P6955	J55_49	J55_50	135.00	150.0	0.0050	0.0436	Open
P6956	J55_49	J56_49	135.00	250.0	0.0050	0.0217	Open
P6957	J55_50	J55_51	135.00	200.0	0.0050	0.1055	Open
P6958	J55_50	J56_50	135.00	300.0	0.0050	0.1229	Open
P6959	J55_51	J55_52	135.00	300.0	0.0050	0.0284	Open
P6960	J55_51	J56_51	135.00	350.0	0.0050	0.0479	Open
P6961	J55_52	J55_53	135.00	100.0	0.0050	0.0253	Open
P6962	J55_52	J56_52	135.00	200.0	0.0050	0.1250	Open
P6963	J55_53	J55_54	135.00	100.0	0.0050	0.0797	Open
P6964	J55_53	J56_53	135.00	200.0	0.0050	0.1266	Open
P6965	J55_54	J55_55	135.00	150.0	0.0050	0.1169	Open
P6966	J55_54	J56_54	135.00	250.0	0.0050	0.1055	Open
P6967	J55_55	J55_56	135.00	250.0	0.0050	0.0442	Open
P6968	J55_55	J56_55	135.00	250.0	0.0050	0.0725	Open
P6969	J55_56	J55_57	135.00	250.0	0.0050	0.1279	Open
P6970	J55_56	J56_56	135.00	100.0	0.0050	0.0497	Open
P6971	J55_57	J55_58	135.00	100.0	0.0050	0.0254	Open
P6972	J55_57	J56_57	135.00	100.0	0.0050	0.1342	Open
P6973	J55_58	J55_59	135.00	200.0	0.0050	0.0910	Open
P6974	J55_58	J56_58	135.00	250.0	0.0050	0.0980	Open
P6975	J55_59	J55_60	135.00	200.0	0.0050	0.0877	Open
P6976	J55_59	J56_59	135.00	250.0	0.0050	0.0996	Open
P6977	J55_60	J55_61	135.00	250.0	0.0050	0.0308	Open
P6978	J55_60	J56_60	135.00	150.0	0.0050	0.0894	Open
P6979	J55_61	J55_62	135.00	300.0	0.0050	0.0493	Open
P6980	J55_61	J56_61	135.00	400.0	0.0050	0.0183	Open
P6981	J55_62	J55_63	135.00	300.0	0.0050	0.0893	Open
P6982	J55_62	J56_62	135.00	150.0	0.0050	0.1351	Open
P6983	J55_63	J55_64	135.00	300.0	0.0050	0.0738	Open
P6984	J55_63	J56_63	135.00	100.0	0.0050	0.0669	Open
P6985	J55_64	J56_64	135.00	100.0	0.0050	0.1110	Open
P6986	J56_1	J56_2	135.00	400.0	0.0050	0.0177	Open
P6987	J56_1	J57_1	135.00	350.0	0.0050	0.0147	Open
P6988	J56_2	J56_3	135.00	250.0	0.0050	0.0629	Open
P6989	J56_2	J57_2	135.00	300.0	0.0050	0.1402	Open
P6990	J56_3	J56_4	135.00	200.0	0.0050	0.0653	Open
P6991	J56_3	J57_3	135.00	250.0	0.0050	0.0849	Open
P6992	J56_4	J56_5	135.00	250.0	0.0050	0.0568	Open
P6993	J56_4	J57_4	135.00	250.0	0.0050	0.0218	Open
P6994	J56_5	J56_6	135.00	250.0	0.0050	0.1412	Open
P6995	J56_5	J57_5	135.00	200.0	0.0050	0.0780	Open
P6996	J56_6	J56_7	135.00	200.0	0.0050	0.1034	Open
P6997	J56_6	J57_6	135.00	250.0	0.0050	0.1320	Open
P6998	J56_7	J56_8	135.00	100.0	0.0050	0.0077	Open
P6999	J56_7	J57_7	135.00	300.0	0.0050	0.1408	Open
P7000	J56_8	J56_9	135.00	250.0	0.0050	0.0652	Open
P7001	J56_8	J57_8	135.00	300.0	0.0050	0.0995	Open
P7002	J56_9	J56_10	135.00	150.0	0.0050	0.0080	Open
P7003	J56_9	J57_9	135.00	250.0	0.0050	0.0799	Open
P7004	J56_10	J56_11	135.00	150.0	0.0050	0.0497	Open
P7005	J56_10	J57_10	135.00	250.0	0.0050	0.1469	Open
P7006	J56_11	J56_12	135.00	400.0	0.0050	0.0357	Open
P7007	J56_11	J57_11	135.00	500.0	0.0050	0.0107	Open
P7008	J56_12	J56_13	135.00	250.0	0.0050	0.0077	Open
P7009	J56_12	J57_12	135.00	100.0	0.0050	0.0535	Open
P7010	J56_13	J56_14	135.00	250.0	0.0050	0.1409	Open
P7011	J56_13	J57_13	135.00	200.0	0.0050	0.1275	Open
P7012	J56_14	J56_15	135.00	200.0	0.0050	0.0090	Open
P7013	J56_14	J57_14	135.00	300.0	0.0050	0.0913	Open
P7014	J56_15	J56_16	135.00	150.0	0.0050	0.0867	Open
P7015	J56_15	J57_15	135.00	250.0	0.0050	0.1378	Open
P7016	J56_16	J56_17	135.00	200.0	0.0050	0.1433	Open
P7017	J56_16	J57_16	135.00	150.0	0.0050	0.1128	Open
P7018	J56_17	J56_18	135.00	200.0	0.0050	0.1208	Open
P7019	J56_17	J57_17	135.00	200.0	0.0050	0.0150	Open
P7020	J56_18	J56_19	135.00	200.0	0.0050	0.1437	Open
P7021	J56_18	J57_18	135.00	100.0	0.0050	0.1373	Open
P7022	J56_19	J56_20	135.00	150.0	0.0050	0.0461	Open
P7023	J56_19	J57_19	135.00	200.0	0.0050	0.1090	Open
P7024	J56_20	J56_21	135.00	300.0	0.0050	0.1069	Open
P7025	J56_20	J57_20	135.00	200.0	0.0050	0.1400	Open
P7026	J56_21	J56_22	135.00	350.0	0.0050	0.0452	Open
P7027	J56_21	J57_21	135.00	450.0	0.0050	0.0123	Open
P7028	J56_22	J56_23	135.00	200.0	0.0050	0.1202	Open
P7029	J56_22	J57_22	135.00	200.0	0.0050	0.0884	Open
P7030	J56_23	J56_24	135.00	250.0	0.0050	0.1211	Open
P7031	J56_23	J57_23	135.00	150.0	0.0050	0.1423	Open
P7032	J56_24	J56_25	135.00	150.0	0.0050	0.1256	Open
P7033	J56_24	J57_24	135.00	200.0	0.0050	0.0167	Open
P7034	J56_25	J56_26	135.00	250.0	0.0050	0.1213	Open
P7035	J56_25	J57_25	135.00	300.0	0.0050	0.1240	Open
P7036	J56_26	J56_27	135.00	250.0	0.0050	0.1397	Open
P7037	J56_26	J57_26	135.00	100.0	0.0050	0.1001	Open
P7038	J56_27	J56_28	135.00	150.0	0.0050	0.1190	Open
P7039	J56_27	J57_27	135.00	250.0	0.0050	0.0831	Open
P7040	J56_28	J56_29	135.00	100.0	0.0050	0.0041	Open
P7041	J56_28	J57_28	135.00	300.0	0.0050	0.1467	Open
P7042	J56_29	J56_30	135.00	200.0	0.0050	0.0572	Open
P7043	J56_29	J57_29	135.00	100.0	0.0050	0.0748	Open
P7044	J56_30	J56_31	135.00	300.0	0.0050	0.1334	Open
P7045	J56_30	J57_30	135.00	250.0	0.0050	0.0722	Open
P7046	J56_31	J56_32	135.00	500.0	0.0050	0.0247	Open
P7047	J56_31	J57_31	135.00	600.0	0.0050	0.0161	Open
P7048	J56_32	J56_33	135.00	250.0	0.0050	0.1181	Open
P7049	J56_32	J57_32	135.00	300.0	0.0050	0.0332	Open
P7050	J56_33	J56_34	135.00	200.0	0.0050	0.0264	Open
P7051	J56_33	J57_33	135.00	100.0	0.0050	0.0791	Open
P7052	J56_34	J56_35	135.00	300.0	0.0050	0.0739	Open
P7053	J56_34	J57_34	135.00	150.0	0.0050	0.0966	Open
P7054	J56_35	J56_36	135.00	300.0	0.0050	0.0185	Open
P7055	J56_35	J57_35	135.00	150.0	0.0050	0.1335	Open
P7056	J56_36	J56_37	135.00	150.0	0.0050	0.1399	Open
P7057	J56_36	J57_36	135.00	250.0	0.0050	0.1007	Open
P7058	J56_37	J56_38	135.00	250.0	0.0050	0.0722	Open
P7059	J56_37	J57_37	135.00	100.0	0.0050	0.1485	Open
P7060	J56_38	J56_39	135.00	200.0	0.0050	0.0050	Open
P7061	J56_38	J57_38	135.00	250.0	0.0050	0.0445	Open
P7062	J56_39	J56_40	135.00	250.0	0.0050	0.0462	Open
P7063	J56_39	J57_39	135.00	300.0	0.0050	0.1383	Open
P7064	J56_40	J56_41	135.00	200.0	0.0050	0.1435	Open
P7065	J56_40	J57_40	135.00	200.0	0.0050	0.0481	Open
P7066	J56_41	J56_42	135.00	400.0	0.0050	0.0425	Open
P7067	J56_41	J57_41	135.00	300.0	0.0050	0.0203	Open
P7068	J56_42	J56_43	135.00	250.0	0.0050	0.0485	Open
P7069	J56_42	J57_42	135.00	200.0	0.0050	0.0760	Open
P7070	J56_43	J56_44	135.00	100.0	0.0050	0.0043	Open
P7071	J56_43	J57_43	135.00	200.0	0.0050	0.1319	Open
P7072	J56_44	J56_45	135.00	300.0	0.0050	0.0850	Open
P7073	J56_44	J57_44	135.00	200.0	0.0050	0.0183	Open
P7074	J56_45	J56_46	135.00	200.0	0.0050	0.0702	Open
P7075	J56_45	J57_45	135.00	100.0	0.0050	0.0947	Open
P7076	J56_46	J56_47	135.00	300.0	0.0050	0.0417	Open
P7077	J56_46	J57_46	135.00	100.0	0.0050	0.0555	Open
P7078	J56_47	J56_48	135.00	250.0	0.0050	0.0140	Open
P7079	J56_47	J57_47	135.00	200.0	0.0050	0.0980	Open
P7080	J56_48	J56_49	135.00	100.0	0.0050	0.0398	Open
P7081	J56_48	J57_48	135.00	300.0	0.0050	0.0398	Open
P7082	J56_49	J56_50	135.00	150.0	0.0050	0.0803	Open
P7083	J56_49	J57_49	135.00	250.0	0.0050	0.1155	Open
P7084	J56_50	J56_51	135.00	100.0	0.0050	0.0131	Open
P7085	J56_50	J57_50	135.00	200.0	0.0050	0.0228	Open
P7086	J56_51	J56_52	135.00	300.0	0.0050	0.0231	Open
P7087	J56_51	J57_51	135.00	300.0	0.0050	0.0118	Open
P7088	J56_52	J56_53	135.00	150.0	0.0050	0.1081	Open
P7089	J56_52	J57_52	135.00	250.0	0.0050	0.0164	Open
P7090	J56_53	J56_54	135.00	200.0	0.0050	0.0045	Open
P7091	J56_53	J57_53	135.00	300.0	0.0050	0.0238	Open
P7092	J56_54	J56_55	135.00	300.0	0.0050	0.1354	Open
P7093	J56_54	J57_54	135.00	150.0	0.0050	0.0181	Open
P7094	J56_55	J56_56	135.00	300.0	0.0050	0.0694	Open
P7095	J56_55	J57_55	135.00	100.0	0.0050	0.0416	Open
P7096	J56_56	J56_57	135.00	300.0	0.0050	0.0530	Open
P7097	J56_56	J57_56	135.00	200.0	0.0050	0.1468	Open
P7098	J56_57	J56_58	135.00	200.0	0.0050	0.1251	Open
P7099	J56_57	J57_57	135.00	200.0	0.0050	0.0974	Open
P7100	J56_58	J56_59	135.00	150.0	0.0050	0.0989	Open
P7101	J56_58	J57_58	135.00	100.0	0.0050	0.1262	Open
P7102	J56_59	J56_60	135.00	300.0	0.0050	0.0871	Open
P7103	J56_59	J57_59	135.00	100.0	0.0050	0.1269	Open
P7104	J56_60	J56_61	135.00	100.0	0.0050	0.0295	Open
P7105	J56_60	J57_60	135.00	200.0	0.0050	0.0403	Open
P7106	J56_61	J56_62	135.00	350.0	0.0050	0.0097	Open
P7107	J56_61	J57_61	135.00	400.0	0.0050	0.0255	Open
P7108	J56_62	J56_63	135.00	300.0	0.0050	0.0912	Open
P7109	J56_62	J57_62	135.00	150.0	0.0050	0.1315	Open
P7110	J56_63	J56_64	135.00	100.0	0.0050	0.0322	Open
P7111	J56_63	J57_63	135.00	100.0	0.0050	0.0939	Open
P7112	J56_64	J57_64	135.00	250.0	0.0050	0.0688	Open
P7113	J57_1	J57_2	135.00	350.0	0.0050	0.0215	Open
P7114	J57_1	J58_1	135.00	450.0	0.0050	0.0416	Open
P7115	J57_2	J57_3	135.00	200.0	0.0050	0.0479	Open
P7116	J57_2	J58_2	135.00	200.0	0.0050	0.0216	Open
P7117	J57_3	J57_4	135.00	100.0	0.0050	0.0725	Open
P7118	J57_3	J58_3	135.00	300.0	0.0050	0.0391	Open
P7119	J57_4	J57_5	135.00	100.0	0.0050	0.1083	Open
P7120	J57_4	J58_4	135.00	100.0	0.0050	0.1408	Open
P7121	J57_5	J57_6	135.00	250.0	0.0050	0.1390	Open
P7122	J57_5	J58_5	135.00	200.0	0.0050	0.0936	Open
P7123	J57_6	J57_7	135.00	100.0	0.0050	0.1344	Open
P7124	J57_6	J58_6	135.00	200.0	0.0050	0.0976	Open
P7125	J57_7	J57_8	135.00	200.0	0.0050	0.1155	Open
P7126	J57_7	J58_7	135.00	150.0	0.0050	0.0439	Open
P7127	J57_8	J57_9	135.00	100.0	0.0050	0.1075	Open
P7128	J57_8	J58_8	135.00	150.0	0.0050	0.0948	Open
P7129	J57_9	J57_10	135.00	250.0	0.0050	0.0182	Open
P7130	J57_9	J58_9	135.00	100.0	0.0050	0.0266	Open
P7131	J57_10	J57_11	135.00	150.0	0.0050	0.0809	Open
P7132	J57_10	J58_10	135.00	150.0	0.0050	0.1463	Open
P7133	J57_11	J57_12	135.00	500.0	0.0050	0.0470	Open
P7134	J57_11	J58_11	135.00	300.0	0.0050	0.0413	Open
P7135	J57_12	J57_13	135.00	300.0	0.0050	0.0272	Open
P7136	J57_12	J58_12	135.00	200.0	0.0050	0.1205	Open
P7137	J57_13	J57_14	135.00	300.0	0.0050	0.0179	Open
P7138	J57_13	J58_13	135.00	150.0	0.0050	0.1035	Open
P7139	J57_14	J57_15	135.00	150.0	0.0050	0.0061	Open
P7140	J57_14	J58_14	135.00	300.0	0.0050	0.1372	Open
P7141	J57_15	J57_16	135.00	300.0	0.0050	0.0638	Open
P7142	J57_15	J58_15	135.00	250.0	0.0050	0.0530	Open
P7143	J57_16	J57_17	135.00	200.0	0.0050	0.0837	Open
P7144	J57_16	J58_16	135.00	150.0	0.0050	0.0216	Open
P7145	J57_17	J57_18	135.00	150.0	0.0050	0.1397	Open
P7146	J57_17	J58_17	135.00	100.0	0.0050	0.0981	Open
P7147	J57_18	J57_19	135.00	300.0	0.0050	0.0015	Open
P7148	J57_18	J58_18	135.00	200.0	0.0050	0.0417	Open
P7149	J57_19	J57_20	135.00	200.0	0.0050	0.0934	Open
P7150	J57_19	J58_19	135.00	100.0	0.0050	0.0185	Open
P7151	J57_20	J57_21	135.00	200.0	0.0050	0.0681	Open
P7152	J57_20	J58_20	135.00	250.0	0.0050	0.0368	Open
P7153	J57_21	J57_22	135.00	500.0	0.0050	0.0131	Open
P7154	J57_21	J58_21	135.00	350.0	0.0050	0.0114	Open
P7155	J57_22	J57_23	135.00	300.0	0.0050	0.1495	Open
P7156	J57_22	J58_22	135.00	200.0	0.0050	0.0592	Open
P7157	J57_23	J57_24	135.00	100.0	0.0050	0.0389	Open
P7158	J57_23	J58_23	135.00	250.0	0.0050	0.1243	Open
P7159	J57_24	J57_25	135.00	200.0	0.0050	0.0259	Open
P7160	J57_24	J58_24	135.00	150.0	0.0050	0.0444	Open
P7161	J57_25	J57_26	135.00	300.0	0.0050	0.1375	Open
P7162	J57_25	J58_25	135.00	150.0	0.0050	0.1303	Open
P7163	J57_26	J57_27	135.00	100.0	0.0050	0.0069	Open
P7164	J57_26	J58_26	135.00	250.0	0.0050	0.0068	Open
P7165	J57_27	J57_28	135.00	100.0	0.0050	0.0348	Open
P7166	J57_27	J58_27	135.00	150.0	0.0050	0.0468	Open
P7167	J57_28	J57_29	135.00	250.0	0.0050	0.0122	Open
P7168	J57_28	J58_28	135.00	250.0	0.0050	0.0419	Open
P7169	J57_29	J57_30	135.00	100.0	0.0050	0.1459	Open
P7170	J57_29	J58_29	135.00	150.0	0.0050	0.0206	Open
P7171	J57_30	J57_31	135.00	300.0	0.0050	0.0086	Open
P7172	J57_30	J58_30	135.00	100.0	0.0050	0.0050	Open
P7173	J57_31	J57_32	135.00	450.0	0.0050	0.0052	Open
P7174	J57_31	J58_31	135.00	300.0	0.0050	0.0289	Open
P7175	J57_32	J57_33	135.00	150.0	0.0050	0.1071	Open
P7176	J57_32	J58_32	135.00	250.0	0.0050	0.0063	Open
P7177	J57_33	J57_34	135.00	300.0	0.0050	0.1378	Open
P7178	J57_33	J58_33	135.00	200.0	0.0050	0.0873	Open
P7179	J57_34	J57_35	135.00	150.0	0.0050	0.0416	Open
P7180	J57_34	J58_34	135.00	100.0	0.0050	0.0068	Open
P7181	J57_35	J57_36	135.00	250.0	0.0050	0.0322	Open
P7182	J57_35	J58_35	135.00	300.0	0.0050	0.1390	Open
P7183	J57_36	J57_37	135.00	300.0	0.0050	0.0679	Open
P7184	J57_36	J58_36	135.00	200.0	0.0050	0.1152	Open
P7185	J57_37	J57_38	135.00	100.0	0.0050	0.0493	Open
P7186	J57_37	J58_37	135.00	200.0	0.0050	0.0726	Open
P7187	J57_38	J57_39	135.00	200.0	0.0050	0.0097	Open
P7188	J57_38	J58_38	135.00	250.0	0.0050	0.0017	Open
P7189	J57_39	J57_40	135.00	100.0	0.0050	0.0018	Open
P7190	J57_39	J58_39	135.00	300.0	0.0050	0.0099	Open
P7191	J57_40	J57_41	135.00	100.0	0.0050	0.0739	Open
P7192	J57_40	J58_40	135.00	150.0	0.0050	0.1269	Open
P7193	J57_41	J57_42	135.00	350.0	0.0050	0.0216	Open
P7194	J57_41	J58_41	135.00	600.0	0.0050	0.0284	Open
P7195	J57_42	J57_43	135.00	200.0	0.0050	0.1133	Open
P7196	J57_42	J58_42	135.00	200.0	0.0050	0.0025	Open
P7197	J57_43	J57_44	135.00	300.0	0.0050	0.1207	Open
P7198	J57_43	J58_43	135.00	200.0	0.0050	0.0488	Open
P7199	J57_44	J57_45	135.00	300.0	0.0050	0.0149	Open
P7200	J57_44	J58_44	135.00	200.0	0.0050	0.0226	Open
P7201	J57_45	J57_46	135.00	300.0	0.0050	0.0677	Open
P7202	J57_45	J58_45	135.00	300.0	0.0050	0.0568	Open
P7203	J57_46	J57_47	135.00	100.0	0.0050	0.0440	Open
P7204	J57_46	J58_46	135.00	150.0	0.0050	0.1113	Open
P7205	J57_47	J57_48	135.00	150.0	0.0050	0.0629	Open
P7206	J57_47	J58_47	135.00	200.0	0.0050	0.0835	Open
P7207	J57_48	J57_49	135.00	100.0	0.0050	0.0049	Open
P7208	J57_48	J58_48	135.00	100.0	0.0050	0.0128	Open
P7209	J57_49	J57_50	135.00	300.0	0.0050	0.0490	Open
P7210	J57_49	J58_49	135.00	150.0	0.0050	0.1086	Open
P7211	J57_50	J57_51	135.00	300.0	0.0050	0.0506	Open
P7212	J57_50	J58_50	135.00	150.0	0.0050	0.0278	Open
P7213	J57_51	J57_52	135.00	600.0	0.0050	0.0176	Open
P7214	J57_51	J58_51	135.00	300.0	0.0050	0.0302	Open
P7215	J57_52	J57_53	135.00	300.0	0.0050	0.0741	Open
P7216	J57_52	J58_52	135.00	150.0	0.0050	0.1322	Open
P7217	J57_53	J57_54	135.00	250.0	0.0050	0.0617	Open
P7218	J57_53	J58_53	135.00	150.0	0.0050	0.1386	Open
P7219	J57_54	J57_55	135.00	200.0	0.0050	0.1237	Open
P7220	J57_54	J58_54	135.00	150.0	0.0050	0.0462	Open
P7221	J57_55	J57_56	135.00	300.0	0.0050	0.1040	Open
P7222	J57_55	J58_55	135.00	200.0	0.0050	0.0469	Open
P7223	J57_56	J57_57	135.00	150.0	0.0050	0.0955	Open
P7224	J57_56	J58_56	135.00	250.0	0.0050	0.1028	Open
P7225	J57_57	J57_58	135.00	150.0	0.0050	0.1306	Open
P7226	J57_57	J58_57	135.00	150.0	0.0050	0.0426	Open
P7227	J57_58	J57_59	135.00	250.0	0.0050	0.0880	Open
P7228	J57_58	J58_58	135.00	300.0	0.0050	0.1248	Open
P7229	J57_59	J57_60	135.00	250.0	0.0050	0.0698	Open
P7230	J57_59	J58_59	135.00	300.0	0.0050	0.1081	Open
P7231	J57_60	J57_61	135.00	300.0	0.0050	0.1031	Open
P7232	J57_60	J58_60	135.00	150.0	0.0050	0.0320	Open
P7233	J57_61	J57_62	135.00	500.0	0.0050	0.0395	Open
P7234	J57_61	J58_61	135.00	600.0	0.0050	0.0364	Open
P7235	J57_62	J57_63	135.00	300.0	0.0050	0.0614	Open
P7236	J57_62	J58_62	135.00	200.0	0.0050	0.0804	Open
P7237	J57_63	J57_64	135.00	100.0	0.0050	0.1468	Open
P7238	J57_63	J58_63	135.00	200.0	0.0050	0.0608	Open
P7239	J57_64	J58_64	135.00	100.0	0.0050	0.1340	Open
P7240	J58_1	J58_2	135.00	500.0	0.0050	0.0431	Open
P7241	J58_1	J59_1	135.00	400.0	0.0050	0.0335	Open
P7242	J58_2	J58_3	135.00	300.0	0.0050	0.0056	Open
P7243	J58_2	J59_2	135.00	150.0	0.0050	0.0092	Open
P7244	J58_3	J58_4	135.00	200.0	0.0050	0.0151	Open
P7245	J58_3	J59_3	135.00	250.0	0.0050	0.1037	Open
P7246	J58_4	J58_5	135.00	150.0	0.0050	0.1110	Open
P7247	J58_4	J59_4	135.00	100.0	0.0050	0.0150	Open
P7248	J58_5	J58_6	135.00	150.0	0.0050	0.0513	Open
P7249	J58_5	J59_5	135.00	200.0	0.0050	0.0182	Open
P7250	J58_6	J58_7	135.00	100.0	0.0050	0.0046	Open
P7251	J58_6	J59_6	135.00	150.0	0.0050	0.0186	Open
P7252	J58_7	J58_8	135.00	250.0	0.0050	0.1154	Open
P7253	J58_7	J59_7	135.00	150.0	0.0050	0.0513	Open
P7254	J58_8	J58_9	135.00	250.0	0.0050	0.1415	Open
P7255	J58_8	J59_8	135.00	250.0	0.0050	0.0674	Open
P7256	J58_9	J58_10	135.00	150.0	0.0050	0.0345	Open
P7257	J58_9	J59_9	135.00	250.0	0.0050	0.1107	Open
P7258	J58_10	J58_11	135.00	200.0	0.0050	0.0010	Open
P7259	J58_10	J59_10	135.00	100.0	0.0050	0.0237	Open
P7260	J58_11	J58_12	135.00	400.0	0.0050	0.0108	Open
P7261	J58_11	J59_11	135.00	300.0	0.0050	0.0360	Open
P7262	J58_12	J58_13	135.00	250.0	0.0050	0.1116	Open
P7263	J58_12	J59_12	135.00	150.0	0.0050	0.0796	Open
P7264	J58_13	J58_14	135.00	100.0	0.0050	0.1340	Open
P7265	J58_13	J59_13	135.00	250.0	0.0050	0.0234	Open
P7266	J58_14	J58_15	135.00	200.0	0.0050	0.0624	Open
P7267	J58_14	J59_14	135.00	150.0	0.0050	0.1419	Open
P7268	J58_15	J58_16	135.00	250.0	0.0050	0.0985	Open
P7269	J58_15	J59_15	135.00	300.0	0.0050	0.1441	Open
P7270	J58_16	J58_17	135.00	150.0	0.0050	0.0372	Open
P7271	J58_16	J59_16	135.00	200.0	0.0050	0.0761	Open
P7272	J58_17	J58_18	135.00	150.0	0.0050	0.1147	Open
P7273	J58_17	J59_17	135.00	150.0	0.0050	0.0498	Open
P7274	J58_18	J58_19	135.00	300.0	0.0050	0.0550	Open
P7275	J58_18	J59_18	135.00	250.0	0.0050	0.0241	Open
P7276	J58_19	J58_20	135.00	200.0	0.0050	0.0709	Open
P7277	J58_19	J59_19	135.00	300.0	0.0050	0.1108	Open
P7278	J58_20	J58_21	135.00	250.0	0.0050	0.0050	Open
P7279	J58_20	J59_20	135.00	150.0	0.0050	0.1453	Open
P7280	J58_21	J58_22	135.00	450.0	0.0050	0.0487	Open
P7281	J58_21	J59_21	135.00	400.0	0.0050	0.0481	Open
P7282	J58_22	J58_23	135.00	250.0	0.0050	0.1150	Open
P7283	J58_22	J59_22	135.00	250.0	0.0050	0.0854	Open
P7284	J58_23	J58_24	135.00	200.0	0.0050	0.0841	Open
P7285	J58_23	J59_23	135.00	100.0	0.0050	0.0354	Open
P7286	J58_24	J58_25	135.00	150.0	0.0050	0.0875	Open
P7287	J58_24	J59_24	135.00	300.0	0.0050	0.1194	Open
P7288	J58_25	J58_26	135.00	250.0	0.0050	0.0795	Open
P7289	J58_25	J59_25	135.00	300.0	0.0050	0.0405	Open
P7290	J58_26	J58_27	135.00	200.0	0.0050	0.1212	Open
P7291	J58_26	J59_26	135.00	250.0	0.0050	0.0434	Open
P7292	J58_27	J58_28	135.00	200.0	0.0050	0.0320	Open
P7293	J58_27	J59_27	135.00	250.0	0.0050	0.0310	Open
P7294	J58_28	J58_29	135.00	150.0	0.0050	0.0429	Open
P7295	J58_28	J59_28	135.00	200.0	0.0050	0.0422	Open
P7296	J58_29	J58_30	135.00	100.0	0.0050	0.0474	Open
P7297	J58_29	J59_29	135.00	150.0	0.0050	0.1440	Open
P7298	J58_30	J58_31	135.00	300.0	0.0050	0.0479	Open
P7299	J58_30	J59_30	135.00	250.0	0.0050	0.1090	Open
P7300	J58_31	J58_32	135.00	350.0	0.0050	0.0239	Open
P7301	J58_31	J59_31	135.00	400.0	0.0050	0.0117	Open
P7302	J58_32	J58_33	135.00	250.0	0.0050	0.1344	Open
P7303	J58_32	J59_32	135.00	150.0	0.0050	0.0602	Open
P7304	J58_33	J58_34	135.00	300.0	0.0050	0.0383	Open
P7305	J58_33	J59_33	135.00	200.0	0.0050	0.0024	Open
P7306	J58_34	J58_35	135.00	150.0	0.0050	0.0900	Open
P7307	J58_34	J59_34	135.00	100.0	0.0050	0.1434	Open
P7308	J58_35	J58_36	135.00	150.0	0.0050	0.0699	Open
P7309	J58_35	J59_35	135.00	100.0	0.0050	0.1491	Open
P7310	J58_36	J58_37	135.00	100.0	0.0050	0.1374	Open
P7311	J58_36	J59_36	135.00	250.0	0.0050	0.0432	Open
P7312	J58_37	J58_38	135.00	250.0	0.0050	0.1463	Open
P7313	J58_37	J59_37	135.00	150.0	0.0050	0.1331	Open
P7314	J58_38	J58_39	135.00	150.0	0.0050	0.1484	Open
P7315	J58_38	J59_38	135.00	200.0	0.0050	0.1247	Open
P7316	J58_39	J58_40	135.00	200.0	0.0050	0.0744	Open
P7317	J58_39	J59_39	135.00	200.0	0.0050	0.0419	Open
P7318	J58_40	J58_41	135.00	200.0	0.0050	0.0796	Open
P7319	J58_40	J59_40	135.00	150.0	0.0050	0.1055	Open
P7320	J58_41	J58_42	135.00	400.0	0.0050	0.0158	Open
P7321	J58_41	J59_41	135.00	350.0	0.0050	0.0219	Open
P7322	J58_42	J58_43	135.00	150.0	0.0050	0.0179	Open
P7323	J58_42	J59_42	135.00	150.0	0.0050	0.0598	Open
P7324	J58_43	J58_44	135.00	300.0	0.0050	0.1461	Open
P7325	J58_43	J59_43	135.00	200.0	0.0050	0.0772	Open
P7326	J58_44	J58_45	135.00	200.0	0.0050	0.0921	Open
P7327	J58_44	J59_44	135.00	200.0	0.0050	0.0330	Open
P7328	J58_45	J58_46	135.00	250.0	0.0050	0.0512	Open
P7329	J58_45	J59_45	135.00	250.0	0.0050	0.0861	Open
P7330	J58_46	J58_47	135.00	150.0	0.0050	0.0806	Open
P7331	J58_46	J59_46	135.00	100.0	0.0050	0.0920	Open
P7332	J58_47	J58_48	135.00	250.0	0.0050	0.1038	Open
P7333	J58_47	J59_47	135.00	300.0	0.0050	0.1033	Open
P7334	J58_48	J58_49	135.00	200.0	0.0050	0.0046	Open
P7335	J58_48	J59_48	135.00	300.0	0.0050	0.0052	Open
P7336	J58_49	J58_50	135.00	250.0	0.0050	0.1440	Open
P7337	J58_49	J59_49	135.00	300.0	0.0050	0.0791	Open
P7338	J58_50	J58_51	135.00	200.0	0.0050	0.1194	Open
P7339	J58_50	J59_50	135.00	300.0	0.0050	0.0270	Open
P7340	J58_51	J58_52	135.00	400.0	0.0050	0.0045	Open
P7341	J58_51	J59_51	135.00	600.0	0.0050	0.0011	Open
P7342	J58_52	J58_53	135.00	100.0	0.0050	0.1391	Open
P7343	J58_52	J59_52	135.00	150.0	0.0050	0.0202	Open
P7344	J58_53	J58_54	135.00	100.0	0.0050	0.1124	Open
P7345	J58_53	J59_53	135.00	150.0	0.0050	0.0540	Open
P7346	J58_54	J58_55	135.00	300.0	0.0050	0.0397	Open
P7347	J58_54	J59_54	135.00	250.0	0.0050	0.0307	Open
P7348	J58_55	J58_56	135.00	300.0	0.0050	0.1262	Open
P7349	J58_55	J59_55	135.00	150.0	0.0050	0.1378	Open
P7350	J58_56	J58_57	135.00	250.0	0.0050	0.1081	Open
P7351	J58_56	J59_56	135.00	150.0	0.0050	0.0711	Open
P7352	J58_57	J58_58	135.00	150.0	0.0050	0.1438	Open
P7353	J58_57	J59_57	135.00	150.0	0.0050	0.1315	Open
P7354	J58_58	J58_59	135.00	150.0	0.0050	0.0611	Open
P7355	J58_58	J59_58	135.00	150.0	0.0050	0.0146	Open
P7356	J58_59	J58_60	135.00	100.0	0.0050	0.0796	Open
P7357	J58_59	J59_59	135.00	200.0	0.0050	0.0442	Open
P7358	J58_60	J58_61	135.00	100.0	0.0050	0.0004	Open
P7359	J58_60	J59_60	135.00	100.0	0.0050	0.1487	Open
P7360	J58_61	J58_62	135.00	450.0	0.0050	0.0364	Open
P7361	J58_61	J59_61	135.00	450.0	0.0050	0.0180	Open
P7362	J58_62	J58_63	135.00	300.0	0.0050	0.0546	Open
P7363	J58_62	J59_62	135.00	300.0	0.0050	0.0495	Open
P7364	J58_63	J58_64	135.00	300.0	0.0050	0.0560	Open
P7365	J58_63	J59_63	135.00	250.0	0.0050	0.1049	Open
P7366	J58_64	J59_64	135.00	200.0	0.0050	0.1007	Open
P7367	J59_1	J59_2	135.00	600.0	0.0050	0.0384	Open
P7368	J59_1	J60_1	135.00	500.0	0.0050	0.0077	Open
P7369	J59_2	J59_3	135.00	300.0	0.0050	0.0760	Open
P7370	J59_2	J60_2	135.00	250.0	0.0050	0.0427	Open
P7371	J59_3	J59_4	135.00	150.0	0.0050	0.1388	Open
P7372	J59_3	J60_3	135.00	200.0	0.0050	0.1358	Open
P7373	J59_4	J59_5	135.00	200.0	0.0050	0.1383	Open
P7374	J59_4	J60_4	135.00	150.0	0.0050	0.0859	Open
P7375	J59_5	J59_6	135.00	100.0	0.0050	0.0944	Open
P7376	J59_5	J60_5	135.00	250.0	0.0050	0.1186	Open
P7377	J59_6	J59_7	135.00	100.0	0.0050	0.1360	Open
P7378	J59_6	J60_6	135.00	250.0	0.0050	0.0197	Open
P7379	J59_7	J59_8	135.00	150.0	0.0050	0.1271	Open
P7380	J59_7	J60_7	135.00	300.0	0.0050	0.0709	Open
P7381	J59_8	J59_9	135.00	100.0	0.0050	0.0727	Open
P7382	J59_8	J60_8	135.00	300.0	0.0050	0.1335	Open
P7383	J59_9	J59_10	135.00	150.0	0.0050	0.0961	Open
P7384	J59_9	J60_9	135.00	200.0	0.0050	0.0588	Open
P7385	J59_10	J59_11	135.00	150.0	0.0050	0.1051	Open
P7386	J59_10	J60_10	135.00	150.0	0.0050	0.0608	Open
P7387	J59_11	J59_12	135.00	300.0	0.0050	0.0022	Open
P7388	J59_11	J60_11	135.00	500.0	0.0050	0.0457	Open
P7389	J59_12	J59_13	135.00	200.0	0.0050	0.0544	Open
P7390	J59_12	J60_12	135.00	100.0	0.0050	0.0258	Open
P7391	J59_13	J59_14	135.00	250.0	0.0050	0.1222	Open
P7392	J59_13	J60_13	135.00	250.0	0.0050	0.0656	Open
P7393	J59_14	J59_15	135.00	300.0	0.0050	0.0029	Open
P7394	J59_14	J60_14	135.00	100.0	0.0050	0.0002	Open
P7395	J59_15	J59_16	135.00	250.0	0.0050	0.0288	Open
P7396	J59_15	J60_15	135.00	200.0	0.0050	0.1255	Open
P7397	J59_16	J59_17	135.00	150.0	0.0050	0.1046	Open
P7398	J59_16	J60_16	135.00	200.0	0.0050	0.0290	Open
P7399	J59_17	J59_18	135.00	100.0	0.0050	0.1474	Open
P7400	J59_17	J60_17	135.00	250.0	0.0050	0.0113	Open
P7401	J59_18	J59_19	135.00	250.0	0.0050	0.0705	Open
P7402	J59_18	J60_18	135.00	150.0	0.0050	0.1237	Open
P7403	J59_19	J59_20	135.00	300.0	0.0050	0.0601	Open
P7404	J59_19	J60_19	135.00	250.0	0.0050	0.0427	Open
P7405	J59_20	J59_21	135.00	200.0	0.0050	0.0434	Open
P7406	J59_20	J60_20	135.00	250.0	0.0050	0.1357	Open
P7407	J59_21	J59_22	135.00	400.0	0.0050	0.0277	Open
P7408	J59_21	J60_21	135.00	300.0	0.0050	0.0223	Open
P7409	J59_22	J59_23	135.00	250.0	0.0050	0.0995	Open
P7410	J59_22	J60_22	135.00	100.0	0.0050	0.1227	Open
P7411	J59_23	J59_24	135.00	100.0	0.0050	0.0118	Open
P7412	J59_23	J60_23	135.00	150.0	0.0050	0.0940	Open
P7413	J59_24	J59_25	135.00	300.0	0.0050	0.1178	Open
P7414	J59_24	J60_24	135.00	100.0	0.0050	0.0200	Open
P7415	J59_25	J59_26	135.00	150.0	0.0050	0.0306	Open
P7416	J59_25	J60_25	135.00	150.0	0.0050	0.1355	Open
P7417	J59_26	J59_27	135.00	200.0	0.0050	0.0564	Open
P7418	J59_26	J60_26	135.00	250.0	0.0050	0.0141	Open
P7419	J59_27	J59_28	135.00	200.0	0.0050	0.1104	Open
P7420	J59_27	J60_27	135.00	200.0	0.0050	0.1123	Open
P7421	J59_28	J59_29	135.00	100.0	0.0050	0.0173	Open
P7422	J59_28	J60_28	135.00	150.0	0.0050	0.1359	Open
P7423	J59_29	J59_30	135.00	150.0	0.0050	0.0742	Open
P7424	J59_29	J60_29	135.00	100.0	0.0050	0.0026	Open
P7425	J59_30	J59_31	135.00	250.0	0.0050	0.0545	Open
P7426	J59_30	J60_30	135.00	100.0	0.0050	0.1150	Open
P7427	J59_31	J59_32	135.00	600.0	0.0050	0.0028	Open
P7428	J59_31	J60_31	135.00	400.0	0.0050	0.0436	Open
P7429	J59_32	J59_33	135.00	150.0	0.0050	0.0967	Open
P7430	J59_32	J60_32	135.00	100.0	0.0050	0.0458	Open
P7431	J59_33	J59_34	135.00	150.0	0.0050	0.0399	Open
P7432	J59_33	J60_33	135.00	200.0	0.0050	0.0929	Open
P7433	J59_34	J59_35	135.00	200.0	0.0050	0.1063	Open
P7434	J59_34	J60_34	135.00	250.0	0.0050	0.0290	Open
P7435	J59_35	J59_36	135.00	150.0	0.0050	0.1140	Open
P7436	J59_35	J60_35	135.00	150.0	0.0050	0.0674	Open
P7437	J59_36	J59_37	135.00	250.0	0.0050	0.1238	Open
P7438	J59_36	J60_36	135.00	250.0	0.0050	0.0432	Open
P7439	J59_37	J59_38	135.00	250.0	0.0050	0.0482	Open
P7440	J59_37	J60_37	135.00	100.0	0.0050	0.0961	Open
P7441	J59_38	J59_39	135.00	150.0	0.0050	0.1150	Open
P7442	J59_38	J60_38	135.00	100.0	0.0050	0.0683	Open
P7443	J59_39	J59_40	135.00	200.0	0.0050	0.0052	Open
P7444	J59_39	J60_39	135.00	300.0	0.0050	0.0292	Open
P7445	J59_40	J59_41	135.00	300.0	0.0050	0.0642	Open
P7446	J59_40	J60_40	135.00	200.0	0.0050	0.0330	Open
P7447	J59_41	J59_42	135.00	450.0	0.0050	0.0147	Open
P7448	J59_41	J60_41	135.00	300.0	0.0050	0.0230	Open
P7449	J59_42	J59_43	135.00	150.0	0.0050	0.0154	Open
P7450	J59_42	J60_42	135.00	200.0	0.0050	0.0161	Open
P7451	J59_43	J59_44	135.00	150.0	0.0050	0.0028	Open
P7452	J59_43	J60_43	135.00	150.0	0.0050	0.0888	Open
P7453	J59_44	J59_45	135.00	100.0	0.0050	0.0445	Open
P7454	J59_44	J60_44	135.00	100.0	0.0050	0.0597	Open
P7455	J59_45	J59_46	135.00	300.0	0.0050	0.0991	Open
P7456	J59_45	J60_45	135.00	300.0	0.0050	0.0390	Open
P7457	J59_46	J59_47	135.00	150.0	0.0050	0.1471	Open
P7458	J59_46	J60_46	135.00	100.0	0.0050	0.1020	Open
P7459	J59_47	J59_48	135.00	150.0	0.0050	0.1226	Open
P7460	J59_47	J60_47	135.00	100.0	0.0050	0.1366	Open
P7461	J59_48	J59_49	135.00	300.0	0.0050	0.1151	Open
P7462	J59_48	J60_48	135.00	200.0	0.0050	0.1055	Open
P7463	J59_49	J59_50	135.00	300.0	0.0050	0.1493	Open
P7464	J59_49	J60_49	135.00	100.0	0.0050	0.0604	Open
P7465	J59_50	J59_51	135.00	100.0	0.0050	0.0182	Open
P7466	J59_50	J60_50	135.00	100.0	0.0050	0.0635	Open
P7467	J59_51	J59_52	135.00	300.0	0.0050	0.0029	Open
P7468	J59_51	J60_51	135.00	400.0	0.0050	0.0453	Open
P7469	J59_52	J59_53	135.00	150.0	0.0050	0.0440	Open
P7470	J59_52	J60_52	135.00	300.0	0.0050	0.0230	Open
P7471	J59_53	J59_54	135.00	150.0	0.0050	0.0216	Open
P7472	J59_53	J60_53	135.00	250.0	0.0050	0.0670	Open
P7473	J59_54	J59_55	135.00	250.0	0.0050	0.0629	Open
P7474	J59_54	J60_54	135.00	200.0	0.0050	0.0010	Open
P7475	J59_55	J59_56	135.00	250.0	0.0050	0.1163	Open
P7476	J59_55	J60_55	135.00	300.0	0.0050	0.0245	Open
P7477	J59_56	J59_57	135.00	250.0	0.0050	0.0696	Open
P7478	J59_56	J60_56	135.00	150.0	0.0050	0.0690	Open
P7479	J59_57	J59_58	135.00	250.0	0.0050	0.0333	Open
P7480	J59_57	J60_57	135.00	250.0	0.0050	0.0362	Open
P7481	J59_58	J59_59	135.00	250.0	0.0050	0.0489	Open
P7482	J59_58	J60_58	135.00	300.0	0.0050	0.1153	Open
P7483	J59_59	J59_60	135.00	100.0	0.0050	0.1433	Open
P7484	J59_59	J60_59	135.00	300.0	0.0050	0.0498	Open
P7485	J59_60	J59_61	135.00	250.0	0.0050	0.0779	Open
P7486	J59_60	J60_60	135.00	300.0	0.0050	0.0925	Open
P7487	J59_61	J59_62	135.00	400.0	0.0050	0.0078	Open
P7488	J59_61	J60_61	135.00	300.0	0.0050	0.0127	Open
P7489	J59_62	J59_63	135.00	200.0	0.0050	0.0678	Open
P7490	J59_62	J60_62	135.00	100.0	0.0050	0.0436	Open
P7491	J59_63	J59_64	135.00	200.0	0.0050	0.0516	Open
P7492	J59_63	J60_63	135.00	100.0	0.0050	0.1369	Open
P7493	J59_64	J60_64	135.00	300.0	0.0050	0.1391	Open
P7494	J60_1	J60_2	135.00	450.0	0.0050	0.0218	Open
P7495	J60_1	J61_1	135.00	450.0	0.0050	0.0032	Open
P7496	J60_2	J60_3	135.00	100.0	0.0050	0.0593	Open
P7497	J60_2	J61_2	135.00	100.0	0.0050	0.0387	Open
P7498	J60_3	J60_4	135.00	150.0	0.0050	0.0596	Open
P7499	J60_3	J61_3	135.00	200.0	0.0050	0.0632	Open
P7500	J60_4	J60_5	135.00	200.0	0.0050	0.0035	Open
P7501	J60_4	J61_4	135.00	150.0	0.0050	0.0126	Open
P7502	J60_5	J60_6	135.00	150.0	0.0050	0.1458	Open
P7503	J60_5	J61_5	135.00	100.0	0.0050	0.0736	Open
P7504	J60_6	J60_7	135.00	300.0	0.0050	0.1044	Open
P7505	J60_6	J61_6	135.00	150.0	0.0050	0.0305	Open
P7506	J60_7	J60_8	135.00	200.0	0.0050	0.0432	Open
P7507	J60_7	J61_7	135.00	150.0	0.0050	0.1206	Open
P7508	J60_8	J60_9	135.00	150.0	0.0050	0.1000	Open
P7509	J60_8	J61_8	135.00	200.0	0.0050	0.0601	Open
P7510	J60_9	J60_10	135.00	200.0	0.0050	0.0460	Open
P7511	J60_9	J61_9	135.00	200.0	0.0050	0.1231	Open
P7512	J60_10	J60_11	135.00	200.0	0.0050	0.0152	Open
P7513	J60_10	J61_10	135.00	150.0	0.0050	0.0127	Open
P7514	J60_11	J60_12	135.00	600.0	0.0050	0.0005	Open
P7515	J60_11	J61_11	135.00	600.0	0.0050	0.0418	Open
P7516	J60_12	J60_13	135.00	200.0	0.0050	0.0822	Open
P7517	J60_12	J61_12	135.00	300.0	0.0050	0.0122	Open
P7518	J60_13	J60_14	135.00	100.0	0.0050	0.1298	Open
P7519	J60_13	J61_13	135.00	100.0	0.0050	0.1022	Open
P7520	J60_14	J60_15	135.00	150.0	0.0050	0.0904	Open
P7521	J60_14	J61_14	135.00	300.0	0.0050	0.0816	Open
P7522	J60_15	J60_16	135.00	150.0	0.0050	0.1055	Open
P7523	J60_15	J61_15	135.00	250.0	0.0050	0.0572	Open
P7524	J60_16	J60_17	135.00	250.0	0.0050	0.0671	Open
P7525	J60_16	J61_16	135.00	100.0	0.0050	0.0498	Open
P7526	J60_17	J60_18	135.00	150.0	0.0050	0.1012	Open
P7527	J60_17	J61_17	135.00	150.0	0.0050	0.0973	Open
P7528	J60_18	J60_19	135.00	300.0	0.0050	0.0719	Open
P7529	J60_18	J61_18	135.00	150.0	0.0050	0.1256	Open
P7530	J60_19	J60_20	135.00	150.0	0.0050	0.0761	Open
P7531	J60_19	J61_19	135.00	150.0	0.0050	0.0534	Open
P7532	J60_20	J60_21	135.00	300.0	0.0050	0.1341	Open
P7533	J60_20	J61_20	135.00	300.0	0.0050	0.0775	Open
P7534	J60_21	J60_22	135.00	400.0	0.0050	0.0144	Open
P7535	J60_21	J61_21	135.00	400.0	0.0050	0.0050	Open
P7536	J60_22	J60_23	135.00	250.0	0.0050	0.1068	Open
P7537	J60_22	J61_22	135.00	250.0	0.0050	0.1496	Open
P7538	J60_23	J60_24	135.00	150.0	0.0050	0.1167	Open
P7539	J60_23	J61_23	135.00	200.0	0.0050	0.0018	Open
P7540	J60_24	J60_25	135.00	200.0	0.0050	0.0261	Open
P7541	J60_24	J61_24	135.00	150.0	0.0050	0.0184	Open
P7542	J60_25	J60_26	135.00	250.0	0.0050	0.0327	Open
P7543	J60_25	J61_25	135.00	150.0	0.0050	0.0876	Open
P7544	J60_26	J60_27	135.00	200.0	0.0050	0.0671	Open
P7545	J60_26	J61_26	135.00	150.0	0.0050	0.0726	Open
P7546	J60_27	J60_28	135.00	250.0	0.0050	0.0474	Open
P7547	J60_27	J61_27	135.00	100.0	0.0050	0.0767	Open
P7548	J60_28	J60_29	135.00	150.0	0.0050	0.1114	Open
P7549	J60_28	J61_28	135.00	200.0	0.0050	0.0240	Open
P7550	J60_29	J60_30	135.00	100.0	0.0050	0.0365	Open
P7551	J60_29	J61_29	135.00	300.0	0.0050	0.0226	Open
P7552	J60_30	J60_31	135.00	150.0	0.0050	0.0494	Open
P7553	J60_30	J61_30	135.00	150.0	0.0050	0.0905	Open
P7554	J60_31	J60_32	135.00	300.0	0.0050	0.0413	Open
P7555	J60_31	J61_31	135.00	350.0	0.0050	0.0448	Open
P7556	J60_32	J60_33	135.00	150.0	0.0050	0.1421	Open
P7557	J60_32	J61_32	135.00	100.0	0.0050	0.0139	Open
P7558	J60_33	J60_34	135.00	300.0	0.0050	0.0858	Open
P7559	J60_33	J61_33	135.00	250.0	0.0050	0.0350	Open
P7560	J60_34	J60_35	135.00	250.0	0.0050	0.0145	Open
P7561	J60_34	J61_34	135.00	200.0	0.0050	0.0573	Open
P7562	J60_35	J60_36	135.00	300.0	0.0050	0.1422	Open
P7563	J60_35	J61_35	135.00	100.0	0.0050	0.0109	Open
P7564	J60_36	J60_37	135.00	200.0	0.0050	0.0373	Open
P7565	J60_36	J61_36	135.00	200.0	0.0050	0.1096	Open
P7566	J60_37	J60_38	135.00	300.0	0.0050	0.0585	Open
P7567	J60_37	J61_37	135.00	300.0	0.0050	0.0805	Open
P7568	J60_38	J60_39	135.00	100.0	0.0050	0.0187	Open
P7569	J60_38	J61_38	135.00	100.0	0.0050	0.0666	Open
P7570	J60_39	J60_40	135.00	250.0	0.0050	0.0361	Open
P7571	J60_39	J61_39	135.00	100.0	0.0050	0.1395	Open
P7572	J60_40	J60_41	135.00	100.0	0.0050	0.0302	Open
P7573	J60_40	J61_40	135.00	250.0	0.0050	0.1090	Open
P7574	J60_41	J60_42	135.00	600.0	0.0050	0.0297	Open
P7575	J60_41	J61_41	135.00	600.0	0.0050	0.0300	Open
P7576	J60_42	J60_43	135.00	250.0	0.0050	0.0786	Open
P7577	J60_42	J61_42	135.00	250.0	0.0050	0.0869	Open
P7578	J60_43	J60_44	135.00	250.0	0.0050	0.0225	Open
P7579	J60_43	J61_43	135.00	300.0	0.0050	0.0999	Open
P7580	J60_44	J60_45	135.00	250.0	0.0050	0.1205	Open
P7581	J60_44	J61_44	135.00	250.0	0.0050	0.1168	Open
P7582	J60_45	J60_46	135.00	200.0	0.0050	0.0934	Open
P7583	J60_45	J61_45	135.00	100.0	0.0050	0.1137	Open
P7584	J60_46	J60_47	135.00	100.0	0.0050	0.0635	Open
P7585	J60_46	J61_46	135.00	300.0	0.0050	0.0512	Open
P7586	J60_47	J60_48	135.00	100.0	0.0050	0.0762	Open
P7587	J60_47	J61_47	135.00	250.0	0.0050	0.1060	Open
P7588	J60_48	J60_49	135.00	300.0	0.0050	0.0667	Open
P7589	J60_48	J61_48	135.00	150.0	0.0050	0.0153	Open
P7590	J60_49	J60_50	135.00	100.0	0.0050	0.0169	Open
P7591	J60_49	J61_49	135.00	200.0	0.0050	0.0128	Open
P7592	J60_50	J60_51	135.00	300.0	0.0050	0.0866	Open
P7593	J60_50	J61_50	135.00	300.0	0.0050	0.0799	Open
P7594	J60_51	J60_52	135.00	350.0	0.0050	0.0470	Open
P7595	J60_51	J61_51	135.00	300.0	0.0050	0.0294	Open
P7596	J60_52	J60_53	135.00	200.0	0.0050	0.0944	Open
P7597	J60_52	J61_52	135.00	250.0	0.0050	0.1183	Open
P7598	J60_53	J60_54	135.00	200.0	0.0050	0.0365	Open
P7599	J60_53	J61_53	135.00	100.0	0.0050	0.1248	Open
P7600	J60_54	J60_55	135.00	300.0	0.0050	0.1151	Open
P7601	J60_54	J61_54	135.00	100.0	0.0050	0.0986	Open
P7602	J60_55	J60_56	135.00	250.0	0.0050	0.0100	Open
P7603	J60_55	J61_55	135.00	250.0	0.0050	0.1214	Open
P7604	J60_56	J60_57	135.00	200.0	0.0050	0.1080	Open
P7605	J60_56	J61_56	135.00	100.0	0.0050	0.0941	Open
P7606	J60_57	J60_58	135.00	200.0	0.0050	0.0527	Open
P7607	J60_57	J61_57	135.00	250.0	0.0050	0.0656	Open
P7608	J60_58	J60_59	135.00	150.0	0.0050	0.1260	Open
P7609	J60_58	J61_58	135.00	300.0	0.0050	0.0763	Open
P7610	J60_59	J60_60	135.00	200.0	0.0050	0.0870	Open
P7611	J60_59	J61_59	135.00	300.0	0.0050	0.1219	Open
P7612	J60_60	J60_61	135.00	100.0	0.0050	0.0076	Open
P7613	J60_60	J61_60	135.00	100.0	0.0050	0.0684	Open
P7614	J60_61	J60_62	135.00	350.0	0.0050	0.0437	Open
P7615	J60_61	J61_61	135.00	600.0	0.0050	0.0456	Open
P7616	J60_62	J60_63	135.00	100.0	0.0050	0.0302	Open
P7617	J60_62	J61_62	135.00	250.0	0.0050	0.0450	Open
P7618	J60_63	J60_64	135.00	200.0	0.0050	0.0542	Open
P7619	J60_63	J61_63	135.00	250.0	0.0050	0.0999	Open
P7620	J60_64	J61_64	135.00	150.0	0.0050	0.0799	Open
P7621	J61_1	J61_2	135.00	300.0	0.0050	0.0273	Open
P7622	J61_1	J62_1	135.00	300.0	0.0050	0.0373	Open
P7623	J61_2	J61_3	135.00	300.0	0.0050	0.0473	Open
P7624	J61_2	J62_2	135.00	300.0	0.0050	0.0250	Open
P7625	J61_3	J61_4	135.00	500.0	0.0050	0.0350	Open
P7626	J61_3	J62_3	135.00	600.0	0.0050	0.0369	Open
P7627	J61_4	J61_5	135.00	600.0	0.0050	0.0157	Open
P7628	J61_4	J62_4	135.00	400.0	0.0050	0.0187	Open
P7629	J61_5	J61_6	135.00	350.0	0.0050	0.0082	Open
P7630	J61_5	J62_5	135.00	450.0	0.0050	0.0241	Open
P7631	J61_6	J61_7	135.00	400.0	0.0050	0.0146	Open
P7632	J61_6	J62_6	135.00	300.0	0.0050	0.0235	Open
P7633	J61_7	J61_8	135.00	500.0	0.0050	0.0450	Open
P7634	J61_7	J62_7	135.00	450.0	0.0050	0.0292	Open
P7635	J61_8	J61_9	135.00	450.0	0.0050	0.0179	Open
P7636	J61_8	J62_8	135.00	450.0	0.0050	0.0272	Open
P7637	J61_9	J61_10	135.00	300.0	0.0050	0.0403	Open
P7638	J61_9	J62_9	135.00	450.0	0.0050	0.0073	Open
P7639	J61_10	J61_11	135.00	350.0	0.0050	0.0347	Open
P7640	J61_10	J62_10	135.00	350.0	0.0050	0.0424	Open
P7641	J61_11	J61_12	135.00	500.0	0.0050	0.0222	Open
P7642	J61_11	J62_11	135.00	350.0	0.0050	0.0203	Open
P7643	J61_12	J61_13	135.00	400.0	0.0050	0.0251	Open
P7644	J61_12	J62_12	135.00	350.0	0.0050	0.0214	Open
P7645	J61_13	J61_14	135.00	600.0	0.0050	0.0488	Open
P7646	J61_13	J62_13	135.00	500.0	0.0050	0.0493	Open
P7647	J61_14	J61_15	135.00	350.0	0.0050	0.0406	Open
P7648	J61_14	J62_14	135.00	300.0	0.0050	0.0187	Open
P7649	J61_15	J61_16	135.00	600.0	0.0050	0.0444	Open
P7650	J61_15	J62_15	135.00	500.0	0.0050	0.0455	Open
P7651	J61_16	J61_17	135.00	600.0	0.0050	0.0074	Open
P7652	J61_16	J62_16	135.00	300.0	0.0050	0.0443	Open
P7653	J61_17	J61_18	135.00	600.0	0.0050	0.0097	Open
P7654	J61_17	J62_17	135.00	350.0	0.0050	0.0260	Open
P7655	J61_18	J61_19	135.00	350.0	0.0050	0.0336	Open
P7656	J61_18	J62_18	135.00	450.0	0.0050	0.0042	Open
P7657	J61_19	J61_20	135.00	500.0	0.0050	0.0220	Open
P7658	J61_19	J62_19	135.00	300.0	0.0050	0.0095	Open
P7659	J61_20	J61_21	135.00	400.0	0.0050	0.0304	Open
P7660	J61_20	J62_20	135.00	600.0	0.0050	0.0099	Open
P7661	J61_21	J61_22	135.00	350.0	0.0050	0.0404	Open
P7662	J61_21	J62_21	135.00	450.0	0.0050	0.0206	Open
P7663	J61_22	J61_23	135.00	450.0	0.0050	0.0383	Open
P7664	J61_22	J62_22	135.00	450.0	0.0050	0.0195	Open
P7665	J61_23	J61_24	135.00	500.0	0.0050	0.0014	Open
P7666	J61_23	J62_23	135.00	500.0	0.0050	0.0223	Open
P7667	J61_24	J61_25	135.00	450.0	0.0050	0.0049	Open
P7668	J61_24	J62_24	135.00	500.0	0.0050	0.0426	Open
P7669	J61_25	J61_26	135.00	600.0	0.0050	0.0277	Open
P7670	J61_25	J62_25	135.00	300.0	0.0050	0.0296	Open
P7671	J61_26	J61_27	135.00	400.0	0.0050	0.0178	Open
P7672	J61_26	J62_26	135.00	600.0	0.0050	0.0337	Open
P7673	J61_27	J61_28	135.00	450.0	0.0050	0.0057	Open
P7674	J61_27	J62_27	135.00	400.0	0.0050	0.0493	Open
P7675	J61_28	J61_29	135.00	300.0	0.0050	0.0120	Open
P7676	J61_28	J62_28	135.00	600.0	0.0050	0.0457	Open
P7677	J61_29	J61_30	135.00	350.0	0.0050	0.0412	Open
P7678	J61_29	J62_29	135.00	400.0	0.0050	0.0445	Open
P7679	J61_30	J61_31	135.00	350.0	0.0050	0.0086	Open
P7680	J61_30	J62_30	135.00	300.0	0.0050	0.0485	Open
P7681	J61_31	J61_32	135.00	350.0	0.0050	0.0173	Open
P7682	J61_31	J62_31	135.00	450.0	0.0050	0.0458	Open
P7683	J61_32	J61_33	135.00	450.0	0.0050	0.0135	Open
P7684	J61_32	J62_32	135.00	400.0	0.0050	0.0033	Open
P7685	J61_33	J61_34	135.00	400.0	0.0050	0.0492	Open
P7686	J61_33	J62_33	135.00	400.0	0.0050	0.0079	Open
P7687	J61_34	J61_35	135.00	600.0	0.0050	0.0358	Open
P7688	J61_34	J62_34	135.00	600.0	0.0050	0.0057	Open
P7689	J61_35	J61_36	135.00	450.0	0.0050	0.0440	Open
P7690	J61_35	J62_35	135.00	600.0	0.0050	0.0155	Open
P7691	J61_36	J61_37	135.00	600.0	0.0050	0.0317	Open
P7692	J61_36	J62_36	135.00	400.0	0.0050	0.0460	Open
P7693	J61_37	J61_38	135.00	300.0	0.0050	0.0449	Open
P7694	J61_37	J62_37	135.00	600.0	0.0050	0.0405	Open
P7695	J61_38	J61_39	135.00	500.0	0.0050	0.0390	Open
P7696	J61_38	J62_38	135.00	500.0	0.0050	0.0150	Open
P7697	J61_39	J61_40	135.00	450.0	0.0050	0.0378	Open
P7698	J61_39	J62_39	135.00	350.0	0.0050	0.0425	Open
P7699	J61_40	J61_41	135.00	350.0	0.0050	0.0415	Open
P7700	J61_40	J62_40	135.00	500.0	0.0050	0.0372	Open
P7701	J61_41	J61_42	135.00	350.0	0.0050	0.0388	Open
P7702	J61_41	J62_41	135.00	500.0	0.0050	0.0402	Open
P7703	J61_42	J61_43	135.00	300.0	0.0050	0.0107	Open
P7704	J61_42	J62_42	135.00	400.0	0.0050	0.0275	Open
P7705	J61_43	J61_44	135.00	400.0	0.0050	0.0357	Open
P7706	J61_43	J62_43	135.00	600.0	0.0050	0.0369	Open
P7707	J61_44	J61_45	135.00	450.0	0.0050	0.0089	Open
P7708	J61_44	J62_44	135.00	400.0	0.0050	0.0300	Open
P7709	J61_45	J61_46	135.00	350.0	0.0050	0.0253	Open
P7710	J61_45	J62_45	135.00	400.0	0.0050	0.0450	Open
P7711	J61_46	J61_47	135.00	450.0	0.0050	0.0094	Open
P7712	J61_46	J62_46	135.00	400.0	0.0050	0.0001	Open
P7713	J61_47	J61_48	135.00	500.0	0.0050	0.0424	Open
P7714	J61_47	J62_47	135.00	500.0	0.0050	0.0468	Open
P7715	J61_48	J61_49	135.00	400.0	0.0050	0.0025	Open
P7716	J61_48	J62_48	135.00	300.0	0.0050	0.0219	Open
P7717	J61_49	J61_50	135.00	300.0	0.0050	0.0497	Open
P7718	J61_49	J62_49	135.00	450.0	0.0050	0.0036	Open
P7719	J61_50	J61_51	135.00	350.0	0.0050	0.0199	Open
P7720	J61_50	J62_50	135.00	600.0	0.0050	0.0449	Open
P7721	J61_51	J61_52	135.00	600.0	0.0050	0.0490	Open
P7722	J61_51	J62_51	135.00	450.0	0.0050	0.0242	Open
P7723	J61_52	J61_53	135.00	350.0	0.0050	0.0031	Open
P7724	J61_52	J62_52	135.00	500.0	0.0050	0.0004	Open
P7725	J61_53	J61_54	135.00	450.0	0.0050	0.0052	Open
P7726	J61_53	J62_53	135.00	450.0	0.0050	0.0312	Open
P7727	J61_54	J61_55	135.00	500.0	0.0050	0.0330	Open
P7728	J61_54	J62_54	135.00	350.0	0.0050	0.0362	Open
P7729	J61_55	J61_56	135.00	450.0	0.0050	0.0399	Open
P7730	J61_55	J62_55	135.00	300.0	0.0050	0.0073	Open
P7731	J61_56	J61_57	135.00	600.0	0.0050	0.0331	Open
P7732	J61_56	J62_56	135.00	400.0	0.0050	0.0343	Open
P7733	J61_57	J61_58	135.00	350.0	0.0050	0.0094	Open
P7734	J61_57	J62_57	135.00	350.0	0.0050	0.0497	Open
P7735	J61_58	J61_59	135.00	300.0	0.0050	0.0440	Open
P7736	J61_58	J62_58	135.00	500.0	0.0050	0.0155	Open
P7737	J61_59	J61_60	135.00	500.0	0.0050	0.0204	Open
P7738	J61_59	J62_59	135.00	400.0	0.0050	0.0147	Open
P7739	J61_60	J61_61	135.00	500.0	0.0050	0.0375	Open
P7740	J61_60	J62_60	135.00	400.0	0.0050	0.0259	Open
P7741	J61_61	J61_62	135.00	600.0	0.0050	0.0183	Open
P7742	J61_61	J62_61	135.00	350.0	0.0050	0.0386	Open
P7743	J61_62	J61_63	135.00	300.0	0.0050	0.0345	Open
P7744	J61_62	J62_62	135.00	600.0	0.0050	0.0207	Open
P7745	J61_63	J61_64	135.00	400.0	0.0050	0.0310	Open
P7746	J61_63	J62_63	135.00	500.0	0.0050	0.0285	Open
P7747	J61_64	J62_64	135.00	600.0	0.0050	0.0481	Open
P7748	J62_1	J62_2	135.00	400.0	0.0050	0.0145	Open
P7749	J62_1	J63_1	135.00	400.0	0.0050	0.0277	Open
P7750	J62_2	J62_3	135.00	100.0	0.0050	0.0430	Open
P7751	J62_2	J63_2	135.00	200.0	0.0050	0.1303	Open
P7752	J62_3	J62_4	135.00	100.0	0.0050	0.0421	Open
P7753	J62_3	J63_3	135.00	250.0	0.0050	0.0439	Open
P7754	J62_4	J62_5	135.00	150.0	0.0050	0.0699	Open
P7755	J62_4	J63_4	135.00	300.0	0.0050	0.0572	Open
P7756	J62_5	J62_6	135.00	100.0	0.0050	0.0469	Open
P7757	J62_5	J63_5	135.00	200.0	0.0050	0.0589	Open
P7758	J62_6	J62_7	135.00	100.0	0.0050	0.0803	Open
P7759	J62_6	J63_6	135.00	200.0	0.0050	0.0604	Open
P7760	J62_7	J62_8	135.00	100.0	0.0050	0.1031	Open
P7761	J62_7	J63_7	135.00	250.0	0.0050	0.0674	Open
P7762	J62_8	J62_9	135.00	150.0	0.0050	0.0701	Open
P7763	J62_8	J63_8	135.00	100.0	0.0050	0.0800	Open
P7764	J62_9	J62_10	135.00	150.0	0.0050	0.1143	Open
P7765	J62_9	J63_9	135.00	100.0	0.0050	0.1443	Open
P7766	J62_10	J62_11	135.00	300.0	0.0050	0.1379	Open
P7767	J62_10	J63_10	135.00	300.0	0.0050	0.0806	Open
P7768	J62_11	J62_12	135.00	300.0	0.0050	0.0064	Open
P7769	J62_11	J63_11	135.00	450.0	0.0050	0.0489	Open
P7770	J62_12	J62_13	135.00	250.0	0.0050	0.0707	Open
P7771	J62_12	J63_12	135.00	100.0	0.0050	0.1247	Open
P7772	J62_13	J62_14	135.00	250.0	0.0050	0.1048	Open
P7773	J62_13	J63_13	135.00	200.0	0.0050	0.1424	Open
P7774	J62_14	J62_15	135.00	100.0	0.0050	0.0604	Open
P7775	J62_14	J63_14	135.00	150.0	0.0050	0.0093	Open
P7776	J62_15	J62_16	135.00	200.0	0.0050	0.0711	Open
P7777	J62_15	J63_15	135.00	300.0	0.0050	0.0950	Open
P7778	J62_16	J62_17	135.00	100.0	0.0050	0.0271	Open
P7779	J62_16	J63_16	135.00	100.0	0.0050	0.0013	Open
P7780	J62_17	J62_18	135.00	250.0	0.0050	0.0627	Open
P7781	J62_17	J63_17	135.00	300.0	0.0050	0.0185	Open
P7782	J62_18	J62_19	135.00	100.0	0.0050	0.1245	Open
P7783	J62_18	J63_18	135.00	150.0	0.0050	0.0487	Open
P7784	J62_19	J62_20	135.00	250.0	0.0050	0.1005	Open
P7785	J62_19	J63_19	135.00	100.0	0.0050	0.0563	Open
P7786	J62_20	J62_21	135.00	100.0	0.0050	0.1297	Open
P7787	J62_20	J63_20	135.00	150.0	0.0050	0.0260	Open
P7788	J62_21	J62_22	135.00	600.0	0.0050	0.0223	Open
P7789	J62_21	J63_21	135.00	450.0	0.0050	0.0175	Open
P7790	J62_22	J62_23	135.00	250.0	0.0050	0.1125	Open
P7791	J62_22	J63_22	135.00	100.0	0.0050	0.1408	Open
P7792	J62_23	J62_24	135.00	200.0	0.0050	0.1128	Open
P7793	J62_23	J63_23	135.00	250.0	0.0050	0.0435	Open
P7794	J62_24	J62_25	135.00	300.0	0.0050	0.1425	Open
P7795	J62_24	J63_24	135.00	150.0	0.0050	0.1123	Open
P7796	J62_25	J62_26	135.00	100.0	0.0050	0.0338	Open
P7797	J62_25	J63_25	135.00	300.0	0.0050	0.0582	Open
P7798	J62_26	J62_27	135.00	300.0	0.0050	0.1350	Open
P7799	J62_26	J63_26	135.00	150.0	0.0050	0.0231	Open
P7800	J62_27	J62_28	135.00	250.0	0.0050	0.1380	Open
P7801	J62_27	J63_27	135.00	100.0	0.0050	0.1382	Open
P7802	J62_28	J62_29	135.00	150.0	0.0050	0.1167	Open
P7803	J62_28	J63_28	135.00	100.0	0.0050	0.0239	Open
P7804	J62_29	J62_30	135.00	200.0	0.0050	0.0952	Open
P7805	J62_29	J63_29	135.00	100.0	0.0050	0.0626	Open
P7806	J62_30	J62_31	135.00	150.0	0.0050	0.0875	Open
P7807	J62_30	J63_30	135.00	150.0	0.0050	0.0726	Open
P7808	J62_31	J62_32	135.00	300.0	0.0050	0.0399	Open
P7809	J62_31	J63_31	135.00	300.0	0.0050	0.0357	Open
P7810	J62_32	J62_33	135.00	150.0	0.0050	0.0622	Open
P7811	J62_32	J63_32	135.00	100.0	0.0050	0.0431	Open
P7812	J62_33	J62_34	135.00	300.0	0.0050	0.0379	Open
P7813	J62_33	J63_33	135.00	100.0	0.0050	0.0899	Open
P7814	J62_34	J62_35	135.00	100.0	0.0050	0.0415	Open
P7815	J62_34	J63_34	135.00	300.0	0.0050	0.0786	Open
P7816	J62_35	J62_36	135.00	200.0	0.0050	0.0627	Open
P7817	J62_35	J63_35	135.00	100.0	0.0050	0.0740	Open
P7818	J62_36	J62_37	135.00	300.0	0.0050	0.0453	Open
P7819	J62_36	J63_36	135.00	200.0	0.0050	0.0929	Open
P7820	J62_37	J62_38	135.00	200.0	0.0050	0.0300	Open
P7821	J62_37	J63_37	135.00	250.0	0.0050	0.0020	Open
P7822	J62_38	J62_39	135.00	200.0	0.0050	0.0390	Open
P7823	J62_38	J63_38	135.00	200.0	0.0050	0.0115	Open
P7824	J62_39	J62_40	135.00	200.0	0.0050	0.0866	Open
P7825	J62_39	J63_39	135.00	100.0	0.0050	0.0666	Open
P7826	J62_40	J62_41	135.00	300.0	0.0050	0.0573	Open
P7827	J62_40	J63_40	135.00	150.0	0.0050	0.0208	Open
P7828	J62_41	J62_42	135.00	450.0	0.0050	0.0031	Open
P7829	J62_41	J63_41	135.00	400.0	0.0050	0.0023	Open
P7830	J62_42	J62_43	135.00	300.0	0.0050	0.0705	Open
P7831	J62_42	J63_42	135.00	250.0	0.0050	0.0640	Open
P7832	J62_43	J62_44	135.00	250.0	0.0050	0.0924	Open
P7833	J62_43	J63_43	135.00	100.0	0.0050	0.0757	Open
P7834	J62_44	J62_45	135.00	200.0	0.0050	0.0636	Open
P7835	J62_44	J63_44	135.00	100.0	0.0050	0.1410	Open
P7836	J62_45	J62_46	135.00	200.0	0.0050	0.0705	Open
P7837	J62_45	J63_45	135.00	300.0	0.0050	0.1106	Open
P7838	J62_46	J62_47	135.00	250.0	0.0050	0.0331	Open
P7839	J62_46	J63_46	135.00	100.0	0.0050	0.0945	Open
P7840	J62_47	J62_48	135.00	150.0	0.0050	0.0559	Open
P7841	J62_47	J63_47	135.00	200.0	0.0050	0.0298	Open
P7842	J62_48	J62_49	135.00	300.0	0.0050	0.1133	Open
P7843	J62_48	J63_48	135.00	150.0	0.0050	0.0184	Open
P7844	J62_49	J62_50	135.00	100.0	0.0050	0.0922	Open
P7845	J62_49	J63_49	135.00	100.0	0.0050	0.0742	Open
P7846	J62_50	J62_51	135.00	200.0	0.0050	0.1226	Open
P7847	J62_50	J63_50	135.00	250.0	0.0050	0.0649	Open
P7848	J62_51	J62_52	135.00	300.0	0.0050	0.0032	Open
P7849	J62_51	J63_51	135.00	350.0	0.0050	0.0455	Open
P7850	J62_52	J62_53	135.00	300.0	0.0050	0.0817	Open
P7851	J62_52	J63_52	135.00	250.0	0.0050	0.0435	Open
P7852	J62_53	J62_54	135.00	300.0	0.0050	0.0484	Open
P7853	J62_53	J63_53	135.00	150.0	0.0050	0.0226	Open
P7854	J62_54	J62_55	135.00	300.0	0.0050	0.1367	Open
P7855	J62_54	J63_54	135.00	300.0	0.0050	0.1353	Open
P7856	J62_55	J62_56	135.00	150.0	0.0050	0.0450	Open
P7857	J62_55	J63_55	135.00	200.0	0.0050	0.0444	Open
P7858	J62_56	J62_57	135.00	100.0	0.0050	0.0201	Open
P7859	J62_56	J63_56	135.00	250.0	0.0050	0.0887	Open
P7860	J62_57	J62_58	135.00	200.0	0.0050	0.1486	Open
P7861	J62_57	J63_57	135.00	300.0	0.0050	0.0363	Open
P7862	J62_58	J62_59	135.00	250.0	0.0050	0.0104	Open
P7863	J62_58	J63_58	135.00	150.0	0.0050	0.0387	Open
P7864	J62_59	J62_60	135.00	300.0	0.0050	0.1191	Open
P7865	J62_59	J63_59	135.00	100.0	0.0050	0.0660	Open
P7866	J62_60	J62_61	135.00	200.0	0.0050	0.0107	Open
P7867	J62_60	J63_60	135.00	150.0	0.0050	0.0439	Open
P7868	J62_61	J62_62	135.00	300.0	0.0050	0.0319	Open
P7869	J62_61	J63_61	135.00	600.0	0.0050	0.0182	Open
P7870	J62_62	J62_63	135.00	150.0	0.0050	0.0530	Open
P7871	J62_62	J63_62	135.00	150.0	0.0050	0.0985	Open
P7872	J62_63	J62_64	135.00	300.0	0.0050	0.0789	Open
P7873	J62_63	J63_63	135.00	300.0	0.0050	0.0214	Open
P7874	J62_64	J63_64	135.00	200.0	0.0050	0.0655	Open
P7875	J63_1	J63_2	135.00	400.0	0.0050	0.0398	Open
P7876	J63_1	J64_1	135.00	500.0	0.0050	0.0007	Open
P7877	J63_2	J63_3	135.00	100.0	0.0050	0.0595	Open
P7878	J63_2	J64_2	135.00	100.0	0.0050	0.1458	Open
P7879	J63_3	J63_4	135.00	250.0	0.0050	0.0903	Open
P7880	J63_3	J64_3	135.00	250.0	0.0050	0.0998	Open
P7881	J63_4	J63_5	135.00	250.0	0.0050	0.0195	Open
P7882	J63_4	J64_4	135.00	100.0	0.0050	0.0239	Open
P7883	J63_5	J63_6	135.00	300.0	0.0050	0.0130	Open
P7884	J63_5	J64_5	135.00	150.0	0.0050	0.1163	Open
P7885	J63_6	J63_7	135.00	300.0	0.0050	0.1424	Open
P7886	J63_6	J64_6	135.00	250.0	0.0050	0.1125	Open
P7887	J63_7	J63_8	135.00	250.0	0.0050	0.0862	Open
P7888	J63_7	J64_7	135.00	150.0	0.0050	0.0929	Open
P7889	J63_8	J63_9	135.00	150.0	0.0050	0.0698	Open
P7890	J63_8	J64_8	135.00	150.0	0.0050	0.0907	Open
P7891	J63_9	J63_10	135.00	300.0	0.0050	0.0826	Open
P7892	J63_9	J64_9	135.00	200.0	0.0050	0.0585	Open
P7893	J63_10	J63_11	135.00	100.0	0.0050	0.1089	Open
P7894	J63_10	J64_10	135.00	100.0	0.0050	0.0098	Open
P7895	J63_11	J63_12	135.00	350.0	0.0050	0.0027	Open
P7896	J63_11	J64_11	135.00	300.0	0.0050	0.0334	Open
P7897	J63_12	J63_13	135.00	300.0	0.0050	0.0375	Open
P7898	J63_12	J64_12	135.00	200.0	0.0050	0.1180	Open
P7899	J63_13	J63_14	135.00	100.0	0.0050	0.0584	Open
P7900	J63_13	J64_13	135.00	100.0	0.0050	0.0479	Open
P7901	J63_14	J63_15	135.00	100.0	0.0050	0.0683	Open
P7902	J63_14	J64_14	135.00	200.0	0.0050	0.0797	Open
P7903	J63_15	J63_16	135.00	100.0	0.0050	0.1219	Open
P7904	J63_15	J64_15	135.00	250.0	0.0050	0.1472	Open
P7905	J63_16	J63_17	135.00	150.0	0.0050	0.0774	Open
P7906	J63_16	J64_16	135.00	300.0	0.0050	0.0313	Open
P7907	J63_17	J63_18	135.00	150.0	0.0050	0.0880	Open
P7908	J63_17	J64_17	135.00	300.0	0.0050	0.1477	Open
P7909	J63_18	J63_19	135.00	200.0	0.0050	0.0052	Open
P7910	J63_18	J64_18	135.00	100.0	0.0050	0.0311	Open
P7911	J63_19	J63_20	135.00	150.0	0.0050	0.0495	Open
P7912	J63_19	J64_19	135.00	300.0	0.0050	0.1022	Open
P7913	J63_20	J63_21	135.00	300.0	0.0050	0.1090	Open
P7914	J63_20	J64_20	135.00	150.0	0.0050	0.0452	Open
P7915	J63_21	J63_22	135.00	400.0	0.0050	0.0115	Open
P7916	J63_21	J64_21	135.00	600.0	0.0050	0.0431	Open
P7917	J63_22	J63_23	135.00	100.0	0.0050	0.0750	Open
P7918	J63_22	J64_22	135.00	150.0	0.0050	0.1007	Open
P7919	J63_23	J63_24	135.00	150.0	0.0050	0.1361	Open
P7920	J63_23	J64_23	135.00	300.0	0.0050	0.0383	Open
P7921	J63_24	J63_25	135.00	100.0	0.0050	0.1168	Open
P7922	J63_24	J64_24	135.00	300.0	0.0050	0.0709	Open
P7923	J63_25	J63_26	135.00	150.0	0.0050	0.1139	Open
P7924	J63_25	J64_25	135.00	200.0	0.0050	0.0694	Open
P7925	J63_26	J63_27	135.00	250.0	0.0050	0.0346	Open
P7926	J63_26	J64_26	135.00	250.0	0.0050	0.0663	Open
P7927	J63_27	J63_28	135.00	150.0	0.0050	0.0212	Open
P7928	J63_27	J64_27	135.00	300.0	0.0050	0.0419	Open
P7929	J63_28	J63_29	135.00	300.0	0.0050	0.1267	Open
P7930	J63_28	J64_28	135.00	250.0	0.0050	0.0583	Open
P7931	J63_29	J63_30	135.00	150.0	0.0050	0.0942	Open
P7932	J63_29	J64_29	135.00	150.0	0.0050	0.0010	Open
P7933	J63_30	J63_31	135.00	200.0	0.0050	0.0441	Open
P7934	J63_30	J64_30	135.00	150.0	0.0050	0.1156	Open
P7935	J63_31	J63_32	135.00	600.0	0.0050	0.0236	Open
P7936	J63_31	J64_31	135.00	450.0	0.0050	0.0175	Open
P7937	J63_32	J63_33	135.00	250.0	0.0050	0.1467	Open
P7938	J63_32	J64_32	135.00	200.0	0.0050	0.0057	Open
P7939	J63_33	J63_34	135.00	200.0	0.0050	0.0762	Open
P7940	J63_33	J64_33	135.00	100.0	0.0050	0.0740	Open
P7941	J63_34	J63_35	135.00	300.0	0.0050	0.1341	Open
P7942	J63_34	J64_34	135.00	100.0	0.0050	0.0785	Open
P7943	J63_35	J63_36	135.00	300.0	0.0050	0.0953	Open
P7944	J63_35	J64_35	135.00	150.0	0.0050	0.1314	Open
P7945	J63_36	J63_37	135.00	300.0	0.0050	0.0315	Open
P7946	J63_36	J64_36	135.00	100.0	0.0050	0.0961	Open
P7947	J63_37	J63_38	135.00	150.0	0.0050	0.1354	Open
P7948	J63_37	J64_37	135.00	250.0	0.0050	0.0544	Open
P7949	J63_38	J63_39	135.00	100.0	0.0050	0.0407	Open
P7950	J63_38	J64_38	135.00	250.0	0.0050	0.0564	Open
P7951	J63_39	J63_40	135.00	200.0	0.0050	0.0462	Open
P7952	J63_39	J64_39	135.00	200.0	0.0050	0.0523	Open
P7953	J63_40	J63_41	135.00	200.0	0.0050	0.1253	Open
P7954	J63_40	J64_40	135.00	100.0	0.0050	0.1454	Open
P7955	J63_41	J63_42	135.00	400.0	0.0050	0.0213	Open
P7956	J63_41	J64_41	135.00	600.0	0.0050	0.0373	Open
P7957	J63_42	J63_43	135.00	300.0	0.0050	0.1153	Open
P7958	J63_42	J64_42	135.00	150.0	0.0050	0.1082	Open
P7959	J63_43	J63_44	135.00	300.0	0.0050	0.0803	Open
P7960	J63_43	J64_43	135.00	100.0	0.0050	0.1126	Open
P7961	J63_44	J63_45	135.00	100.0	0.0050	0.0023	Open
P7962	J63_44	J64_44	135.00	200.0	0.0050	0.0779	Open
P7963	J63_45	J63_46	135.00	200.0	0.0050	0.1345	Open
P7964	J63_45	J64_45	135.00	150.0	0.0050	0.0013	Open
P7965	J63_46	J63_47	135.00	300.0	0.0050	0.1221	Open
P7966	J63_46	J64_46	135.00	100.0	0.0050	0.0910	Open
P7967	J63_47	J63_48	135.00	150.0	0.0050	0.0536	Open
P7968	J63_47	J64_47	135.00	100.0	0.0050	0.0167	Open
P7969	J63_48	J63_49	135.00	150.0	0.0050	0.1083	Open
P7970	J63_48	J64_48	135.00	100.0	0.0050	0.1145	Open
P7971	J63_49	J63_50	135.00	200.0	0.0050	0.0449	Open
P7972	J63_49	J64_49	135.00	100.0	0.0050	0.0606	Open
P7973	J63_50	J63_51	135.00	200.0	0.0050	0.0011	Open
P7974	J63_50	J64_50	135.00	300.0	0.0050	0.1160	Open
P7975	J63_51	J63_52	135.00	400.0	0.0050	0.0492	Open
P7976	J63_51	J64_51	135.00	350.0	0.0050	0.0335	Open
P7977	J63_52	J63_53	135.00	300.0	0.0050	0.0347	Open
P7978	J63_52	J64_52	135.00	200.0	0.0050	0.1427	Open
P7979	J63_53	J63_54	135.00	150.0	0.0050	0.0087	Open
P7980	J63_53	J64_53	135.00	300.0	0.0050	0.0595	Open
P7981	J63_54	J63_55	135.00	200.0	0.0050	0.0147	Open
P7982	J63_54	J64_54	135.00	300.0	0.0050	0.0821	Open
P7983	J63_55	J63_56	135.00	200.0	0.0050	0.0113	Open
P7984	J63_55	J64_55	135.00	150.0	0.0050	0.1242	Open
P7985	J63_56	J63_57	135.00	100.0	0.0050	0.1066	Open
P7986	J63_56	J64_56	135.00	200.0	0.0050	0.1481	Open
P7987	J63_57	J63_58	135.00	250.0	0.0050	0.0098	Open
P7988	J63_57	J64_57	135.00	300.0	0.0050	0.1117	Open
P7989	J63_58	J63_59	135.00	200.0	0.0050	0.0430	Open
P7990	J63_58	J64_58	135.00	100.0	0.0050	0.1213	Open
P7991	J63_59	J63_60	135.00	100.0	0.0050	0.1225	Open
P7992	J63_59	J64_59	135.00	300.0	0.0050	0.1158	Open
P7993	J63_60	J63_61	135.00	150.0	0.0050	0.1482	Open
P7994	J63_60	J64_60	135.00	200.0	0.0050	0.0958	Open
P7995	J63_61	J63_62	135.00	600.0	0.0050	0.0205	Open
P7996	J63_61	J64_61	135.00	450.0	0.0050	0.0446	Open
P7997	J63_62	J63_63	135.00	250.0	0.0050	0.1488	Open
P7998	J63_62	J64_62	135.00	150.0	0.0050	0.0483	Open
P7999	J63_63	J63_64	135.00	100.0	0.0050	0.0132	Open
P8000	J63_63	J64_63	135.00	250.0	0.0050	0.0999	Open
P8001	J63_64	J64_64	135.00	300.0	0.0050	0.0635	Open
P8002	J64_1	J64_2	135.00	450.0	0.0050	0.0193	Open
P8003	J64_2	J64_3	135.00	100.0	0.0050	0.1327	Open
P8004	J64_3	J64_4	135.00	300.0	0.0050	0.0432	Open
P8005	J64_4	J64_5	135.00	300.0	0.0050	0.0558	Open
P8006	J64_5	J64_6	135.00	250.0	0.0050	0.0876	Open
P8007	J64_6	J64_7	135.00	200.0	0.0050	0.1256	Open
P8008	J64_7	J64_8	135.00	200.0	0.0050	0.0414	Open
P8009	J64_8	J64_9	135.00	300.0	0.0050	0.0032	Open
P8010	J64_9	J64_10	135.00	150.0	0.0050	0.1362	Open
P8011	J64_10	J64_11	135.00	150.0	0.0050	0.0726	Open
P8012	J64_11	J64_12	135.00	400.0	0.0050	0.0297	Open
P8013	J64_12	J64_13	135.00	150.0	0.0050	0.0027	Open
P8014	J64_13	J64_14	135.00	200.0	0.0050	0.0181	Open
P8015	J64_14	J64_15	135.00	300.0	0.0050	0.1180	Open
P8016	J64_15	J64_16	135.00	200.0	0.0050	0.1239	Open
P8017	J64_16	J64_17	135.00	300.0	0.0050	0.0518	Open
P8018	J64_17	J64_18	135.00	300.0	0.0050	0.0074	Open
P8019	J64_18	J64_19	135.00	300.0	0.0050	0.1224	Open
P8020	J64_19	J64_20	135.00	300.0	0.0050	0.0140	Open
P8021	J64_20	J64_21	135.00	250.0	0.0050	0.0072	Open
P8022	J64_21	J64_22	135.00	500.0	0.0050	0.0174	Open
P8023	J64_22	J64_23	135.00	100.0	0.0050	0.0018	Open
P8024	J64_23	J64_24	135.00	150.0	0.0050	0.0181	Open
P8025	J64_24	J64_25	135.00	150.0	0.0050	0.0566	Open
P8026	J64_25	J64_26	135.00	150.0	0.0050	0.0177	Open
P8027	J64_26	J64_27	135.00	300.0	0.0050	0.1340	Open
P8028	J64_27	J64_28	135.00	150.0	0.0050	0.0046	Open
P8029	J64_28	J64_29	135.00	300.0	0.0050	0.0159	Open
P8030	J64_29	J64_30	135.00	200.0	0.0050	0.0403	Open
P8031	J64_30	J64_31	135.00	150.0	0.0050	0.0508	Open
P8032	J64_31	J64_32	135.00	350.0	0.0050	0.0461	Open
P8033	J64_32	J64_33	135.00	100.0	0.0050	0.1450	Open
P8034	J64_33	J64_34	135.00	200.0	0.0050	0.0901	Open
P8035	J64_34	J64_35	135.00	200.0	0.0050	0.1011	Open
P8036	J64_35	J64_36	135.00	300.0	0.0050	0.0534	Open
P8037	J64_36	J64_37	135.00	150.0	0.0050	0.0334	Open
P8038	J64_37	J64_38	135.00	250.0	0.0050	0.1079	Open
P8039	J64_38	J64_39	135.00	300.0	0.0050	0.0624	Open
P8040	J64_39	J64_40	135.00	300.0	0.0050	0.0241	Open
P8041	J64_40	J64_41	135.00	200.0	0.0050	0.0939	Open
P8042	J64_41	J64_42	135.00	350.0	0.0050	0.0146	Open
P8043	J64_42	J64_43	135.00	250.0	0.0050	0.0417	Open
P8044	J64_43	J64_44	135.00	250.0	0.0050	0.0510	Open
P8045	J64_44	J64_45	135.00	300.0	0.0050	0.0912	Open
P8046	J64_45	J64_46	135.00	250.0	0.0050	0.0161	Open
P8047	J64_46	J64_47	135.00	200.0	0.0050	0.0181	Open
P8048	J64_47	J64_48	135.00	200.0	0.0050	0.1184	Open
P8049	J64_48	J64_49	135.00	150.0	0.0050	0.1447	Open
P8050	J64_49	J64_50	135.00	250.0	0.0050	0.1048	Open
P8051	J64_50	J64_51	135.00	150.0	0.0050	0.0180	Open
P8052	J64_51	J64_52	135.00	350.0	0.0050	0.0330	Open
P8053	J64_52	J64_53	135.00	100.0	0.0050	0.1399	Open
P8054	J64_53	J64_54	135.00	300.0	0.0050	0.1217	Open
P8055	J64_54	J64_55	135.00	200.0	0.0050	0.0892	Open
P8056	J64_55	J64_56	135.00	150.0	0.0050	0.1042	Open
P8057	J64_56	J64_57	135.00	200.0	0.0050	0.0832	Open
P8058	J64_57	J64_58	135.00	250.0	0.0050	0.0402	Open
P8059	J64_58	J64_59	135.00	200.0	0.0050	0.0357	Open
P8060	J64_59	J64_60	135.00	300.0	0.0050	0.0006	Open
P8061	J64_60	J64_61	135.00	200.0	0.0050	0.0389	Open
P8062	J64_61	J64_62	135.00	450.0	0.0050	0.0265	Open
P8063	J64_62	J64_63	135.00	300.0	0.0050	0.0255	Open
P8064	J64_63	J64_64	135.00	100.0	0.0050	0.0893	Open
P8065	T1	J42_7	162.00	500.0	0.0050	0.0200	Open
P8066	T2	J33_17	162.00	500.0	0.0050	0.0200	Open
P8067	T3	J33_27	162.00	500.0	0.0050	0.0200	Open
P8068	T4	J33_38	162.00	500.0	0.0050	0.0200	Open
P8069	T5	J33_49	162.00	500.0	0.0050	0.0200	Open
P8070	T6	J23_58	162.00	500.0	0.0050	0.0200	Open

P8071	R1	J33_1	1200.00	300.0	0.0050	0.0000	Open

[PUMPS]
;ID	Node1	Node2	Parameters
PU1	R1	T1	HEAD	H_PUMP_MAIN


[VALVES]
;ID	Node1	Node2	Diameter	Type	Setting	MinorLoss

[PATTERNS]
;ID	Multipliers
P_RES	0.550	0.480	0.430	0.410	0.450	0.620	0.840	1.050	1.020	0.940	0.900	0.920	0.950	0.970	1.000	1.050	1.180	1.320	1.380	1.300	1.120	0.930	0.760	0.630
P_COM	0.160	0.140	0.120	0.110	0.140	0.240	0.480	0.860	1.120	1.200	1.220	1.210	1.180	1.160	1.140	1.170	1.130	1.050	0.840	0.600	0.440	0.330	0.250	0.190
P_IND	0.820	0.800	0.780	0.780	0.800	0.880	0.960	1.030	1.070	1.100	1.120	1.100	1.080	1.060	1.080	1.090	1.080	1.050	1.000	0.950	0.920	0.900	0.870	0.840


[CURVES]
;ID	X-Value	Y-Value
H_PUMP_MAIN	0	85
H_PUMP_MAIN	0.8	72
H_PUMP_MAIN	1.6	56
H_PUMP_MAIN	2.4	35


[CONTROLS]
LINK PU1 OPEN IF TANK T1 BELOW 4.500
LINK PU1 CLOSED IF TANK T1 ABOVE 15.500


[RULES]
; Intentionally left minimal; controls section remains active

[STATUS]
;ID	Status/Setting
P421	CLOSED
P841	CLOSED
P1261	CLOSED
P1681	CLOSED
P2101	CLOSED
P2521	CLOSED
P2941	CLOSED
P3361	CLOSED
P3781	CLOSED
P4201	CLOSED
P4621	CLOSED
P5041	CLOSED
P5461	CLOSED
P5881	CLOSED
P6301	CLOSED
P6721	CLOSED
P7141	CLOSED
P7561	CLOSED
P7981	CLOSED

[EMITTERS]
;Junction	Coefficient
J8_53	0.220
J16_41	0.340
J24_29	0.180
J32_17	0.300
J40_5	0.140
J47_57	0.260
J55_45	0.100
J63_33	0.220

[QUALITY]
;Node	InitQual

[SOURCES]
;Node	Type	Quality	Pattern

[REACTIONS]
ORDER BULK	1
ORDER TANK	1
ORDER WALL	1
GLOBAL BULK	-0.1
GLOBAL WALL	-0.4

[ENERGY]
GLOBAL EFFICIENCY	82
GLOBAL PRICE	0.14
DEMAND CHARGE	4.0

[MIXING]

[TIMES]
DURATION	24:00
HYDRAULIC TIMESTEP	1:00
QUALITY TIMESTEP	0:30
PATTERN TIMESTEP	1:00
REPORT TIMESTEP	1:00

[REPORT]
STATUS	YES
SUMMARY	YES
NODES	NONE
LINKS	NONE

[OPTIONS]
UNITS	GPM
HEADLOSS	D-W
TRIALS	140
ACCURACY	0.001
UNBALANCED	CONTINUE 50
DEMAND MODEL	PDA
MINIMUM PRESSURE	5
REQUIRED PRESSURE	32
PRESSURE EXPONENT	0.5
QUALITY	TRACE J1_1

[COORDINATES]
;Node	X-Coord	Y-Coord
R1	-270.00	-270.00
J1_1	0.00	0.00
J1_2	135.00	0.00
J1_3	270.00	0.00
J1_4	405.00	0.00
J1_5	540.00	0.00
J1_6	675.00	0.00
J1_7	810.00	0.00
J1_8	945.00	0.00
J1_9	1080.00	0.00
J1_10	1215.00	0.00
J1_11	1350.00	0.00
J1_12	1485.00	0.00
J1_13	1620.00	0.00
J1_14	1755.00	0.00
J1_15	1890.00	0.00
J1_16	2025.00	0.00
J1_17	2160.00	0.00
J1_18	2295.00	0.00
J1_19	2430.00	0.00
J1_20	2565.00	0.00
J1_21	2700.00	0.00
J1_22	2835.00	0.00
J1_23	2970.00	0.00
J1_24	3105.00	0.00
J1_25	3240.00	0.00
J1_26	3375.00	0.00
J1_27	3510.00	0.00
J1_28	3645.00	0.00
J1_29	3780.00	0.00
J1_30	3915.00	0.00
J1_31	4050.00	0.00
J1_32	4185.00	0.00
J1_33	4320.00	0.00
J1_34	4455.00	0.00
J1_35	4590.00	0.00
J1_36	4725.00	0.00
J1_37	4860.00	0.00
J1_38	4995.00	0.00
J1_39	5130.00	0.00
J1_40	5265.00	0.00
J1_41	5400.00	0.00
J1_42	5535.00	0.00
J1_43	5670.00	0.00
J1_44	5805.00	0.00
J1_45	5940.00	0.00
J1_46	6075.00	0.00
J1_47	6210.00	0.00
J1_48	6345.00	0.00
J1_49	6480.00	0.00
J1_50	6615.00	0.00
J1_51	6750.00	0.00
J1_52	6885.00	0.00
J1_53	7020.00	0.00
J1_54	7155.00	0.00
J1_55	7290.00	0.00
J1_56	7425.00	0.00
J1_57	7560.00	0.00
J1_58	7695.00	0.00
J1_59	7830.00	0.00
J1_60	7965.00	0.00
J1_61	8100.00	0.00
J1_62	8235.00	0.00
J1_63	8370.00	0.00
J1_64	8505.00	0.00
J2_1	0.00	135.00
J2_2	135.00	135.00
J2_3	270.00	135.00
J2_4	405.00	135.00
J2_5	540.00	135.00
J2_6	675.00	135.00
J2_7	810.00	135.00
J2_8	945.00	135.00
J2_9	1080.00	135.00
J2_10	1215.00	135.00
J2_11	1350.00	135.00
J2_12	1485.00	135.00
J2_13	1620.00	135.00
J2_14	1755.00	135.00
J2_15	1890.00	135.00
J2_16	2025.00	135.00
J2_17	2160.00	135.00
J2_18	2295.00	135.00
J2_19	2430.00	135.00
J2_20	2565.00	135.00
J2_21	2700.00	135.00
J2_22	2835.00	135.00
J2_23	2970.00	135.00
J2_24	3105.00	135.00
J2_25	3240.00	135.00
J2_26	3375.00	135.00
J2_27	3510.00	135.00
J2_28	3645.00	135.00
J2_29	3780.00	135.00
J2_30	3915.00	135.00
J2_31	4050.00	135.00
J2_32	4185.00	135.00
J2_33	4320.00	135.00
J2_34	4455.00	135.00
J2_35	4590.00	135.00
J2_36	4725.00	135.00
J2_37	4860.00	135.00
J2_38	4995.00	135.00
J2_39	5130.00	135.00
J2_40	5265.00	135.00
J2_41	5400.00	135.00
J2_42	5535.00	135.00
J2_43	5670.00	135.00
J2_44	5805.00	135.00
J2_45	5940.00	135.00
J2_46	6075.00	135.00
J2_47	6210.00	135.00
J2_48	6345.00	135.00
J2_49	6480.00	135.00
J2_50	6615.00	135.00
J2_51	6750.00	135.00
J2_52	6885.00	135.00
J2_53	7020.00	135.00
J2_54	7155.00	135.00
J2_55	7290.00	135.00
J2_56	7425.00	135.00
J2_57	7560.00	135.00
J2_58	7695.00	135.00
J2_59	7830.00	135.00
J2_60	7965.00	135.00
J2_61	8100.00	135.00
J2_62	8235.00	135.00
J2_63	8370.00	135.00
J2_64	8505.00	135.00
J3_1	0.00	270.00
J3_2	135.00	270.00
J3_3	270.00	270.00
J3_4	405.00	270.00
J3_5	540.00	270.00
J3_6	675.00	270.00
J3_7	810.00	270.00
J3_8	945.00	270.00
J3_9	1080.00	270.00
J3_10	1215.00	270.00
J3_11	1350.00	270.00
J3_12	1485.00	270.00
J3_13	1620.00	270.00
J3_14	1755.00	270.00
J3_15	1890.00	270.00
J3_16	2025.00	270.00
J3_17	2160.00	270.00
J3_18	2295.00	270.00
J3_19	2430.00	270.00
J3_20	2565.00	270.00
J3_21	2700.00	270.00
J3_22	2835.00	270.00
J3_23	2970.00	270.00
J3_24	3105.00	270.00
J3_25	3240.00	270.00
J3_26	3375.00	270.00
J3_27	3510.00	270.00
J3_28	3645.00	270.00
J3_29	3780.00	270.00
J3_30	3915.00	270.00
J3_31	4050.00	270.00
J3_32	4185.00	270.00
J3_33	4320.00	270.00
J3_34	4455.00	270.00
J3_35	4590.00	270.00
J3_36	4725.00	270.00
J3_37	4860.00	270.00
J3_38	4995.00	270.00
J3_39	5130.00	270.00
J3_40	5265.00	270.00
J3_41	5400.00	270.00
J3_42	5535.00	270.00
J3_43	5670.00	270.00
J3_44	5805.00	270.00
J3_45	5940.00	270.00
J3_46	6075.00	270.00
J3_47	6210.00	270.00
J3_48	6345.00	270.00
J3_49	6480.00	270.00
J3_50	6615.00	270.00
J3_51	6750.00	270.00
J3_52	6885.00	270.00
J3_53	7020.00	270.00
J3_54	7155.00	270.00
J3_55	7290.00	270.00
J3_56	7425.00	270.00
J3_57	7560.00	270.00
J3_58	7695.00	270.00
J3_59	7830.00	270.00
J3_60	7965.00	270.00
J3_61	8100.00	270.00
J3_62	8235.00	270.00
J3_63	8370.00	270.00
J3_64	8505.00	270.00
J4_1	0.00	405.00
J4_2	135.00	405.00
J4_3	270.00	405.00
J4_4	405.00	405.00
J4_5	540.00	405.00
J4_6	675.00	405.00
J4_7	810.00	405.00
J4_8	945.00	405.00
J4_9	1080.00	405.00
J4_10	1215.00	405.00
J4_11	1350.00	405.00
J4_12	1485.00	405.00
J4_13	1620.00	405.00
J4_14	1755.00	405.00
J4_15	1890.00	405.00
J4_16	2025.00	405.00
J4_17	2160.00	405.00
J4_18	2295.00	405.00
J4_19	2430.00	405.00
J4_20	2565.00	405.00
J4_21	2700.00	405.00
J4_22	2835.00	405.00
J4_23	2970.00	405.00
J4_24	3105.00	405.00
J4_25	3240.00	405.00
J4_26	3375.00	405.00
J4_27	3510.00	405.00
J4_28	3645.00	405.00
J4_29	3780.00	405.00
J4_30	3915.00	405.00
J4_31	4050.00	405.00
J4_32	4185.00	405.00
J4_33	4320.00	405.00
J4_34	4455.00	405.00
J4_35	4590.00	405.00
J4_36	4725.00	405.00
J4_37	4860.00	405.00
J4_38	4995.00	405.00
J4_39	5130.00	405.00
J4_40	5265.00	405.00
J4_41	5400.00	405.00
J4_42	5535.00	405.00
J4_43	5670.00	405.00
J4_44	5805.00	405.00
J4_45	5940.00	405.00
J4_46	6075.00	405.00
J4_47	6210.00	405.00
J4_48	6345.00	405.00
J4_49	6480.00	405.00
J4_50	6615.00	405.00
J4_51	6750.00	405.00
J4_52	6885.00	405.00
J4_53	7020.00	405.00
J4_54	7155.00	405.00
J4_55	7290.00	405.00
J4_56	7425.00	405.00
J4_57	7560.00	405.00
J4_58	7695.00	405.00
J4_59	7830.00	405.00
J4_60	7965.00	405.00
J4_61	8100.00	405.00
J4_62	8235.00	405.00
J4_63	8370.00	405.00
J4_64	8505.00	405.00
J5_1	0.00	540.00
J5_2	135.00	540.00
J5_3	270.00	540.00
J5_4	405.00	540.00
J5_5	540.00	540.00
J5_6	675.00	540.00
J5_7	810.00	540.00
J5_8	945.00	540.00
J5_9	1080.00	540.00
J5_10	1215.00	540.00
J5_11	1350.00	540.00
J5_12	1485.00	540.00
J5_13	1620.00	540.00
J5_14	1755.00	540.00
J5_15	1890.00	540.00
J5_16	2025.00	540.00
J5_17	2160.00	540.00
J5_18	2295.00	540.00
J5_19	2430.00	540.00
J5_20	2565.00	540.00
J5_21	2700.00	540.00
J5_22	2835.00	540.00
J5_23	2970.00	540.00
J5_24	3105.00	540.00
J5_25	3240.00	540.00
J5_26	3375.00	540.00
J5_27	3510.00	540.00
J5_28	3645.00	540.00
J5_29	3780.00	540.00
J5_30	3915.00	540.00
J5_31	4050.00	540.00
J5_32	4185.00	540.00
J5_33	4320.00	540.00
J5_34	4455.00	540.00
J5_35	4590.00	540.00
J5_36	4725.00	540.00
J5_37	4860.00	540.00
J5_38	4995.00	540.00
J5_39	5130.00	540.00
J5_40	5265.00	540.00
J5_41	5400.00	540.00
J5_42	5535.00	540.00
J5_43	5670.00	540.00
J5_44	5805.00	540.00
J5_45	5940.00	540.00
J5_46	6075.00	540.00
J5_47	6210.00	540.00
J5_48	6345.00	540.00
J5_49	6480.00	540.00
J5_50	6615.00	540.00
J5_51	6750.00	540.00
J5_52	6885.00	540.00
J5_53	7020.00	540.00
J5_54	7155.00	540.00
J5_55	7290.00	540.00
J5_56	7425.00	540.00
J5_57	7560.00	540.00
J5_58	7695.00	540.00
J5_59	7830.00	540.00
J5_60	7965.00	540.00
J5_61	8100.00	540.00
J5_62	8235.00	540.00
J5_63	8370.00	540.00
J5_64	8505.00	540.00
J6_1	0.00	675.00
J6_2	135.00	675.00
J6_3	270.00	675.00
J6_4	405.00	675.00
J6_5	540.00	675.00
J6_6	675.00	675.00
J6_7	810.00	675.00
J6_8	945.00	675.00
J6_9	1080.00	675.00
J6_10	1215.00	675.00
J6_11	1350.00	675.00
J6_12	1485.00	675.00
J6_13	1620.00	675.00
J6_14	1755.00	675.00
J6_15	1890.00	675.00
J6_16	2025.00	675.00
J6_17	2160.00	675.00
J6_18	2295.00	675.00
J6_19	2430.00	675.00
J6_20	2565.00	675.00
J6_21	2700.00	675.00
J6_22	2835.00	675.00
J6_23	2970.00	675.00
J6_24	3105.00	675.00
J6_25	3240.00	675.00
J6_26	3375.00	675.00
J6_27	3510.00	675.00
J6_28	3645.00	675.00
J6_29	3780.00	675.00
J6_30	3915.00	675.00
J6_31	4050.00	675.00
J6_32	4185.00	675.00
J6_33	4320.00	675.00
J6_34	4455.00	675.00
J6_35	4590.00	675.00
J6_36	4725.00	675.00
J6_37	4860.00	675.00
J6_38	4995.00	675.00
J6_39	5130.00	675.00
J6_40	5265.00	675.00
J6_41	5400.00	675.00
J6_42	5535.00	675.00
J6_43	5670.00	675.00
J6_44	5805.00	675.00
J6_45	5940.00	675.00
J6_46	6075.00	675.00
J6_47	6210.00	675.00
J6_48	6345.00	675.00
J6_49	6480.00	675.00
J6_50	6615.00	675.00
J6_51	6750.00	675.00
J6_52	6885.00	675.00
J6_53	7020.00	675.00
J6_54	7155.00	675.00
J6_55	7290.00	675.00
J6_56	7425.00	675.00
J6_57	7560.00	675.00
J6_58	7695.00	675.00
J6_59	7830.00	675.00
J6_60	7965.00	675.00
J6_61	8100.00	675.00
J6_62	8235.00	675.00
J6_63	8370.00	675.00
J6_64	8505.00	675.00
J7_1	0.00	810.00
J7_2	135.00	810.00
J7_3	270.00	810.00
J7_4	405.00	810.00
J7_5	540.00	810.00
J7_6	675.00	810.00
J7_7	810.00	810.00
J7_8	945.00	810.00
J7_9	1080.00	810.00
J7_10	1215.00	810.00
J7_11	1350.00	810.00
J7_12	1485.00	810.00
J7_13	1620.00	810.00
J7_14	1755.00	810.00
J7_15	1890.00	810.00
J7_16	2025.00	810.00
J7_17	2160.00	810.00
J7_18	2295.00	810.00
J7_19	2430.00	810.00
J7_20	2565.00	810.00
J7_21	2700.00	810.00
J7_22	2835.00	810.00
J7_23	2970.00	810.00
J7_24	3105.00	810.00
J7_25	3240.00	810.00
J7_26	3375.00	810.00
J7_27	3510.00	810.00
J7_28	3645.00	810.00
J7_29	3780.00	810.00
J7_30	3915.00	810.00
J7_31	4050.00	810.00
J7_32	4185.00	810.00
J7_33	4320.00	810.00
J7_34	4455.00	810.00
J7_35	4590.00	810.00
J7_36	4725.00	810.00
J7_37	4860.00	810.00
J7_38	4995.00	810.00
J7_39	5130.00	810.00
J7_40	5265.00	810.00
J7_41	5400.00	810.00
J7_42	5535.00	810.00
J7_43	5670.00	810.00
J7_44	5805.00	810.00
J7_45	5940.00	810.00
J7_46	6075.00	810.00
J7_47	6210.00	810.00
J7_48	6345.00	810.00
J7_49	6480.00	810.00
J7_50	6615.00	810.00
J7_51	6750.00	810.00
J7_52	6885.00	810.00
J7_53	7020.00	810.00
J7_54	7155.00	810.00
J7_55	7290.00	810.00
J7_56	7425.00	810.00
J7_57	7560.00	810.00
J7_58	7695.00	810.00
J7_59	7830.00	810.00
J7_60	7965.00	810.00
J7_61	8100.00	810.00
J7_62	8235.00	810.00
J7_63	8370.00	810.00
J7_64	8505.00	810.00
J8_1	0.00	945.00
J8_2	135.00	945.00
J8_3	270.00	945.00
J8_4	405.00	945.00
J8_5	540.00	945.00
J8_6	675.00	945.00
J8_7	810.00	945.00
J8_8	945.00	945.00
J8_9	1080.00	945.00
J8_10	1215.00	945.00
J8_11	1350.00	945.00
J8_12	1485.00	945.00
J8_13	1620.00	945.00
J8_14	1755.00	945.00
J8_15	1890.00	945.00
J8_16	2025.00	945.00
J8_17	2160.00	945.00
J8_18	2295.00	945.00
J8_19	2430.00	945.00
J8_20	2565.00	945.00
J8_21	2700.00	945.00
J8_22	2835.00	945.00
J8_23	2970.00	945.00
J8_24	3105.00	945.00
J8_25	3240.00	945.00
J8_26	3375.00	945.00
J8_27	3510.00	945.00
J8_28	3645.00	945.00
J8_29	3780.00	945.00
J8_30	3915.00	945.00
J8_31	4050.00	945.00
J8_32	4185.00	945.00
J8_33	4320.00	945.00
J8_34	4455.00	945.00
J8_35	4590.00	945.00
J8_36	4725.00	945.00
J8_37	4860.00	945.00
J8_38	4995.00	945.00
J8_39	5130.00	945.00
J8_40	5265.00	945.00
J8_41	5400.00	945.00
J8_42	5535.00	945.00
J8_43	5670.00	945.00
J8_44	5805.00	945.00
J8_45	5940.00	945.00
J8_46	6075.00	945.00
J8_47	6210.00	945.00
J8_48	6345.00	945.00
J8_49	6480.00	945.00
J8_50	6615.00	945.00
J8_51	6750.00	945.00
J8_52	6885.00	945.00
J8_53	7020.00	945.00
J8_54	7155.00	945.00
J8_55	7290.00	945.00
J8_56	7425.00	945.00
J8_57	7560.00	945.00
J8_58	7695.00	945.00
J8_59	7830.00	945.00
J8_60	7965.00	945.00
J8_61	8100.00	945.00
J8_62	8235.00	945.00
J8_63	8370.00	945.00
J8_64	8505.00	945.00
J9_1	0.00	1080.00
J9_2	135.00	1080.00
J9_3	270.00	1080.00
J9_4	405.00	1080.00
J9_5	540.00	1080.00
J9_6	675.00	1080.00
J9_7	810.00	1080.00
J9_8	945.00	1080.00
J9_9	1080.00	1080.00
J9_10	1215.00	1080.00
J9_11	1350.00	1080.00
J9_12	1485.00	1080.00
J9_13	1620.00	1080.00
J9_14	1755.00	1080.00
J9_15	1890.00	1080.00
J9_16	2025.00	1080.00
J9_17	2160.00	1080.00
J9_18	2295.00	1080.00
J9_19	2430.00	1080.00
J9_20	2565.00	1080.00
J9_21	2700.00	1080.00
J9_22	2835.00	1080.00
J9_23	2970.00	1080.00
J9_24	3105.00	1080.00
J9_25	3240.00	1080.00
J9_26	3375.00	1080.00
J9_27	3510.00	1080.00
J9_28	3645.00	1080.00
J9_29	3780.00	1080.00
J9_30	3915.00	1080.00
J9_31	4050.00	1080.00
J9_32	4185.00	1080.00
J9_33	4320.00	1080.00
J9_34	4455.00	1080.00
J9_35	4590.00	1080.00
J9_36	4725.00	1080.00
J9_37	4860.00	1080.00
J9_38	4995.00	1080.00
J9_39	5130.00	1080.00
J9_40	5265.00	1080.00
J9_41	5400.00	1080.00
J9_42	5535.00	1080.00
J9_43	5670.00	1080.00
J9_44	5805.00	1080.00
J9_45	5940.00	1080.00
J9_46	6075.00	1080.00
J9_47	6210.00	1080.00
J9_48	6345.00	1080.00
J9_49	6480.00	1080.00
J9_50	6615.00	1080.00
J9_51	6750.00	1080.00
J9_52	6885.00	1080.00
J9_53	7020.00	1080.00
J9_54	7155.00	1080.00
J9_55	7290.00	1080.00
J9_56	7425.00	1080.00
J9_57	7560.00	1080.00
J9_58	7695.00	1080.00
J9_59	7830.00	1080.00
J9_60	7965.00	1080.00
J9_61	8100.00	1080.00
J9_62	8235.00	1080.00
J9_63	8370.00	1080.00
J9_64	8505.00	1080.00
J10_1	0.00	1215.00
J10_2	135.00	1215.00
J10_3	270.00	1215.00
J10_4	405.00	1215.00
J10_5	540.00	1215.00
J10_6	675.00	1215.00
J10_7	810.00	1215.00
J10_8	945.00	1215.00
J10_9	1080.00	1215.00
J10_10	1215.00	1215.00
J10_11	1350.00	1215.00
J10_12	1485.00	1215.00
J10_13	1620.00	1215.00
J10_14	1755.00	1215.00
J10_15	1890.00	1215.00
J10_16	2025.00	1215.00
J10_17	2160.00	1215.00
J10_18	2295.00	1215.00
J10_19	2430.00	1215.00
J10_20	2565.00	1215.00
J10_21	2700.00	1215.00
J10_22	2835.00	1215.00
J10_23	2970.00	1215.00
J10_24	3105.00	1215.00
J10_25	3240.00	1215.00
J10_26	3375.00	1215.00
J10_27	3510.00	1215.00
J10_28	3645.00	1215.00
J10_29	3780.00	1215.00
J10_30	3915.00	1215.00
J10_31	4050.00	1215.00
J10_32	4185.00	1215.00
J10_33	4320.00	1215.00
J10_34	4455.00	1215.00
J10_35	4590.00	1215.00
J10_36	4725.00	1215.00
J10_37	4860.00	1215.00
J10_38	4995.00	1215.00
J10_39	5130.00	1215.00
J10_40	5265.00	1215.00
J10_41	5400.00	1215.00
J10_42	5535.00	1215.00
J10_43	5670.00	1215.00
J10_44	5805.00	1215.00
J10_45	5940.00	1215.00
J10_46	6075.00	1215.00
J10_47	6210.00	1215.00
J10_48	6345.00	1215.00
J10_49	6480.00	1215.00
J10_50	6615.00	1215.00
J10_51	6750.00	1215.00
J10_52	6885.00	1215.00
J10_53	7020.00	1215.00
J10_54	7155.00	1215.00
J10_55	7290.00	1215.00
J10_56	7425.00	1215.00
J10_57	7560.00	1215.00
J10_58	7695.00	1215.00
J10_59	7830.00	1215.00
J10_60	7965.00	1215.00
J10_61	8100.00	1215.00
J10_62	8235.00	1215.00
J10_63	8370.00	1215.00
J10_64	8505.00	1215.00
J11_1	0.00	1350.00
J11_2	135.00	1350.00
J11_3	270.00	1350.00
J11_4	405.00	1350.00
J11_5	540.00	1350.00
J11_6	675.00	1350.00
J11_7	810.00	1350.00
J11_8	945.00	1350.00
J11_9	1080.00	1350.00
J11_10	1215.00	1350.00
J11_11	1350.00	1350.00
J11_12	1485.00	1350.00
J11_13	1620.00	1350.00
J11_14	1755.00	1350.00
J11_15	1890.00	1350.00
J11_16	2025.00	1350.00
J11_17	2160.00	1350.00
J11_18	2295.00	1350.00
J11_19	2430.00	1350.00
J11_20	2565.00	1350.00
J11_21	2700.00	1350.00
J11_22	2835.00	1350.00
J11_23	2970.00	1350.00
J11_24	3105.00	1350.00
J11_25	3240.00	1350.00
J11_26	3375.00	1350.00
J11_27	3510.00	1350.00
J11_28	3645.00	1350.00
J11_29	3780.00	1350.00
J11_30	3915.00	1350.00
J11_31	4050.00	1350.00
J11_32	4185.00	1350.00
J11_33	4320.00	1350.00
J11_34	4455.00	1350.00
J11_35	4590.00	1350.00
J11_36	4725.00	1350.00
J11_37	4860.00	1350.00
J11_38	4995.00	1350.00
J11_39	5130.00	1350.00
J11_40	5265.00	1350.00
J11_41	5400.00	1350.00
J11_42	5535.00	1350.00
J11_43	5670.00	1350.00
J11_44	5805.00	1350.00
J11_45	5940.00	1350.00
J11_46	6075.00	1350.00
J11_47	6210.00	1350.00
J11_48	6345.00	1350.00
J11_49	6480.00	1350.00
J11_50	6615.00	1350.00
J11_51	6750.00	1350.00
J11_52	6885.00	1350.00
J11_53	7020.00	1350.00
J11_54	7155.00	1350.00
J11_55	7290.00	1350.00
J11_56	7425.00	1350.00
J11_57	7560.00	1350.00
J11_58	7695.00	1350.00
J11_59	7830.00	1350.00
J11_60	7965.00	1350.00
J11_61	8100.00	1350.00
J11_62	8235.00	1350.00
J11_63	8370.00	1350.00
J11_64	8505.00	1350.00
J12_1	0.00	1485.00
J12_2	135.00	1485.00
J12_3	270.00	1485.00
J12_4	405.00	1485.00
J12_5	540.00	1485.00
J12_6	675.00	1485.00
J12_7	810.00	1485.00
J12_8	945.00	1485.00
J12_9	1080.00	1485.00
J12_10	1215.00	1485.00
J12_11	1350.00	1485.00
J12_12	1485.00	1485.00
J12_13	1620.00	1485.00
J12_14	1755.00	1485.00
J12_15	1890.00	1485.00
J12_16	2025.00	1485.00
J12_17	2160.00	1485.00
J12_18	2295.00	1485.00
J12_19	2430.00	1485.00
J12_20	2565.00	1485.00
J12_21	2700.00	1485.00
J12_22	2835.00	1485.00
J12_23	2970.00	1485.00
J12_24	3105.00	1485.00
J12_25	3240.00	1485.00
J12_26	3375.00	1485.00
J12_27	3510.00	1485.00
J12_28	3645.00	1485.00
J12_29	3780.00	1485.00
J12_30	3915.00	1485.00
J12_31	4050.00	1485.00
J12_32	4185.00	1485.00
J12_33	4320.00	1485.00
J12_34	4455.00	1485.00
J12_35	4590.00	1485.00
J12_36	4725.00	1485.00
J12_37	4860.00	1485.00
J12_38	4995.00	1485.00
J12_39	5130.00	1485.00
J12_40	5265.00	1485.00
J12_41	5400.00	1485.00
J12_42	5535.00	1485.00
J12_43	5670.00	1485.00
J12_44	5805.00	1485.00
J12_45	5940.00	1485.00
J12_46	6075.00	1485.00
J12_47	6210.00	1485.00
J12_48	6345.00	1485.00
J12_49	6480.00	1485.00
J12_50	6615.00	1485.00
J12_51	6750.00	1485.00
J12_52	6885.00	1485.00
J12_53	7020.00	1485.00
J12_54	7155.00	1485.00
J12_55	7290.00	1485.00
J12_56	7425.00	1485.00
J12_57	7560.00	1485.00
J12_58	7695.00	1485.00
J12_59	7830.00	1485.00
J12_60	7965.00	1485.00
J12_61	8100.00	1485.00
J12_62	8235.00	1485.00
J12_63	8370.00	1485.00
J12_64	8505.00	1485.00
J13_1	0.00	1620.00
J13_2	135.00	1620.00
J13_3	270.00	1620.00
J13_4	405.00	1620.00
J13_5	540.00	1620.00
J13_6	675.00	1620.00
J13_7	810.00	1620.00
J13_8	945.00	1620.00
J13_9	1080.00	1620.00
J13_10	1215.00	1620.00
J13_11	1350.00	1620.00
J13_12	1485.00	1620.00
J13_13	1620.00	1620.00
J13_14	1755.00	1620.00
J13_15	1890.00	1620.00
J13_16	2025.00	1620.00
J13_17	2160.00	1620.00
J13_18	2295.00	1620.00
J13_19	2430.00	1620.00
J13_20	2565.00	1620.00
J13_21	2700.00	1620.00
J13_22	2835.00	1620.00
J13_23	2970.00	1620.00
J13_24	3105.00	1620.00
J13_25	3240.00	1620.00
J13_26	3375.00	1620.00
J13_27	3510.00	1620.00
J13_28	3645.00	1620.00
J13_29	3780.00	1620.00
J13_30	3915.00	1620.00
J13_31	4050.00	1620.00
J13_32	4185.00	1620.00
J13_33	4320.00	1620.00
J13_34	4455.00	1620.00
J13_35	4590.00	1620.00
J13_36	4725.00	1620.00
J13_37	4860.00	1620.00
J13_38	4995.00	1620.00
J13_39	5130.00	1620.00
J13_40	5265.00	1620.00
J13_41	5400.00	1620.00
J13_42	5535.00	1620.00
J13_43	5670.00	1620.00
J13_44	5805.00	1620.00
J13_45	5940.00	1620.00
J13_46	6075.00	1620.00
J13_47	6210.00	1620.00
J13_48	6345.00	1620.00
J13_49	6480.00	1620.00
J13_50	6615.00	1620.00
J13_51	6750.00	1620.00
J13_52	6885.00	1620.00
J13_53	7020.00	1620.00
J13_54	7155.00	1620.00
J13_55	7290.00	1620.00
J13_56	7425.00	1620.00
J13_57	7560.00	1620.00
J13_58	7695.00	1620.00
J13_59	7830.00	1620.00
J13_60	7965.00	1620.00
J13_61	8100.00	1620.00
J13_62	8235.00	1620.00
J13_63	8370.00	1620.00
J13_64	8505.00	1620.00
J14_1	0.00	1755.00
J14_2	135.00	1755.00
J14_3	270.00	1755.00
J14_4	405.00	1755.00
J14_5	540.00	1755.00
J14_6	675.00	1755.00
J14_7	810.00	1755.00
J14_8	945.00	1755.00
J14_9	1080.00	1755.00
J14_10	1215.00	1755.00
J14_11	1350.00	1755.00
J14_12	1485.00	1755.00
J14_13	1620.00	1755.00
J14_14	1755.00	1755.00
J14_15	1890.00	1755.00
J14_16	2025.00	1755.00
J14_17	2160.00	1755.00
J14_18	2295.00	1755.00
J14_19	2430.00	1755.00
J14_20	2565.00	1755.00
J14_21	2700.00	1755.00
J14_22	2835.00	1755.00
J14_23	2970.00	1755.00
J14_24	3105.00	1755.00
J14_25	3240.00	1755.00
J14_26	3375.00	1755.00
J14_27	3510.00	1755.00
J14_28	3645.00	1755.00
J14_29	3780.00	1755.00
J14_30	3915.00	1755.00
J14_31	4050.00	1755.00
J14_32	4185.00	1755.00
J14_33	4320.00	1755.00
J14_34	4455.00	1755.00
J14_35	4590.00	1755.00
J14_36	4725.00	1755.00
J14_37	4860.00	1755.00
J14_38	4995.00	1755.00
J14_39	5130.00	1755.00
J14_40	5265.00	1755.00
J14_41	5400.00	1755.00
J14_42	5535.00	1755.00
J14_43	5670.00	1755.00
J14_44	5805.00	1755.00
J14_45	5940.00	1755.00
J14_46	6075.00	1755.00
J14_47	6210.00	1755.00
J14_48	6345.00	1755.00
J14_49	6480.00	1755.00
J14_50	6615.00	1755.00
J14_51	6750.00	1755.00
J14_52	6885.00	1755.00
J14_53	7020.00	1755.00
J14_54	7155.00	1755.00
J14_55	7290.00	1755.00
J14_56	7425.00	1755.00
J14_57	7560.00	1755.00
J14_58	7695.00	1755.00
J14_59	7830.00	1755.00
J14_60	7965.00	1755.00
J14_61	8100.00	1755.00
J14_62	8235.00	1755.00
J14_63	8370.00	1755.00
J14_64	8505.00	1755.00
J15_1	0.00	1890.00
J15_2	135.00	1890.00
J15_3	270.00	1890.00
J15_4	405.00	1890.00
J15_5	540.00	1890.00
J15_6	675.00	1890.00
J15_7	810.00	1890.00
J15_8	945.00	1890.00
J15_9	1080.00	1890.00
J15_10	1215.00	1890.00
J15_11	1350.00	1890.00
J15_12	1485.00	1890.00
J15_13	1620.00	1890.00
J15_14	1755.00	1890.00
J15_15	1890.00	1890.00
J15_16	2025.00	1890.00
J15_17	2160.00	1890.00
J15_18	2295.00	1890.00
J15_19	2430.00	1890.00
J15_20	2565.00	1890.00
J15_21	2700.00	1890.00
J15_22	2835.00	1890.00
J15_23	2970.00	1890.00
J15_24	3105.00	1890.00
J15_25	3240.00	1890.00
J15_26	3375.00	1890.00
J15_27	3510.00	1890.00
J15_28	3645.00	1890.00
J15_29	3780.00	1890.00
J15_30	3915.00	1890.00
J15_31	4050.00	1890.00
J15_32	4185.00	1890.00
J15_33	4320.00	1890.00
J15_34	4455.00	1890.00
J15_35	4590.00	1890.00
J15_36	4725.00	1890.00
J15_37	4860.00	1890.00
J15_38	4995.00	1890.00
J15_39	5130.00	1890.00
J15_40	5265.00	1890.00
J15_41	5400.00	1890.00
J15_42	5535.00	1890.00
J15_43	5670.00	1890.00
J15_44	5805.00	1890.00
J15_45	5940.00	1890.00
J15_46	6075.00	1890.00
J15_47	6210.00	1890.00
J15_48	6345.00	1890.00
J15_49	6480.00	1890.00
J15_50	6615.00	1890.00
J15_51	6750.00	1890.00
J15_52	6885.00	1890.00
J15_53	7020.00	1890.00
J15_54	7155.00	1890.00
J15_55	7290.00	1890.00
J15_56	7425.00	1890.00
J15_57	7560.00	1890.00
J15_58	7695.00	1890.00
J15_59	7830.00	1890.00
J15_60	7965.00	1890.00
J15_61	8100.00	1890.00
J15_62	8235.00	1890.00
J15_63	8370.00	1890.00
J15_64	8505.00	1890.00
J16_1	0.00	2025.00
J16_2	135.00	2025.00
J16_3	270.00	2025.00
J16_4	405.00	2025.00
J16_5	540.00	2025.00
J16_6	675.00	2025.00
J16_7	810.00	2025.00
J16_8	945.00	2025.00
J16_9	1080.00	2025.00
J16_10	1215.00	2025.00
J16_11	1350.00	2025.00
J16_12	1485.00	2025.00
J16_13	1620.00	2025.00
J16_14	1755.00	2025.00
J16_15	1890.00	2025.00
J16_16	2025.00	2025.00
J16_17	2160.00	2025.00
J16_18	2295.00	2025.00
J16_19	2430.00	2025.00
J16_20	2565.00	2025.00
J16_21	2700.00	2025.00
J16_22	2835.00	2025.00
J16_23	2970.00	2025.00
J16_24	3105.00	2025.00
J16_25	3240.00	2025.00
J16_26	3375.00	2025.00
J16_27	3510.00	2025.00
J16_28	3645.00	2025.00
J16_29	3780.00	2025.00
J16_30	3915.00	2025.00
J16_31	4050.00	2025.00
J16_32	4185.00	2025.00
J16_33	4320.00	2025.00
J16_34	4455.00	2025.00
J16_35	4590.00	2025.00
J16_36	4725.00	2025.00
J16_37	4860.00	2025.00
J16_38	4995.00	2025.00
J16_39	5130.00	2025.00
J16_40	5265.00	2025.00
J16_41	5400.00	2025.00
J16_42	5535.00	2025.00
J16_43	5670.00	2025.00
J16_44	5805.00	2025.00
J16_45	5940.00	2025.00
J16_46	6075.00	2025.00
J16_47	6210.00	2025.00
J16_48	6345.00	2025.00
J16_49	6480.00	2025.00
J16_50	6615.00	2025.00
J16_51	6750.00	2025.00
J16_52	6885.00	2025.00
J16_53	7020.00	2025.00
J16_54	7155.00	2025.00
J16_55	7290.00	2025.00
J16_56	7425.00	2025.00
J16_57	7560.00	2025.00
J16_58	7695.00	2025.00
J16_59	7830.00	2025.00
J16_60	7965.00	2025.00
J16_61	8100.00	2025.00
J16_62	8235.00	2025.00
J16_63	8370.00	2025.00
J16_64	8505.00	2025.00
J17_1	0.00	2160.00
J17_2	135.00	2160.00
J17_3	270.00	2160.00
J17_4	405.00	2160.00
J17_5	540.00	2160.00
J17_6	675.00	2160.00
J17_7	810.00	2160.00
J17_8	945.00	2160.00
J17_9	1080.00	2160.00
J17_10	1215.00	2160.00
J17_11	1350.00	2160.00
J17_12	1485.00	2160.00
J17_13	1620.00	2160.00
J17_14	1755.00	2160.00
J17_15	1890.00	2160.00
J17_16	2025.00	2160.00
J17_17	2160.00	2160.00
J17_18	2295.00	2160.00
J17_19	2430.00	2160.00
J17_20	2565.00	2160.00
J17_21	2700.00	2160.00
J17_22	2835.00	2160.00
J17_23	2970.00	2160.00
J17_24	3105.00	2160.00
J17_25	3240.00	2160.00
J17_26	3375.00	2160.00
J17_27	3510.00	2160.00
J17_28	3645.00	2160.00
J17_29	3780.00	2160.00
J17_30	3915.00	2160.00
J17_31	4050.00	2160.00
J17_32	4185.00	2160.00
J17_33	4320.00	2160.00
J17_34	4455.00	2160.00
J17_35	4590.00	2160.00
J17_36	4725.00	2160.00
J17_37	4860.00	2160.00
J17_38	4995.00	2160.00
J17_39	5130.00	2160.00
J17_40	5265.00	2160.00
J17_41	5400.00	2160.00
J17_42	5535.00	2160.00
J17_43	5670.00	2160.00
J17_44	5805.00	2160.00
J17_45	5940.00	2160.00
J17_46	6075.00	2160.00
J17_47	6210.00	2160.00
J17_48	6345.00	2160.00
J17_49	6480.00	2160.00
J17_50	6615.00	2160.00
J17_51	6750.00	2160.00
J17_52	6885.00	2160.00
J17_53	7020.00	2160.00
J17_54	7155.00	2160.00
J17_55	7290.00	2160.00
J17_56	7425.00	2160.00
J17_57	7560.00	2160.00
J17_58	7695.00	2160.00
J17_59	7830.00	2160.00
J17_60	7965.00	2160.00
J17_61	8100.00	2160.00
J17_62	8235.00	2160.00
J17_63	8370.00	2160.00
J17_64	8505.00	2160.00
J18_1	0.00	2295.00
J18_2	135.00	2295.00
J18_3	270.00	2295.00
J18_4	405.00	2295.00
J18_5	540.00	2295.00
J18_6	675.00	2295.00
J18_7	810.00	2295.00
J18_8	945.00	2295.00
J18_9	1080.00	2295.00
J18_10	1215.00	2295.00
J18_11	1350.00	2295.00
J18_12	1485.00	2295.00
J18_13	1620.00	2295.00
J18_14	1755.00	2295.00
J18_15	1890.00	2295.00
J18_16	2025.00	2295.00
J18_17	2160.00	2295.00
J18_18	2295.00	2295.00
J18_19	2430.00	2295.00
J18_20	2565.00	2295.00
J18_21	2700.00	2295.00
J18_22	2835.00	2295.00
J18_23	2970.00	2295.00
J18_24	3105.00	2295.00
J18_25	3240.00	2295.00
J18_26	3375.00	2295.00
J18_27	3510.00	2295.00
J18_28	3645.00	2295.00
J18_29	3780.00	2295.00
J18_30	3915.00	2295.00
J18_31	4050.00	2295.00
J18_32	4185.00	2295.00
J18_33	4320.00	2295.00
J18_34	4455.00	2295.00
J18_35	4590.00	2295.00
J18_36	4725.00	2295.00
J18_37	4860.00	2295.00
J18_38	4995.00	2295.00
J18_39	5130.00	2295.00
J18_40	5265.00	2295.00
J18_41	5400.00	2295.00
J18_42	5535.00	2295.00
J18_43	5670.00	2295.00
J18_44	5805.00	2295.00
J18_45	5940.00	2295.00
J18_46	6075.00	2295.00
J18_47	6210.00	2295.00
J18_48	6345.00	2295.00
J18_49	6480.00	2295.00
J18_50	6615.00	2295.00
J18_51	6750.00	2295.00
J18_52	6885.00	2295.00
J18_53	7020.00	2295.00
J18_54	7155.00	2295.00
J18_55	7290.00	2295.00
J18_56	7425.00	2295.00
J18_57	7560.00	2295.00
J18_58	7695.00	2295.00
J18_59	7830.00	2295.00
J18_60	7965.00	2295.00
J18_61	8100.00	2295.00
J18_62	8235.00	2295.00
J18_63	8370.00	2295.00
J18_64	8505.00	2295.00
J19_1	0.00	2430.00
J19_2	135.00	2430.00
J19_3	270.00	2430.00
J19_4	405.00	2430.00
J19_5	540.00	2430.00
J19_6	675.00	2430.00
J19_7	810.00	2430.00
J19_8	945.00	2430.00
J19_9	1080.00	2430.00
J19_10	1215.00	2430.00
J19_11	1350.00	2430.00
J19_12	1485.00	2430.00
J19_13	1620.00	2430.00
J19_14	1755.00	2430.00
J19_15	1890.00	2430.00
J19_16	2025.00	2430.00
J19_17	2160.00	2430.00
J19_18	2295.00	2430.00
J19_19	2430.00	2430.00
J19_20	2565.00	2430.00
J19_21	2700.00	2430.00
J19_22	2835.00	2430.00
J19_23	2970.00	2430.00
J19_24	3105.00	2430.00
J19_25	3240.00	2430.00
J19_26	3375.00	2430.00
J19_27	3510.00	2430.00
J19_28	3645.00	2430.00
J19_29	3780.00	2430.00
J19_30	3915.00	2430.00
J19_31	4050.00	2430.00
J19_32	4185.00	2430.00
J19_33	4320.00	2430.00
J19_34	4455.00	2430.00
J19_35	4590.00	2430.00
J19_36	4725.00	2430.00
J19_37	4860.00	2430.00
J19_38	4995.00	2430.00
J19_39	5130.00	2430.00
J19_40	5265.00	2430.00
J19_41	5400.00	2430.00
J19_42	5535.00	2430.00
J19_43	5670.00	2430.00
J19_44	5805.00	2430.00
J19_45	5940.00	2430.00
J19_46	6075.00	2430.00
J19_47	6210.00	2430.00
J19_48	6345.00	2430.00
J19_49	6480.00	2430.00
J19_50	6615.00	2430.00
J19_51	6750.00	2430.00
J19_52	6885.00	2430.00
J19_53	7020.00	2430.00
J19_54	7155.00	2430.00
J19_55	7290.00	2430.00
J19_56	7425.00	2430.00
J19_57	7560.00	2430.00
J19_58	7695.00	2430.00
J19_59	7830.00	2430.00
J19_60	7965.00	2430.00
J19_61	8100.00	2430.00
J19_62	8235.00	2430.00
J19_63	8370.00	2430.00
J19_64	8505.00	2430.00
J20_1	0.00	2565.00
J20_2	135.00	2565.00
J20_3	270.00	2565.00
J20_4	405.00	2565.00
J20_5	540.00	2565.00
J20_6	675.00	2565.00
J20_7	810.00	2565.00
J20_8	945.00	2565.00
J20_9	1080.00	2565.00
J20_10	1215.00	2565.00
J20_11	1350.00	2565.00
J20_12	1485.00	2565.00
J20_13	1620.00	2565.00
J20_14	1755.00	2565.00
J20_15	1890.00	2565.00
J20_16	2025.00	2565.00
J20_17	2160.00	2565.00
J20_18	2295.00	2565.00
J20_19	2430.00	2565.00
J20_20	2565.00	2565.00
J20_21	2700.00	2565.00
J20_22	2835.00	2565.00
J20_23	2970.00	2565.00
J20_24	3105.00	2565.00
J20_25	3240.00	2565.00
J20_26	3375.00	2565.00
J20_27	3510.00	2565.00
J20_28	3645.00	2565.00
J20_29	3780.00	2565.00
J20_30	3915.00	2565.00
J20_31	4050.00	2565.00
J20_32	4185.00	2565.00
J20_33	4320.00	2565.00
J20_34	4455.00	2565.00
J20_35	4590.00	2565.00
J20_36	4725.00	2565.00
J20_37	4860.00	2565.00
J20_38	4995.00	2565.00
J20_39	5130.00	2565.00
J20_40	5265.00	2565.00
J20_41	5400.00	2565.00
J20_42	5535.00	2565.00
J20_43	5670.00	2565.00
J20_44	5805.00	2565.00
J20_45	5940.00	2565.00
J20_46	6075.00	2565.00
J20_47	6210.00	2565.00
J20_48	6345.00	2565.00
J20_49	6480.00	2565.00
J20_50	6615.00	2565.00
J20_51	6750.00	2565.00
J20_52	6885.00	2565.00
J20_53	7020.00	2565.00
J20_54	7155.00	2565.00
J20_55	7290.00	2565.00
J20_56	7425.00	2565.00
J20_57	7560.00	2565.00
J20_58	7695.00	2565.00
J20_59	7830.00	2565.00
J20_60	7965.00	2565.00
J20_61	8100.00	2565.00
J20_62	8235.00	2565.00
J20_63	8370.00	2565.00
J20_64	8505.00	2565.00
J21_1	0.00	2700.00
J21_2	135.00	2700.00
J21_3	270.00	2700.00
J21_4	405.00	2700.00
J21_5	540.00	2700.00
J21_6	675.00	2700.00
J21_7	810.00	2700.00
J21_8	945.00	2700.00
J21_9	1080.00	2700.00
J21_10	1215.00	2700.00
J21_11	1350.00	2700.00
J21_12	1485.00	2700.00
J21_13	1620.00	2700.00
J21_14	1755.00	2700.00
J21_15	1890.00	2700.00
J21_16	2025.00	2700.00
J21_17	2160.00	2700.00
J21_18	2295.00	2700.00
J21_19	2430.00	2700.00
J21_20	2565.00	2700.00
J21_21	2700.00	2700.00
J21_22	2835.00	2700.00
J21_23	2970.00	2700.00
J21_24	3105.00	2700.00
J21_25	3240.00	2700.00
J21_26	3375.00	2700.00
J21_27	3510.00	2700.00
J21_28	3645.00	2700.00
J21_29	3780.00	2700.00
J21_30	3915.00	2700.00
J21_31	4050.00	2700.00
J21_32	4185.00	2700.00
J21_33	4320.00	2700.00
J21_34	4455.00	2700.00
J21_35	4590.00	2700.00
J21_36	4725.00	2700.00
J21_37	4860.00	2700.00
J21_38	4995.00	2700.00
J21_39	5130.00	2700.00
J21_40	5265.00	2700.00
J21_41	5400.00	2700.00
J21_42	5535.00	2700.00
J21_43	5670.00	2700.00
J21_44	5805.00	2700.00
J21_45	5940.00	2700.00
J21_46	6075.00	2700.00
J21_47	6210.00	2700.00
J21_48	6345.00	2700.00
J21_49	6480.00	2700.00
J21_50	6615.00	2700.00
J21_51	6750.00	2700.00
J21_52	6885.00	2700.00
J21_53	7020.00	2700.00
J21_54	7155.00	2700.00
J21_55	7290.00	2700.00
J21_56	7425.00	2700.00
J21_57	7560.00	2700.00
J21_58	7695.00	2700.00
J21_59	7830.00	2700.00
J21_60	7965.00	2700.00
J21_61	8100.00	2700.00
J21_62	8235.00	2700.00
J21_63	8370.00	2700.00
J21_64	8505.00	2700.00
J22_1	0.00	2835.00
J22_2	135.00	2835.00
J22_3	270.00	2835.00
J22_4	405.00	2835.00
J22_5	540.00	2835.00
J22_6	675.00	2835.00
J22_7	810.00	2835.00
J22_8	945.00	2835.00
J22_9	1080.00	2835.00
J22_10	1215.00	2835.00
J22_11	1350.00	2835.00
J22_12	1485.00	2835.00
J22_13	1620.00	2835.00
J22_14	1755.00	2835.00
J22_15	1890.00	2835.00
J22_16	2025.00	2835.00
J22_17	2160.00	2835.00
J22_18	2295.00	2835.00
J22_19	2430.00	2835.00
J22_20	2565.00	2835.00
J22_21	2700.00	2835.00
J22_22	2835.00	2835.00
J22_23	2970.00	2835.00
J22_24	3105.00	2835.00
J22_25	3240.00	2835.00
J22_26	3375.00	2835.00
J22_27	3510.00	2835.00
J22_28	3645.00	2835.00
J22_29	3780.00	2835.00
J22_30	3915.00	2835.00
J22_31	4050.00	2835.00
J22_32	4185.00	2835.00
J22_33	4320.00	2835.00
J22_34	4455.00	2835.00
J22_35	4590.00	2835.00
J22_36	4725.00	2835.00
J22_37	4860.00	2835.00
J22_38	4995.00	2835.00
J22_39	5130.00	2835.00
J22_40	5265.00	2835.00
J22_41	5400.00	2835.00
J22_42	5535.00	2835.00
J22_43	5670.00	2835.00
J22_44	5805.00	2835.00
J22_45	5940.00	2835.00
J22_46	6075.00	2835.00
J22_47	6210.00	2835.00
J22_48	6345.00	2835.00
J22_49	6480.00	2835.00
J22_50	6615.00	2835.00
J22_51	6750.00	2835.00
J22_52	6885.00	2835.00
J22_53	7020.00	2835.00
J22_54	7155.00	2835.00
J22_55	7290.00	2835.00
J22_56	7425.00	2835.00
J22_57	7560.00	2835.00
J22_58	7695.00	2835.00
J22_59	7830.00	2835.00
J22_60	7965.00	2835.00
J22_61	8100.00	2835.00
J22_62	8235.00	2835.00
J22_63	8370.00	2835.00
J22_64	8505.00	2835.00
J23_1	0.00	2970.00
J23_2	135.00	2970.00
J23_3	270.00	2970.00
J23_4	405.00	2970.00
J23_5	540.00	2970.00
J23_6	675.00	2970.00
J23_7	810.00	2970.00
J23_8	945.00	2970.00
J23_9	1080.00	2970.00
J23_10	1215.00	2970.00
J23_11	1350.00	2970.00
J23_12	1485.00	2970.00
J23_13	1620.00	2970.00
J23_14	1755.00	2970.00
J23_15	1890.00	2970.00
J23_16	2025.00	2970.00
J23_17	2160.00	2970.00
J23_18	2295.00	2970.00
J23_19	2430.00	2970.00
J23_20	2565.00	2970.00
J23_21	2700.00	2970.00
J23_22	2835.00	2970.00
J23_23	2970.00	2970.00
J23_24	3105.00	2970.00
J23_25	3240.00	2970.00
J23_26	3375.00	2970.00
J23_27	3510.00	2970.00
J23_28	3645.00	2970.00
J23_29	3780.00	2970.00
J23_30	3915.00	2970.00
J23_31	4050.00	2970.00
J23_32	4185.00	2970.00
J23_33	4320.00	2970.00
J23_34	4455.00	2970.00
J23_35	4590.00	2970.00
J23_36	4725.00	2970.00
J23_37	4860.00	2970.00
J23_38	4995.00	2970.00
J23_39	5130.00	2970.00
J23_40	5265.00	2970.00
J23_41	5400.00	2970.00
J23_42	5535.00	2970.00
J23_43	5670.00	2970.00
J23_44	5805.00	2970.00
J23_45	5940.00	2970.00
J23_46	6075.00	2970.00
J23_47	6210.00	2970.00
J23_48	6345.00	2970.00
J23_49	6480.00	2970.00
J23_50	6615.00	2970.00
J23_51	6750.00	2970.00
J23_52	6885.00	2970.00
J23_53	7020.00	2970.00
J23_54	7155.00	2970.00
J23_55	7290.00	2970.00
J23_56	7425.00	2970.00
J23_57	7560.00	2970.00
J23_58	7695.00	2970.00
J23_59	7830.00	2970.00
J23_60	7965.00	2970.00
J23_61	8100.00	2970.00
J23_62	8235.00	2970.00
J23_63	8370.00	2970.00
J23_64	8505.00	2970.00
J24_1	0.00	3105.00
J24_2	135.00	3105.00
J24_3	270.00	3105.00
J24_4	405.00	3105.00
J24_5	540.00	3105.00
J24_6	675.00	3105.00
J24_7	810.00	3105.00
J24_8	945.00	3105.00
J24_9	1080.00	3105.00
J24_10	1215.00	3105.00
J24_11	1350.00	3105.00
J24_12	1485.00	3105.00
J24_13	1620.00	3105.00
J24_14	1755.00	3105.00
J24_15	1890.00	3105.00
J24_16	2025.00	3105.00
J24_17	2160.00	3105.00
J24_18	2295.00	3105.00
J24_19	2430.00	3105.00
J24_20	2565.00	3105.00
J24_21	2700.00	3105.00
J24_22	2835.00	3105.00
J24_23	2970.00	3105.00
J24_24	3105.00	3105.00
J24_25	3240.00	3105.00
J24_26	3375.00	3105.00
J24_27	3510.00	3105.00
J24_28	3645.00	3105.00
J24_29	3780.00	3105.00
J24_30	3915.00	3105.00
J24_31	4050.00	3105.00
J24_32	4185.00	3105.00
J24_33	4320.00	3105.00
J24_34	4455.00	3105.00
J24_35	4590.00	3105.00
J24_36	4725.00	3105.00
J24_37	4860.00	3105.00
J24_38	4995.00	3105.00
J24_39	5130.00	3105.00
J24_40	5265.00	3105.00
J24_41	5400.00	3105.00
J24_42	5535.00	3105.00
J24_43	5670.00	3105.00
J24_44	5805.00	3105.00
J24_45	5940.00	3105.00
J24_46	6075.00	3105.00
J24_47	6210.00	3105.00
J24_48	6345.00	3105.00
J24_49	6480.00	3105.00
J24_50	6615.00	3105.00
J24_51	6750.00	3105.00
J24_52	6885.00	3105.00
J24_53	7020.00	3105.00
J24_54	7155.00	3105.00
J24_55	7290.00	3105.00
J24_56	7425.00	3105.00
J24_57	7560.00	3105.00
J24_58	7695.00	3105.00
J24_59	7830.00	3105.00
J24_60	7965.00	3105.00
J24_61	8100.00	3105.00
J24_62	8235.00	3105.00
J24_63	8370.00	3105.00
J24_64	8505.00	3105.00
J25_1	0.00	3240.00
J25_2	135.00	3240.00
J25_3	270.00	3240.00
J25_4	405.00	3240.00
J25_5	540.00	3240.00
J25_6	675.00	3240.00
J25_7	810.00	3240.00
J25_8	945.00	3240.00
J25_9	1080.00	3240.00
J25_10	1215.00	3240.00
J25_11	1350.00	3240.00
J25_12	1485.00	3240.00
J25_13	1620.00	3240.00
J25_14	1755.00	3240.00
J25_15	1890.00	3240.00
J25_16	2025.00	3240.00
J25_17	2160.00	3240.00
J25_18	2295.00	3240.00
J25_19	2430.00	3240.00
J25_20	2565.00	3240.00
J25_21	2700.00	3240.00
J25_22	2835.00	3240.00
J25_23	2970.00	3240.00
J25_24	3105.00	3240.00
J25_25	3240.00	3240.00
J25_26	3375.00	3240.00
J25_27	3510.00	3240.00
J25_28	3645.00	3240.00
J25_29	3780.00	3240.00
J25_30	3915.00	3240.00
J25_31	4050.00	3240.00
J25_32	4185.00	3240.00
J25_33	4320.00	3240.00
J25_34	4455.00	3240.00
J25_35	4590.00	3240.00
J25_36	4725.00	3240.00
J25_37	4860.00	3240.00
J25_38	4995.00	3240.00
J25_39	5130.00	3240.00
J25_40	5265.00	3240.00
J25_41	5400.00	3240.00
J25_42	5535.00	3240.00
J25_43	5670.00	3240.00
J25_44	5805.00	3240.00
J25_45	5940.00	3240.00
J25_46	6075.00	3240.00
J25_47	6210.00	3240.00
J25_48	6345.00	3240.00
J25_49	6480.00	3240.00
J25_50	6615.00	3240.00
J25_51	6750.00	3240.00
J25_52	6885.00	3240.00
J25_53	7020.00	3240.00
J25_54	7155.00	3240.00
J25_55	7290.00	3240.00
J25_56	7425.00	3240.00
J25_57	7560.00	3240.00
J25_58	7695.00	3240.00
J25_59	7830.00	3240.00
J25_60	7965.00	3240.00
J25_61	8100.00	3240.00
J25_62	8235.00	3240.00
J25_63	8370.00	3240.00
J25_64	8505.00	3240.00
J26_1	0.00	3375.00
J26_2	135.00	3375.00
J26_3	270.00	3375.00
J26_4	405.00	3375.00
J26_5	540.00	3375.00
J26_6	675.00	3375.00
J26_7	810.00	3375.00
J26_8	945.00	3375.00
J26_9	1080.00	3375.00
J26_10	1215.00	3375.00
J26_11	1350.00	3375.00
J26_12	1485.00	3375.00
J26_13	1620.00	3375.00
J26_14	1755.00	3375.00
J26_15	1890.00	3375.00
J26_16	2025.00	3375.00
J26_17	2160.00	3375.00
J26_18	2295.00	3375.00
J26_19	2430.00	3375.00
J26_20	2565.00	3375.00
J26_21	2700.00	3375.00
J26_22	2835.00	3375.00
J26_23	2970.00	3375.00
J26_24	3105.00	3375.00
J26_25	3240.00	3375.00
J26_26	3375.00	3375.00
J26_27	3510.00	3375.00
J26_28	3645.00	3375.00
J26_29	3780.00	3375.00
J26_30	3915.00	3375.00
J26_31	4050.00	3375.00
J26_32	4185.00	3375.00
J26_33	4320.00	3375.00
J26_34	4455.00	3375.00
J26_35	4590.00	3375.00
J26_36	4725.00	3375.00
J26_37	4860.00	3375.00
J26_38	4995.00	3375.00
J26_39	5130.00	3375.00
J26_40	5265.00	3375.00
J26_41	5400.00	3375.00
J26_42	5535.00	3375.00
J26_43	5670.00	3375.00
J26_44	5805.00	3375.00
J26_45	5940.00	3375.00
J26_46	6075.00	3375.00
J26_47	6210.00	3375.00
J26_48	6345.00	3375.00
J26_49	6480.00	3375.00
J26_50	6615.00	3375.00
J26_51	6750.00	3375.00
J26_52	6885.00	3375.00
J26_53	7020.00	3375.00
J26_54	7155.00	3375.00
J26_55	7290.00	3375.00
J26_56	7425.00	3375.00
J26_57	7560.00	3375.00
J26_58	7695.00	3375.00
J26_59	7830.00	3375.00
J26_60	7965.00	3375.00
J26_61	8100.00	3375.00
J26_62	8235.00	3375.00
J26_63	8370.00	3375.00
J26_64	8505.00	3375.00
J27_1	0.00	3510.00
J27_2	135.00	3510.00
J27_3	270.00	3510.00
J27_4	405.00	3510.00
J27_5	540.00	3510.00
J27_6	675.00	3510.00
J27_7	810.00	3510.00
J27_8	945.00	3510.00
J27_9	1080.00	3510.00
J27_10	1215.00	3510.00
J27_11	1350.00	3510.00
J27_12	1485.00	3510.00
J27_13	1620.00	3510.00
J27_14	1755.00	3510.00
J27_15	1890.00	3510.00
J27_16	2025.00	3510.00
J27_17	2160.00	3510.00
J27_18	2295.00	3510.00
J27_19	2430.00	3510.00
J27_20	2565.00	3510.00
J27_21	2700.00	3510.00
J27_22	2835.00	3510.00
J27_23	2970.00	3510.00
J27_24	3105.00	3510.00
J27_25	3240.00	3510.00
J27_26	3375.00	3510.00
J27_27	3510.00	3510.00
J27_28	3645.00	3510.00
J27_29	3780.00	3510.00
J27_30	3915.00	3510.00
J27_31	4050.00	3510.00
J27_32	4185.00	3510.00
J27_33	4320.00	3510.00
J27_34	4455.00	3510.00
J27_35	4590.00	3510.00
J27_36	4725.00	3510.00
J27_37	4860.00	3510.00
J27_38	4995.00	3510.00
J27_39	5130.00	3510.00
J27_40	5265.00	3510.00
J27_41	5400.00	3510.00
J27_42	5535.00	3510.00
J27_43	5670.00	3510.00
J27_44	5805.00	3510.00
J27_45	5940.00	3510.00
J27_46	6075.00	3510.00
J27_47	6210.00	3510.00
J27_48	6345.00	3510.00
J27_49	6480.00	3510.00
J27_50	6615.00	3510.00
J27_51	6750.00	3510.00
J27_52	6885.00	3510.00
J27_53	7020.00	3510.00
J27_54	7155.00	3510.00
J27_55	7290.00	3510.00
J27_56	7425.00	3510.00
J27_57	7560.00	3510.00
J27_58	7695.00	3510.00
J27_59	7830.00	3510.00
J27_60	7965.00	3510.00
J27_61	8100.00	3510.00
J27_62	8235.00	3510.00
J27_63	8370.00	3510.00
J27_64	8505.00	3510.00
J28_1	0.00	3645.00
J28_2	135.00	3645.00
J28_3	270.00	3645.00
J28_4	405.00	3645.00
J28_5	540.00	3645.00
J28_6	675.00	3645.00
J28_7	810.00	3645.00
J28_8	945.00	3645.00
J28_9	1080.00	3645.00
J28_10	1215.00	3645.00
J28_11	1350.00	3645.00
J28_12	1485.00	3645.00
J28_13	1620.00	3645.00
J28_14	1755.00	3645.00
J28_15	1890.00	3645.00
J28_16	2025.00	3645.00
J28_17	2160.00	3645.00
J28_18	2295.00	3645.00
J28_19	2430.00	3645.00
J28_20	2565.00	3645.00
J28_21	2700.00	3645.00
J28_22	2835.00	3645.00
J28_23	2970.00	3645.00
J28_24	3105.00	3645.00
J28_25	3240.00	3645.00
J28_26	3375.00	3645.00
J28_27	3510.00	3645.00
J28_28	3645.00	3645.00
J28_29	3780.00	3645.00
J28_30	3915.00	3645.00
J28_31	4050.00	3645.00
J28_32	4185.00	3645.00
J28_33	4320.00	3645.00
J28_34	4455.00	3645.00
J28_35	4590.00	3645.00
J28_36	4725.00	3645.00
J28_37	4860.00	3645.00
J28_38	4995.00	3645.00
J28_39	5130.00	3645.00
J28_40	5265.00	3645.00
J28_41	5400.00	3645.00
J28_42	5535.00	3645.00
J28_43	5670.00	3645.00
J28_44	5805.00	3645.00
J28_45	5940.00	3645.00
J28_46	6075.00	3645.00
J28_47	6210.00	3645.00
J28_48	6345.00	3645.00
J28_49	6480.00	3645.00
J28_50	6615.00	3645.00
J28_51	6750.00	3645.00
J28_52	6885.00	3645.00
J28_53	7020.00	3645.00
J28_54	7155.00	3645.00
J28_55	7290.00	3645.00
J28_56	7425.00	3645.00
J28_57	7560.00	3645.00
J28_58	7695.00	3645.00
J28_59	7830.00	3645.00
J28_60	7965.00	3645.00
J28_61	8100.00	3645.00
J28_62	8235.00	3645.00
J28_63	8370.00	3645.00
J28_64	8505.00	3645.00
J29_1	0.00	3780.00
J29_2	135.00	3780.00
J29_3	270.00	3780.00
J29_4	405.00	3780.00
J29_5	540.00	3780.00
J29_6	675.00	3780.00
J29_7	810.00	3780.00
J29_8	945.00	3780.00
J29_9	1080.00	3780.00
J29_10	1215.00	3780.00
J29_11	1350.00	3780.00
J29_12	1485.00	3780.00
J29_13	1620.00	3780.00
J29_14	1755.00	3780.00
J29_15	1890.00	3780.00
J29_16	2025.00	3780.00
J29_17	2160.00	3780.00
J29_18	2295.00	3780.00
J29_19	2430.00	3780.00
J29_20	2565.00	3780.00
J29_21	2700.00	3780.00
J29_22	2835.00	3780.00
J29_23	2970.00	3780.00
J29_24	3105.00	3780.00
J29_25	3240.00	3780.00
J29_26	3375.00	3780.00
J29_27	3510.00	3780.00
J29_28	3645.00	3780.00
J29_29	3780.00	3780.00
J29_30	3915.00	3780.00
J29_31	4050.00	3780.00
J29_32	4185.00	3780.00
J29_33	4320.00	3780.00
J29_34	4455.00	3780.00
J29_35	4590.00	3780.00
J29_36	4725.00	3780.00
J29_37	4860.00	3780.00
J29_38	4995.00	3780.00
J29_39	5130.00	3780.00
J29_40	5265.00	3780.00
J29_41	5400.00	3780.00
J29_42	5535.00	3780.00
J29_43	5670.00	3780.00
J29_44	5805.00	3780.00
J29_45	5940.00	3780.00
J29_46	6075.00	3780.00
J29_47	6210.00	3780.00
J29_48	6345.00	3780.00
J29_49	6480.00	3780.00
J29_50	6615.00	3780.00
J29_51	6750.00	3780.00
J29_52	6885.00	3780.00
J29_53	7020.00	3780.00
J29_54	7155.00	3780.00
J29_55	7290.00	3780.00
J29_56	7425.00	3780.00
J29_57	7560.00	3780.00
J29_58	7695.00	3780.00
J29_59	7830.00	3780.00
J29_60	7965.00	3780.00
J29_61	8100.00	3780.00
J29_62	8235.00	3780.00
J29_63	8370.00	3780.00
J29_64	8505.00	3780.00
J30_1	0.00	3915.00
J30_2	135.00	3915.00
J30_3	270.00	3915.00
J30_4	405.00	3915.00
J30_5	540.00	3915.00
J30_6	675.00	3915.00
J30_7	810.00	3915.00
J30_8	945.00	3915.00
J30_9	1080.00	3915.00
J30_10	1215.00	3915.00
J30_11	1350.00	3915.00
J30_12	1485.00	3915.00
J30_13	1620.00	3915.00
J30_14	1755.00	3915.00
J30_15	1890.00	3915.00
J30_16	2025.00	3915.00
J30_17	2160.00	3915.00
J30_18	2295.00	3915.00
J30_19	2430.00	3915.00
J30_20	2565.00	3915.00
J30_21	2700.00	3915.00
J30_22	2835.00	3915.00
J30_23	2970.00	3915.00
J30_24	3105.00	3915.00
J30_25	3240.00	3915.00
J30_26	3375.00	3915.00
J30_27	3510.00	3915.00
J30_28	3645.00	3915.00
J30_29	3780.00	3915.00
J30_30	3915.00	3915.00
J30_31	4050.00	3915.00
J30_32	4185.00	3915.00
J30_33	4320.00	3915.00
J30_34	4455.00	3915.00
J30_35	4590.00	3915.00
J30_36	4725.00	3915.00
J30_37	4860.00	3915.00
J30_38	4995.00	3915.00
J30_39	5130.00	3915.00
J30_40	5265.00	3915.00
J30_41	5400.00	3915.00
J30_42	5535.00	3915.00
J30_43	5670.00	3915.00
J30_44	5805.00	3915.00
J30_45	5940.00	3915.00
J30_46	6075.00	3915.00
J30_47	6210.00	3915.00
J30_48	6345.00	3915.00
J30_49	6480.00	3915.00
J30_50	6615.00	3915.00
J30_51	6750.00	3915.00
J30_52	6885.00	3915.00
J30_53	7020.00	3915.00
J30_54	7155.00	3915.00
J30_55	7290.00	3915.00
J30_56	7425.00	3915.00
J30_57	7560.00	3915.00
J30_58	7695.00	3915.00
J30_59	7830.00	3915.00
J30_60	7965.00	3915.00
J30_61	8100.00	3915.00
J30_62	8235.00	3915.00
J30_63	8370.00	3915.00
J30_64	8505.00	3915.00
J31_1	0.00	4050.00
J31_2	135.00	4050.00
J31_3	270.00	4050.00
J31_4	405.00	4050.00
J31_5	540.00	4050.00
J31_6	675.00	4050.00
J31_7	810.00	4050.00
J31_8	945.00	4050.00
J31_9	1080.00	4050.00
J31_10	1215.00	4050.00
J31_11	1350.00	4050.00
J31_12	1485.00	4050.00
J31_13	1620.00	4050.00
J31_14	1755.00	4050.00
J31_15	1890.00	4050.00
J31_16	2025.00	4050.00
J31_17	2160.00	4050.00
J31_18	2295.00	4050.00
J31_19	2430.00	4050.00
J31_20	2565.00	4050.00
J31_21	2700.00	4050.00
J31_22	2835.00	4050.00
J31_23	2970.00	4050.00
J31_24	3105.00	4050.00
J31_25	3240.00	4050.00
J31_26	3375.00	4050.00
J31_27	3510.00	4050.00
J31_28	3645.00	4050.00
J31_29	3780.00	4050.00
J31_30	3915.00	4050.00
J31_31	4050.00	4050.00
J31_32	4185.00	4050.00
J31_33	4320.00	4050.00
J31_34	4455.00	4050.00
J31_35	4590.00	4050.00
J31_36	4725.00	4050.00
J31_37	4860.00	4050.00
J31_38	4995.00	4050.00
J31_39	5130.00	4050.00
J31_40	5265.00	4050.00
J31_41	5400.00	4050.00
J31_42	5535.00	4050.00
J31_43	5670.00	4050.00
J31_44	5805.00	4050.00
J31_45	5940.00	4050.00
J31_46	6075.00	4050.00
J31_47	6210.00	4050.00
J31_48	6345.00	4050.00
J31_49	6480.00	4050.00
J31_50	6615.00	4050.00
J31_51	6750.00	4050.00
J31_52	6885.00	4050.00
J31_53	7020.00	4050.00
J31_54	7155.00	4050.00
J31_55	7290.00	4050.00
J31_56	7425.00	4050.00
J31_57	7560.00	4050.00
J31_58	7695.00	4050.00
J31_59	7830.00	4050.00
J31_60	7965.00	4050.00
J31_61	8100.00	4050.00
J31_62	8235.00	4050.00
J31_63	8370.00	4050.00
J31_64	8505.00	4050.00
J32_1	0.00	4185.00
J32_2	135.00	4185.00
J32_3	270.00	4185.00
J32_4	405.00	4185.00
J32_5	540.00	4185.00
J32_6	675.00	4185.00
J32_7	810.00	4185.00
J32_8	945.00	4185.00
J32_9	1080.00	4185.00
J32_10	1215.00	4185.00
J32_11	1350.00	4185.00
J32_12	1485.00	4185.00
J32_13	1620.00	4185.00
J32_14	1755.00	4185.00
J32_15	1890.00	4185.00
J32_16	2025.00	4185.00
J32_17	2160.00	4185.00
J32_18	2295.00	4185.00
J32_19	2430.00	4185.00
J32_20	2565.00	4185.00
J32_21	2700.00	4185.00
J32_22	2835.00	4185.00
J32_23	2970.00	4185.00
J32_24	3105.00	4185.00
J32_25	3240.00	4185.00
J32_26	3375.00	4185.00
J32_27	3510.00	4185.00
J32_28	3645.00	4185.00
J32_29	3780.00	4185.00
J32_30	3915.00	4185.00
J32_31	4050.00	4185.00
J32_32	4185.00	4185.00
J32_33	4320.00	4185.00
J32_34	4455.00	4185.00
J32_35	4590.00	4185.00
J32_36	4725.00	4185.00
J32_37	4860.00	4185.00
J32_38	4995.00	4185.00
J32_39	5130.00	4185.00
J32_40	5265.00	4185.00
J32_41	5400.00	4185.00
J32_42	5535.00	4185.00
J32_43	5670.00	4185.00
J32_44	5805.00	4185.00
J32_45	5940.00	4185.00
J32_46	6075.00	4185.00
J32_47	6210.00	4185.00
J32_48	6345.00	4185.00
J32_49	6480.00	4185.00
J32_50	6615.00	4185.00
J32_51	6750.00	4185.00
J32_52	6885.00	4185.00
J32_53	7020.00	4185.00
J32_54	7155.00	4185.00
J32_55	7290.00	4185.00
J32_56	7425.00	4185.00
J32_57	7560.00	4185.00
J32_58	7695.00	4185.00
J32_59	7830.00	4185.00
J32_60	7965.00	4185.00
J32_61	8100.00	4185.00
J32_62	8235.00	4185.00
J32_63	8370.00	4185.00
J32_64	8505.00	4185.00
J33_1	0.00	4320.00
J33_2	135.00	4320.00
J33_3	270.00	4320.00
J33_4	405.00	4320.00
J33_5	540.00	4320.00
J33_6	675.00	4320.00
J33_7	810.00	4320.00
J33_8	945.00	4320.00
J33_9	1080.00	4320.00
J33_10	1215.00	4320.00
J33_11	1350.00	4320.00
J33_12	1485.00	4320.00
J33_13	1620.00	4320.00
J33_14	1755.00	4320.00
J33_15	1890.00	4320.00
J33_16	2025.00	4320.00
J33_17	2160.00	4320.00
J33_18	2295.00	4320.00
J33_19	2430.00	4320.00
J33_20	2565.00	4320.00
J33_21	2700.00	4320.00
J33_22	2835.00	4320.00
J33_23	2970.00	4320.00
J33_24	3105.00	4320.00
J33_25	3240.00	4320.00
J33_26	3375.00	4320.00
J33_27	3510.00	4320.00
J33_28	3645.00	4320.00
J33_29	3780.00	4320.00
J33_30	3915.00	4320.00
J33_31	4050.00	4320.00
J33_32	4185.00	4320.00
J33_33	4320.00	4320.00
J33_34	4455.00	4320.00
J33_35	4590.00	4320.00
J33_36	4725.00	4320.00
J33_37	4860.00	4320.00
J33_38	4995.00	4320.00
J33_39	5130.00	4320.00
J33_40	5265.00	4320.00
J33_41	5400.00	4320.00
J33_42	5535.00	4320.00
J33_43	5670.00	4320.00
J33_44	5805.00	4320.00
J33_45	5940.00	4320.00
J33_46	6075.00	4320.00
J33_47	6210.00	4320.00
J33_48	6345.00	4320.00
J33_49	6480.00	4320.00
J33_50	6615.00	4320.00
J33_51	6750.00	4320.00
J33_52	6885.00	4320.00
J33_53	7020.00	4320.00
J33_54	7155.00	4320.00
J33_55	7290.00	4320.00
J33_56	7425.00	4320.00
J33_57	7560.00	4320.00
J33_58	7695.00	4320.00
J33_59	7830.00	4320.00
J33_60	7965.00	4320.00
J33_61	8100.00	4320.00
J33_62	8235.00	4320.00
J33_63	8370.00	4320.00
J33_64	8505.00	4320.00
J34_1	0.00	4455.00
J34_2	135.00	4455.00
J34_3	270.00	4455.00
J34_4	405.00	4455.00
J34_5	540.00	4455.00
J34_6	675.00	4455.00
J34_7	810.00	4455.00
J34_8	945.00	4455.00
J34_9	1080.00	4455.00
J34_10	1215.00	4455.00
J34_11	1350.00	4455.00
J34_12	1485.00	4455.00
J34_13	1620.00	4455.00
J34_14	1755.00	4455.00
J34_15	1890.00	4455.00
J34_16	2025.00	4455.00
J34_17	2160.00	4455.00
J34_18	2295.00	4455.00
J34_19	2430.00	4455.00
J34_20	2565.00	4455.00
J34_21	2700.00	4455.00
J34_22	2835.00	4455.00
J34_23	2970.00	4455.00
J34_24	3105.00	4455.00
J34_25	3240.00	4455.00
J34_26	3375.00	4455.00
J34_27	3510.00	4455.00
J34_28	3645.00	4455.00
J34_29	3780.00	4455.00
J34_30	3915.00	4455.00
J34_31	4050.00	4455.00
J34_32	4185.00	4455.00
J34_33	4320.00	4455.00
J34_34	4455.00	4455.00
J34_35	4590.00	4455.00
J34_36	4725.00	4455.00
J34_37	4860.00	4455.00
J34_38	4995.00	4455.00
J34_39	5130.00	4455.00
J34_40	5265.00	4455.00
J34_41	5400.00	4455.00
J34_42	5535.00	4455.00
J34_43	5670.00	4455.00
J34_44	5805.00	4455.00
J34_45	5940.00	4455.00
J34_46	6075.00	4455.00
J34_47	6210.00	4455.00
J34_48	6345.00	4455.00
J34_49	6480.00	4455.00
J34_50	6615.00	4455.00
J34_51	6750.00	4455.00
J34_52	6885.00	4455.00
J34_53	7020.00	4455.00
J34_54	7155.00	4455.00
J34_55	7290.00	4455.00
J34_56	7425.00	4455.00
J34_57	7560.00	4455.00
J34_58	7695.00	4455.00
J34_59	7830.00	4455.00
J34_60	7965.00	4455.00
J34_61	8100.00	4455.00
J34_62	8235.00	4455.00
J34_63	8370.00	4455.00
J34_64	8505.00	4455.00
J35_1	0.00	4590.00
J35_2	135.00	4590.00
J35_3	270.00	4590.00
J35_4	405.00	4590.00
J35_5	540.00	4590.00
J35_6	675.00	4590.00
J35_7	810.00	4590.00
J35_8	945.00	4590.00
J35_9	1080.00	4590.00
J35_10	1215.00	4590.00
J35_11	1350.00	4590.00
J35_12	1485.00	4590.00
J35_13	1620.00	4590.00
J35_14	1755.00	4590.00
J35_15	1890.00	4590.00
J35_16	2025.00	4590.00
J35_17	2160.00	4590.00
J35_18	2295.00	4590.00
J35_19	2430.00	4590.00
J35_20	2565.00	4590.00
J35_21	2700.00	4590.00
J35_22	2835.00	4590.00
J35_23	2970.00	4590.00
J35_24	3105.00	4590.00
J35_25	3240.00	4590.00
J35_26	3375.00	4590.00
J35_27	3510.00	4590.00
J35_28	3645.00	4590.00
J35_29	3780.00	4590.00
J35_30	3915.00	4590.00
J35_31	4050.00	4590.00
J35_32	4185.00	4590.00
J35_33	4320.00	4590.00
J35_34	4455.00	4590.00
J35_35	4590.00	4590.00
J35_36	4725.00	4590.00
J35_37	4860.00	4590.00
J35_38	4995.00	4590.00
J35_39	5130.00	4590.00
J35_40	5265.00	4590.00
J35_41	5400.00	4590.00
J35_42	5535.00	4590.00
J35_43	5670.00	4590.00
J35_44	5805.00	4590.00
J35_45	5940.00	4590.00
J35_46	6075.00	4590.00
J35_47	6210.00	4590.00
J35_48	6345.00	4590.00
J35_49	6480.00	4590.00
J35_50	6615.00	4590.00
J35_51	6750.00	4590.00
J35_52	6885.00	4590.00
J35_53	7020.00	4590.00
J35_54	7155.00	4590.00
J35_55	7290.00	4590.00
J35_56	7425.00	4590.00
J35_57	7560.00	4590.00
J35_58	7695.00	4590.00
J35_59	7830.00	4590.00
J35_60	7965.00	4590.00
J35_61	8100.00	4590.00
J35_62	8235.00	4590.00
J35_63	8370.00	4590.00
J35_64	8505.00	4590.00
J36_1	0.00	4725.00
J36_2	135.00	4725.00
J36_3	270.00	4725.00
J36_4	405.00	4725.00
J36_5	540.00	4725.00
J36_6	675.00	4725.00
J36_7	810.00	4725.00
J36_8	945.00	4725.00
J36_9	1080.00	4725.00
J36_10	1215.00	4725.00
J36_11	1350.00	4725.00
J36_12	1485.00	4725.00
J36_13	1620.00	4725.00
J36_14	1755.00	4725.00
J36_15	1890.00	4725.00
J36_16	2025.00	4725.00
J36_17	2160.00	4725.00
J36_18	2295.00	4725.00
J36_19	2430.00	4725.00
J36_20	2565.00	4725.00
J36_21	2700.00	4725.00
J36_22	2835.00	4725.00
J36_23	2970.00	4725.00
J36_24	3105.00	4725.00
J36_25	3240.00	4725.00
J36_26	3375.00	4725.00
J36_27	3510.00	4725.00
J36_28	3645.00	4725.00
J36_29	3780.00	4725.00
J36_30	3915.00	4725.00
J36_31	4050.00	4725.00
J36_32	4185.00	4725.00
J36_33	4320.00	4725.00
J36_34	4455.00	4725.00
J36_35	4590.00	4725.00
J36_36	4725.00	4725.00
J36_37	4860.00	4725.00
J36_38	4995.00	4725.00
J36_39	5130.00	4725.00
J36_40	5265.00	4725.00
J36_41	5400.00	4725.00
J36_42	5535.00	4725.00
J36_43	5670.00	4725.00
J36_44	5805.00	4725.00
J36_45	5940.00	4725.00
J36_46	6075.00	4725.00
J36_47	6210.00	4725.00
J36_48	6345.00	4725.00
J36_49	6480.00	4725.00
J36_50	6615.00	4725.00
J36_51	6750.00	4725.00
J36_52	6885.00	4725.00
J36_53	7020.00	4725.00
J36_54	7155.00	4725.00
J36_55	7290.00	4725.00
J36_56	7425.00	4725.00
J36_57	7560.00	4725.00
J36_58	7695.00	4725.00
J36_59	7830.00	4725.00
J36_60	7965.00	4725.00
J36_61	8100.00	4725.00
J36_62	8235.00	4725.00
J36_63	8370.00	4725.00
J36_64	8505.00	4725.00
J37_1	0.00	4860.00
J37_2	135.00	4860.00
J37_3	270.00	4860.00
J37_4	405.00	4860.00
J37_5	540.00	4860.00
J37_6	675.00	4860.00
J37_7	810.00	4860.00
J37_8	945.00	4860.00
J37_9	1080.00	4860.00
J37_10	1215.00	4860.00
J37_11	1350.00	4860.00
J37_12	1485.00	4860.00
J37_13	1620.00	4860.00
J37_14	1755.00	4860.00
J37_15	1890.00	4860.00
J37_16	2025.00	4860.00
J37_17	2160.00	4860.00
J37_18	2295.00	4860.00
J37_19	2430.00	4860.00
J37_20	2565.00	4860.00
J37_21	2700.00	4860.00
J37_22	2835.00	4860.00
J37_23	2970.00	4860.00
J37_24	3105.00	4860.00
J37_25	3240.00	4860.00
J37_26	3375.00	4860.00
J37_27	3510.00	4860.00
J37_28	3645.00	4860.00
J37_29	3780.00	4860.00
J37_30	3915.00	4860.00
J37_31	4050.00	4860.00
J37_32	4185.00	4860.00
J37_33	4320.00	4860.00
J37_34	4455.00	4860.00
J37_35	4590.00	4860.00
J37_36	4725.00	4860.00
J37_37	4860.00	4860.00
J37_38	4995.00	4860.00
J37_39	5130.00	4860.00
J37_40	5265.00	4860.00
J37_41	5400.00	4860.00
J37_42	5535.00	4860.00
J37_43	5670.00	4860.00
J37_44	5805.00	4860.00
J37_45	5940.00	4860.00
J37_46	6075.00	4860.00
J37_47	6210.00	4860.00
J37_48	6345.00	4860.00
J37_49	6480.00	4860.00
J37_50	6615.00	4860.00
J37_51	6750.00	4860.00
J37_52	6885.00	4860.00
J37_53	7020.00	4860.00
J37_54	7155.00	4860.00
J37_55	7290.00	4860.00
J37_56	7425.00	4860.00
J37_57	7560.00	4860.00
J37_58	7695.00	4860.00
J37_59	7830.00	4860.00
J37_60	7965.00	4860.00
J37_61	8100.00	4860.00
J37_62	8235.00	4860.00
J37_63	8370.00	4860.00
J37_64	8505.00	4860.00
J38_1	0.00	4995.00
J38_2	135.00	4995.00
J38_3	270.00	4995.00
J38_4	405.00	4995.00
J38_5	540.00	4995.00
J38_6	675.00	4995.00
J38_7	810.00	4995.00
J38_8	945.00	4995.00
J38_9	1080.00	4995.00
J38_10	1215.00	4995.00
J38_11	1350.00	4995.00
J38_12	1485.00	4995.00
J38_13	1620.00	4995.00
J38_14	1755.00	4995.00
J38_15	1890.00	4995.00
J38_16	2025.00	4995.00
J38_17	2160.00	4995.00
J38_18	2295.00	4995.00
J38_19	2430.00	4995.00
J38_20	2565.00	4995.00
J38_21	2700.00	4995.00
J38_22	2835.00	4995.00
J38_23	2970.00	4995.00
J38_24	3105.00	4995.00
J38_25	3240.00	4995.00
J38_26	3375.00	4995.00
J38_27	3510.00	4995.00
J38_28	3645.00	4995.00
J38_29	3780.00	4995.00
J38_30	3915.00	4995.00
J38_31	4050.00	4995.00
J38_32	4185.00	4995.00
J38_33	4320.00	4995.00
J38_34	4455.00	4995.00
J38_35	4590.00	4995.00
J38_36	4725.00	4995.00
J38_37	4860.00	4995.00
J38_38	4995.00	4995.00
J38_39	5130.00	4995.00
J38_40	5265.00	4995.00
J38_41	5400.00	4995.00
J38_42	5535.00	4995.00
J38_43	5670.00	4995.00
J38_44	5805.00	4995.00
J38_45	5940.00	4995.00
J38_46	6075.00	4995.00
J38_47	6210.00	4995.00
J38_48	6345.00	4995.00
J38_49	6480.00	4995.00
J38_50	6615.00	4995.00
J38_51	6750.00	4995.00
J38_52	6885.00	4995.00
J38_53	7020.00	4995.00
J38_54	7155.00	4995.00
J38_55	7290.00	4995.00
J38_56	7425.00	4995.00
J38_57	7560.00	4995.00
J38_58	7695.00	4995.00
J38_59	7830.00	4995.00
J38_60	7965.00	4995.00
J38_61	8100.00	4995.00
J38_62	8235.00	4995.00
J38_63	8370.00	4995.00
J38_64	8505.00	4995.00
J39_1	0.00	5130.00
J39_2	135.00	5130.00
J39_3	270.00	5130.00
J39_4	405.00	5130.00
J39_5	540.00	5130.00
J39_6	675.00	5130.00
J39_7	810.00	5130.00
J39_8	945.00	5130.00
J39_9	1080.00	5130.00
J39_10	1215.00	5130.00
J39_11	1350.00	5130.00
J39_12	1485.00	5130.00
J39_13	1620.00	5130.00
J39_14	1755.00	5130.00
J39_15	1890.00	5130.00
J39_16	2025.00	5130.00
J39_17	2160.00	5130.00
J39_18	2295.00	5130.00
J39_19	2430.00	5130.00
J39_20	2565.00	5130.00
J39_21	2700.00	5130.00
J39_22	2835.00	5130.00
J39_23	2970.00	5130.00
J39_24	3105.00	5130.00
J39_25	3240.00	5130.00
J39_26	3375.00	5130.00
J39_27	3510.00	5130.00
J39_28	3645.00	5130.00
J39_29	3780.00	5130.00
J39_30	3915.00	5130.00
J39_31	4050.00	5130.00
J39_32	4185.00	5130.00
J39_33	4320.00	5130.00
J39_34	4455.00	5130.00
J39_35	4590.00	5130.00
J39_36	4725.00	5130.00
J39_37	4860.00	5130.00
J39_38	4995.00	5130.00
J39_39	5130.00	5130.00
J39_40	5265.00	5130.00
J39_41	5400.00	5130.00
J39_42	5535.00	5130.00
J39_43	5670.00	5130.00
J39_44	5805.00	5130.00
J39_45	5940.00	5130.00
J39_46	6075.00	5130.00
J39_47	6210.00	5130.00
J39_48	6345.00	5130.00
J39_49	6480.00	5130.00
J39_50	6615.00	5130.00
J39_51	6750.00	5130.00
J39_52	6885.00	5130.00
J39_53	7020.00	5130.00
J39_54	7155.00	5130.00
J39_55	7290.00	5130.00
J39_56	7425.00	5130.00
J39_57	7560.00	5130.00
J39_58	7695.00	5130.00
J39_59	7830.00	5130.00
J39_60	7965.00	5130.00
J39_61	8100.00	5130.00
J39_62	8235.00	5130.00
J39_63	8370.00	5130.00
J39_64	8505.00	5130.00
J40_1	0.00	5265.00
J40_2	135.00	5265.00
J40_3	270.00	5265.00
J40_4	405.00	5265.00
J40_5	540.00	5265.00
J40_6	675.00	5265.00
J40_7	810.00	5265.00
J40_8	945.00	5265.00
J40_9	1080.00	5265.00
J40_10	1215.00	5265.00
J40_11	1350.00	5265.00
J40_12	1485.00	5265.00
J40_13	1620.00	5265.00
J40_14	1755.00	5265.00
J40_15	1890.00	5265.00
J40_16	2025.00	5265.00
J40_17	2160.00	5265.00
J40_18	2295.00	5265.00
J40_19	2430.00	5265.00
J40_20	2565.00	5265.00
J40_21	2700.00	5265.00
J40_22	2835.00	5265.00
J40_23	2970.00	5265.00
J40_24	3105.00	5265.00
J40_25	3240.00	5265.00
J40_26	3375.00	5265.00
J40_27	3510.00	5265.00
J40_28	3645.00	5265.00
J40_29	3780.00	5265.00
J40_30	3915.00	5265.00
J40_31	4050.00	5265.00
J40_32	4185.00	5265.00
J40_33	4320.00	5265.00
J40_34	4455.00	5265.00
J40_35	4590.00	5265.00
J40_36	4725.00	5265.00
J40_37	4860.00	5265.00
J40_38	4995.00	5265.00
J40_39	5130.00	5265.00
J40_40	5265.00	5265.00
J40_41	5400.00	5265.00
J40_42	5535.00	5265.00
J40_43	5670.00	5265.00
J40_44	5805.00	5265.00
J40_45	5940.00	5265.00
J40_46	6075.00	5265.00
J40_47	6210.00	5265.00
J40_48	6345.00	5265.00
J40_49	6480.00	5265.00
J40_50	6615.00	5265.00
J40_51	6750.00	5265.00
J40_52	6885.00	5265.00
J40_53	7020.00	5265.00
J40_54	7155.00	5265.00
J40_55	7290.00	5265.00
J40_56	7425.00	5265.00
J40_57	7560.00	5265.00
J40_58	7695.00	5265.00
J40_59	7830.00	5265.00
J40_60	7965.00	5265.00
J40_61	8100.00	5265.00
J40_62	8235.00	5265.00
J40_63	8370.00	5265.00
J40_64	8505.00	5265.00
J41_1	0.00	5400.00
J41_2	135.00	5400.00
J41_3	270.00	5400.00
J41_4	405.00	5400.00
J41_5	540.00	5400.00
J41_6	675.00	5400.00
J41_7	810.00	5400.00
J41_8	945.00	5400.00
J41_9	1080.00	5400.00
J41_10	1215.00	5400.00
J41_11	1350.00	5400.00
J41_12	1485.00	5400.00
J41_13	1620.00	5400.00
J41_14	1755.00	5400.00
J41_15	1890.00	5400.00
J41_16	2025.00	5400.00
J41_17	2160.00	5400.00
J41_18	2295.00	5400.00
J41_19	2430.00	5400.00
J41_20	2565.00	5400.00
J41_21	2700.00	5400.00
J41_22	2835.00	5400.00
J41_23	2970.00	5400.00
J41_24	3105.00	5400.00
J41_25	3240.00	5400.00
J41_26	3375.00	5400.00
J41_27	3510.00	5400.00
J41_28	3645.00	5400.00
J41_29	3780.00	5400.00
J41_30	3915.00	5400.00
J41_31	4050.00	5400.00
J41_32	4185.00	5400.00
J41_33	4320.00	5400.00
J41_34	4455.00	5400.00
J41_35	4590.00	5400.00
J41_36	4725.00	5400.00
J41_37	4860.00	5400.00
J41_38	4995.00	5400.00
J41_39	5130.00	5400.00
J41_40	5265.00	5400.00
J41_41	5400.00	5400.00
J41_42	5535.00	5400.00
J41_43	5670.00	5400.00
J41_44	5805.00	5400.00
J41_45	5940.00	5400.00
J41_46	6075.00	5400.00
J41_47	6210.00	5400.00
J41_48	6345.00	5400.00
J41_49	6480.00	5400.00
J41_50	6615.00	5400.00
J41_51	6750.00	5400.00
J41_52	6885.00	5400.00
J41_53	7020.00	5400.00
J41_54	7155.00	5400.00
J41_55	7290.00	5400.00
J41_56	7425.00	5400.00
J41_57	7560.00	5400.00
J41_58	7695.00	5400.00
J41_59	7830.00	5400.00
J41_60	7965.00	5400.00
J41_61	8100.00	5400.00
J41_62	8235.00	5400.00
J41_63	8370.00	5400.00
J41_64	8505.00	5400.00
J42_1	0.00	5535.00
J42_2	135.00	5535.00
J42_3	270.00	5535.00
J42_4	405.00	5535.00
J42_5	540.00	5535.00
J42_6	675.00	5535.00
J42_7	810.00	5535.00
J42_8	945.00	5535.00
J42_9	1080.00	5535.00
J42_10	1215.00	5535.00
J42_11	1350.00	5535.00
J42_12	1485.00	5535.00
J42_13	1620.00	5535.00
J42_14	1755.00	5535.00
J42_15	1890.00	5535.00
J42_16	2025.00	5535.00
J42_17	2160.00	5535.00
J42_18	2295.00	5535.00
J42_19	2430.00	5535.00
J42_20	2565.00	5535.00
J42_21	2700.00	5535.00
J42_22	2835.00	5535.00
J42_23	2970.00	5535.00
J42_24	3105.00	5535.00
J42_25	3240.00	5535.00
J42_26	3375.00	5535.00
J42_27	3510.00	5535.00
J42_28	3645.00	5535.00
J42_29	3780.00	5535.00
J42_30	3915.00	5535.00
J42_31	4050.00	5535.00
J42_32	4185.00	5535.00
J42_33	4320.00	5535.00
J42_34	4455.00	5535.00
J42_35	4590.00	5535.00
J42_36	4725.00	5535.00
J42_37	4860.00	5535.00
J42_38	4995.00	5535.00
J42_39	5130.00	5535.00
J42_40	5265.00	5535.00
J42_41	5400.00	5535.00
J42_42	5535.00	5535.00
J42_43	5670.00	5535.00
J42_44	5805.00	5535.00
J42_45	5940.00	5535.00
J42_46	6075.00	5535.00
J42_47	6210.00	5535.00
J42_48	6345.00	5535.00
J42_49	6480.00	5535.00
J42_50	6615.00	5535.00
J42_51	6750.00	5535.00
J42_52	6885.00	5535.00
J42_53	7020.00	5535.00
J42_54	7155.00	5535.00
J42_55	7290.00	5535.00
J42_56	7425.00	5535.00
J42_57	7560.00	5535.00
J42_58	7695.00	5535.00
J42_59	7830.00	5535.00
J42_60	7965.00	5535.00
J42_61	8100.00	5535.00
J42_62	8235.00	5535.00
J42_63	8370.00	5535.00
J42_64	8505.00	5535.00
J43_1	0.00	5670.00
J43_2	135.00	5670.00
J43_3	270.00	5670.00
J43_4	405.00	5670.00
J43_5	540.00	5670.00
J43_6	675.00	5670.00
J43_7	810.00	5670.00
J43_8	945.00	5670.00
J43_9	1080.00	5670.00
J43_10	1215.00	5670.00
J43_11	1350.00	5670.00
J43_12	1485.00	5670.00
J43_13	1620.00	5670.00
J43_14	1755.00	5670.00
J43_15	1890.00	5670.00
J43_16	2025.00	5670.00
J43_17	2160.00	5670.00
J43_18	2295.00	5670.00
J43_19	2430.00	5670.00
J43_20	2565.00	5670.00
J43_21	2700.00	5670.00
J43_22	2835.00	5670.00
J43_23	2970.00	5670.00
J43_24	3105.00	5670.00
J43_25	3240.00	5670.00
J43_26	3375.00	5670.00
J43_27	3510.00	5670.00
J43_28	3645.00	5670.00
J43_29	3780.00	5670.00
J43_30	3915.00	5670.00
J43_31	4050.00	5670.00
J43_32	4185.00	5670.00
J43_33	4320.00	5670.00
J43_34	4455.00	5670.00
J43_35	4590.00	5670.00
J43_36	4725.00	5670.00
J43_37	4860.00	5670.00
J43_38	4995.00	5670.00
J43_39	5130.00	5670.00
J43_40	5265.00	5670.00
J43_41	5400.00	5670.00
J43_42	5535.00	5670.00
J43_43	5670.00	5670.00
J43_44	5805.00	5670.00
J43_45	5940.00	5670.00
J43_46	6075.00	5670.00
J43_47	6210.00	5670.00
J43_48	6345.00	5670.00
J43_49	6480.00	5670.00
J43_50	6615.00	5670.00
J43_51	6750.00	5670.00
J43_52	6885.00	5670.00
J43_53	7020.00	5670.00
J43_54	7155.00	5670.00
J43_55	7290.00	5670.00
J43_56	7425.00	5670.00
J43_57	7560.00	5670.00
J43_58	7695.00	5670.00
J43_59	7830.00	5670.00
J43_60	7965.00	5670.00
J43_61	8100.00	5670.00
J43_62	8235.00	5670.00
J43_63	8370.00	5670.00
J43_64	8505.00	5670.00
J44_1	0.00	5805.00
J44_2	135.00	5805.00
J44_3	270.00	5805.00
J44_4	405.00	5805.00
J44_5	540.00	5805.00
J44_6	675.00	5805.00
J44_7	810.00	5805.00
J44_8	945.00	5805.00
J44_9	1080.00	5805.00
J44_10	1215.00	5805.00
J44_11	1350.00	5805.00
J44_12	1485.00	5805.00
J44_13	1620.00	5805.00
J44_14	1755.00	5805.00
J44_15	1890.00	5805.00
J44_16	2025.00	5805.00
J44_17	2160.00	5805.00
J44_18	2295.00	5805.00
J44_19	2430.00	5805.00
J44_20	2565.00	5805.00
J44_21	2700.00	5805.00
J44_22	2835.00	5805.00
J44_23	2970.00	5805.00
J44_24	3105.00	5805.00
J44_25	3240.00	5805.00
J44_26	3375.00	5805.00
J44_27	3510.00	5805.00
J44_28	3645.00	5805.00
J44_29	3780.00	5805.00
J44_30	3915.00	5805.00
J44_31	4050.00	5805.00
J44_32	4185.00	5805.00
J44_33	4320.00	5805.00
J44_34	4455.00	5805.00
J44_35	4590.00	5805.00
J44_36	4725.00	5805.00
J44_37	4860.00	5805.00
J44_38	4995.00	5805.00
J44_39	5130.00	5805.00
J44_40	5265.00	5805.00
J44_41	5400.00	5805.00
J44_42	5535.00	5805.00
J44_43	5670.00	5805.00
J44_44	5805.00	5805.00
J44_45	5940.00	5805.00
J44_46	6075.00	5805.00
J44_47	6210.00	5805.00
J44_48	6345.00	5805.00
J44_49	6480.00	5805.00
J44_50	6615.00	5805.00
J44_51	6750.00	5805.00
J44_52	6885.00	5805.00
J44_53	7020.00	5805.00
J44_54	7155.00	5805.00
J44_55	7290.00	5805.00
J44_56	7425.00	5805.00
J44_57	7560.00	5805.00
J44_58	7695.00	5805.00
J44_59	7830.00	5805.00
J44_60	7965.00	5805.00
J44_61	8100.00	5805.00
J44_62	8235.00	5805.00
J44_63	8370.00	5805.00
J44_64	8505.00	5805.00
J45_1	0.00	5940.00
J45_2	135.00	5940.00
J45_3	270.00	5940.00
J45_4	405.00	5940.00
J45_5	540.00	5940.00
J45_6	675.00	5940.00
J45_7	810.00	5940.00
J45_8	945.00	5940.00
J45_9	1080.00	5940.00
J45_10	1215.00	5940.00
J45_11	1350.00	5940.00
J45_12	1485.00	5940.00
J45_13	1620.00	5940.00
J45_14	1755.00	5940.00
J45_15	1890.00	5940.00
J45_16	2025.00	5940.00
J45_17	2160.00	5940.00
J45_18	2295.00	5940.00
J45_19	2430.00	5940.00
J45_20	2565.00	5940.00
J45_21	2700.00	5940.00
J45_22	2835.00	5940.00
J45_23	2970.00	5940.00
J45_24	3105.00	5940.00
J45_25	3240.00	5940.00
J45_26	3375.00	5940.00
J45_27	3510.00	5940.00
J45_28	3645.00	5940.00
J45_29	3780.00	5940.00
J45_30	3915.00	5940.00
J45_31	4050.00	5940.00
J45_32	4185.00	5940.00
J45_33	4320.00	5940.00
J45_34	4455.00	5940.00
J45_35	4590.00	5940.00
J45_36	4725.00	5940.00
J45_37	4860.00	5940.00
J45_38	4995.00	5940.00
J45_39	5130.00	5940.00
J45_40	5265.00	5940.00
J45_41	5400.00	5940.00
J45_42	5535.00	5940.00
J45_43	5670.00	5940.00
J45_44	5805.00	5940.00
J45_45	5940.00	5940.00
J45_46	6075.00	5940.00
J45_47	6210.00	5940.00
J45_48	6345.00	5940.00
J45_49	6480.00	5940.00
J45_50	6615.00	5940.00
J45_51	6750.00	5940.00
J45_52	6885.00	5940.00
J45_53	7020.00	5940.00
J45_54	7155.00	5940.00
J45_55	7290.00	5940.00
J45_56	7425.00	5940.00
J45_57	7560.00	5940.00
J45_58	7695.00	5940.00
J45_59	7830.00	5940.00
J45_60	7965.00	5940.00
J45_61	8100.00	5940.00
J45_62	8235.00	5940.00
J45_63	8370.00	5940.00
J45_64	8505.00	5940.00
J46_1	0.00	6075.00
J46_2	135.00	6075.00
J46_3	270.00	6075.00
J46_4	405.00	6075.00
J46_5	540.00	6075.00
J46_6	675.00	6075.00
J46_7	810.00	6075.00
J46_8	945.00	6075.00
J46_9	1080.00	6075.00
J46_10	1215.00	6075.00
J46_11	1350.00	6075.00
J46_12	1485.00	6075.00
J46_13	1620.00	6075.00
J46_14	1755.00	6075.00
J46_15	1890.00	6075.00
J46_16	2025.00	6075.00
J46_17	2160.00	6075.00
J46_18	2295.00	6075.00
J46_19	2430.00	6075.00
J46_20	2565.00	6075.00
J46_21	2700.00	6075.00
J46_22	2835.00	6075.00
J46_23	2970.00	6075.00
J46_24	3105.00	6075.00
J46_25	3240.00	6075.00
J46_26	3375.00	6075.00
J46_27	3510.00	6075.00
J46_28	3645.00	6075.00
J46_29	3780.00	6075.00
J46_30	3915.00	6075.00
J46_31	4050.00	6075.00
J46_32	4185.00	6075.00
J46_33	4320.00	6075.00
J46_34	4455.00	6075.00
J46_35	4590.00	6075.00
J46_36	4725.00	6075.00
J46_37	4860.00	6075.00
J46_38	4995.00	6075.00
J46_39	5130.00	6075.00
J46_40	5265.00	6075.00
J46_41	5400.00	6075.00
J46_42	5535.00	6075.00
J46_43	5670.00	6075.00
J46_44	5805.00	6075.00
J46_45	5940.00	6075.00
J46_46	6075.00	6075.00
J46_47	6210.00	6075.00
J46_48	6345.00	6075.00
J46_49	6480.00	6075.00
J46_50	6615.00	6075.00
J46_51	6750.00	6075.00
J46_52	6885.00	6075.00
J46_53	7020.00	6075.00
J46_54	7155.00	6075.00
J46_55	7290.00	6075.00
J46_56	7425.00	6075.00
J46_57	7560.00	6075.00
J46_58	7695.00	6075.00
J46_59	7830.00	6075.00
J46_60	7965.00	6075.00
J46_61	8100.00	6075.00
J46_62	8235.00	6075.00
J46_63	8370.00	6075.00
J46_64	8505.00	6075.00
J47_1	0.00	6210.00
J47_2	135.00	6210.00
J47_3	270.00	6210.00
J47_4	405.00	6210.00
J47_5	540.00	6210.00
J47_6	675.00	6210.00
J47_7	810.00	6210.00
J47_8	945.00	6210.00
J47_9	1080.00	6210.00
J47_10	1215.00	6210.00
J47_11	1350.00	6210.00
J47_12	1485.00	6210.00
J47_13	1620.00	6210.00
J47_14	1755.00	6210.00
J47_15	1890.00	6210.00
J47_16	2025.00	6210.00
J47_17	2160.00	6210.00
J47_18	2295.00	6210.00
J47_19	2430.00	6210.00
J47_20	2565.00	6210.00
J47_21	2700.00	6210.00
J47_22	2835.00	6210.00
J47_23	2970.00	6210.00
J47_24	3105.00	6210.00
J47_25	3240.00	6210.00
J47_26	3375.00	6210.00
J47_27	3510.00	6210.00
J47_28	3645.00	6210.00
J47_29	3780.00	6210.00
J47_30	3915.00	6210.00
J47_31	4050.00	6210.00
J47_32	4185.00	6210.00
J47_33	4320.00	6210.00
J47_34	4455.00	6210.00
J47_35	4590.00	6210.00
J47_36	4725.00	6210.00
J47_37	4860.00	6210.00
J47_38	4995.00	6210.00
J47_39	5130.00	6210.00
J47_40	5265.00	6210.00
J47_41	5400.00	6210.00
J47_42	5535.00	6210.00
J47_43	5670.00	6210.00
J47_44	5805.00	6210.00
J47_45	5940.00	6210.00
J47_46	6075.00	6210.00
J47_47	6210.00	6210.00
J47_48	6345.00	6210.00
J47_49	6480.00	6210.00
J47_50	6615.00	6210.00
J47_51	6750.00	6210.00
J47_52	6885.00	6210.00
J47_53	7020.00	6210.00
J47_54	7155.00	6210.00
J47_55	7290.00	6210.00
J47_56	7425.00	6210.00
J47_57	7560.00	6210.00
J47_58	7695.00	6210.00
J47_59	7830.00	6210.00
J47_60	7965.00	6210.00
J47_61	8100.00	6210.00
J47_62	8235.00	6210.00
J47_63	8370.00	6210.00
J47_64	8505.00	6210.00
J48_1	0.00	6345.00
J48_2	135.00	6345.00
J48_3	270.00	6345.00
J48_4	405.00	6345.00
J48_5	540.00	6345.00
J48_6	675.00	6345.00
J48_7	810.00	6345.00
J48_8	945.00	6345.00
J48_9	1080.00	6345.00
J48_10	1215.00	6345.00
J48_11	1350.00	6345.00
J48_12	1485.00	6345.00
J48_13	1620.00	6345.00
J48_14	1755.00	6345.00
J48_15	1890.00	6345.00
J48_16	2025.00	6345.00
J48_17	2160.00	6345.00
J48_18	2295.00	6345.00
J48_19	2430.00	6345.00
J48_20	2565.00	6345.00
J48_21	2700.00	6345.00
J48_22	2835.00	6345.00
J48_23	2970.00	6345.00
J48_24	3105.00	6345.00
J48_25	3240.00	6345.00
J48_26	3375.00	6345.00
J48_27	3510.00	6345.00
J48_28	3645.00	6345.00
J48_29	3780.00	6345.00
J48_30	3915.00	6345.00
J48_31	4050.00	6345.00
J48_32	4185.00	6345.00
J48_33	4320.00	6345.00
J48_34	4455.00	6345.00
J48_35	4590.00	6345.00
J48_36	4725.00	6345.00
J48_37	4860.00	6345.00
J48_38	4995.00	6345.00
J48_39	5130.00	6345.00
J48_40	5265.00	6345.00
J48_41	5400.00	6345.00
J48_42	5535.00	6345.00
J48_43	5670.00	6345.00
J48_44	5805.00	6345.00
J48_45	5940.00	6345.00
J48_46	6075.00	6345.00
J48_47	6210.00	6345.00
J48_48	6345.00	6345.00
J48_49	6480.00	6345.00
J48_50	6615.00	6345.00
J48_51	6750.00	6345.00
J48_52	6885.00	6345.00
J48_53	7020.00	6345.00
J48_54	7155.00	6345.00
J48_55	7290.00	6345.00
J48_56	7425.00	6345.00
J48_57	7560.00	6345.00
J48_58	7695.00	6345.00
J48_59	7830.00	6345.00
J48_60	7965.00	6345.00
J48_61	8100.00	6345.00
J48_62	8235.00	6345.00
J48_63	8370.00	6345.00
J48_64	8505.00	6345.00
J49_1	0.00	6480.00
J49_2	135.00	6480.00
J49_3	270.00	6480.00
J49_4	405.00	6480.00
J49_5	540.00	6480.00
J49_6	675.00	6480.00
J49_7	810.00	6480.00
J49_8	945.00	6480.00
J49_9	1080.00	6480.00
J49_10	1215.00	6480.00
J49_11	1350.00	6480.00
J49_12	1485.00	6480.00
J49_13	1620.00	6480.00
J49_14	1755.00	6480.00
J49_15	1890.00	6480.00
J49_16	2025.00	6480.00
J49_17	2160.00	6480.00
J49_18	2295.00	6480.00
J49_19	2430.00	6480.00
J49_20	2565.00	6480.00
J49_21	2700.00	6480.00
J49_22	2835.00	6480.00
J49_23	2970.00	6480.00
J49_24	3105.00	6480.00
J49_25	3240.00	6480.00
J49_26	3375.00	6480.00
J49_27	3510.00	6480.00
J49_28	3645.00	6480.00
J49_29	3780.00	6480.00
J49_30	3915.00	6480.00
J49_31	4050.00	6480.00
J49_32	4185.00	6480.00
J49_33	4320.00	6480.00
J49_34	4455.00	6480.00
J49_35	4590.00	6480.00
J49_36	4725.00	6480.00
J49_37	4860.00	6480.00
J49_38	4995.00	6480.00
J49_39	5130.00	6480.00
J49_40	5265.00	6480.00
J49_41	5400.00	6480.00
J49_42	5535.00	6480.00
J49_43	5670.00	6480.00
J49_44	5805.00	6480.00
J49_45	5940.00	6480.00
J49_46	6075.00	6480.00
J49_47	6210.00	6480.00
J49_48	6345.00	6480.00
J49_49	6480.00	6480.00
J49_50	6615.00	6480.00
J49_51	6750.00	6480.00
J49_52	6885.00	6480.00
J49_53	7020.00	6480.00
J49_54	7155.00	6480.00
J49_55	7290.00	6480.00
J49_56	7425.00	6480.00
J49_57	7560.00	6480.00
J49_58	7695.00	6480.00
J49_59	7830.00	6480.00
J49_60	7965.00	6480.00
J49_61	8100.00	6480.00
J49_62	8235.00	6480.00
J49_63	8370.00	6480.00
J49_64	8505.00	6480.00
J50_1	0.00	6615.00
J50_2	135.00	6615.00
J50_3	270.00	6615.00
J50_4	405.00	6615.00
J50_5	540.00	6615.00
J50_6	675.00	6615.00
J50_7	810.00	6615.00
J50_8	945.00	6615.00
J50_9	1080.00	6615.00
J50_10	1215.00	6615.00
J50_11	1350.00	6615.00
J50_12	1485.00	6615.00
J50_13	1620.00	6615.00
J50_14	1755.00	6615.00
J50_15	1890.00	6615.00
J50_16	2025.00	6615.00
J50_17	2160.00	6615.00
J50_18	2295.00	6615.00
J50_19	2430.00	6615.00
J50_20	2565.00	6615.00
J50_21	2700.00	6615.00
J50_22	2835.00	6615.00
J50_23	2970.00	6615.00
J50_24	3105.00	6615.00
J50_25	3240.00	6615.00
J50_26	3375.00	6615.00
J50_27	3510.00	6615.00
J50_28	3645.00	6615.00
J50_29	3780.00	6615.00
J50_30	3915.00	6615.00
J50_31	4050.00	6615.00
J50_32	4185.00	6615.00
J50_33	4320.00	6615.00
J50_34	4455.00	6615.00
J50_35	4590.00	6615.00
J50_36	4725.00	6615.00
J50_37	4860.00	6615.00
J50_38	4995.00	6615.00
J50_39	5130.00	6615.00
J50_40	5265.00	6615.00
J50_41	5400.00	6615.00
J50_42	5535.00	6615.00
J50_43	5670.00	6615.00
J50_44	5805.00	6615.00
J50_45	5940.00	6615.00
J50_46	6075.00	6615.00
J50_47	6210.00	6615.00
J50_48	6345.00	6615.00
J50_49	6480.00	6615.00
J50_50	6615.00	6615.00
J50_51	6750.00	6615.00
J50_52	6885.00	6615.00
J50_53	7020.00	6615.00
J50_54	7155.00	6615.00
J50_55	7290.00	6615.00
J50_56	7425.00	6615.00
J50_57	7560.00	6615.00
J50_58	7695.00	6615.00
J50_59	7830.00	6615.00
J50_60	7965.00	6615.00
J50_61	8100.00	6615.00
J50_62	8235.00	6615.00
J50_63	8370.00	6615.00
J50_64	8505.00	6615.00
J51_1	0.00	6750.00
J51_2	135.00	6750.00
J51_3	270.00	6750.00
J51_4	405.00	6750.00
J51_5	540.00	6750.00
J51_6	675.00	6750.00
J51_7	810.00	6750.00
J51_8	945.00	6750.00
J51_9	1080.00	6750.00
J51_10	1215.00	6750.00
J51_11	1350.00	6750.00
J51_12	1485.00	6750.00
J51_13	1620.00	6750.00
J51_14	1755.00	6750.00
J51_15	1890.00	6750.00
J51_16	2025.00	6750.00
J51_17	2160.00	6750.00
J51_18	2295.00	6750.00
J51_19	2430.00	6750.00
J51_20	2565.00	6750.00
J51_21	2700.00	6750.00
J51_22	2835.00	6750.00
J51_23	2970.00	6750.00
J51_24	3105.00	6750.00
J51_25	3240.00	6750.00
J51_26	3375.00	6750.00
J51_27	3510.00	6750.00
J51_28	3645.00	6750.00
J51_29	3780.00	6750.00
J51_30	3915.00	6750.00
J51_31	4050.00	6750.00
J51_32	4185.00	6750.00
J51_33	4320.00	6750.00
J51_34	4455.00	6750.00
J51_35	4590.00	6750.00
J51_36	4725.00	6750.00
J51_37	4860.00	6750.00
J51_38	4995.00	6750.00
J51_39	5130.00	6750.00
J51_40	5265.00	6750.00
J51_41	5400.00	6750.00
J51_42	5535.00	6750.00
J51_43	5670.00	6750.00
J51_44	5805.00	6750.00
J51_45	5940.00	6750.00
J51_46	6075.00	6750.00
J51_47	6210.00	6750.00
J51_48	6345.00	6750.00
J51_49	6480.00	6750.00
J51_50	6615.00	6750.00
J51_51	6750.00	6750.00
J51_52	6885.00	6750.00
J51_53	7020.00	6750.00
J51_54	7155.00	6750.00
J51_55	7290.00	6750.00
J51_56	7425.00	6750.00
J51_57	7560.00	6750.00
J51_58	7695.00	6750.00
J51_59	7830.00	6750.00
J51_60	7965.00	6750.00
J51_61	8100.00	6750.00
J51_62	8235.00	6750.00
J51_63	8370.00	6750.00
J51_64	8505.00	6750.00
J52_1	0.00	6885.00
J52_2	135.00	6885.00
J52_3	270.00	6885.00
J52_4	405.00	6885.00
J52_5	540.00	6885.00
J52_6	675.00	6885.00
J52_7	810.00	6885.00
J52_8	945.00	6885.00
J52_9	1080.00	6885.00
J52_10	1215.00	6885.00
J52_11	1350.00	6885.00
J52_12	1485.00	6885.00
J52_13	1620.00	6885.00
J52_14	1755.00	6885.00
J52_15	1890.00	6885.00
J52_16	2025.00	6885.00
J52_17	2160.00	6885.00
J52_18	2295.00	6885.00
J52_19	2430.00	6885.00
J52_20	2565.00	6885.00
J52_21	2700.00	6885.00
J52_22	2835.00	6885.00
J52_23	2970.00	6885.00
J52_24	3105.00	6885.00
J52_25	3240.00	6885.00
J52_26	3375.00	6885.00
J52_27	3510.00	6885.00
J52_28	3645.00	6885.00
J52_29	3780.00	6885.00
J52_30	3915.00	6885.00
J52_31	4050.00	6885.00
J52_32	4185.00	6885.00
J52_33	4320.00	6885.00
J52_34	4455.00	6885.00
J52_35	4590.00	6885.00
J52_36	4725.00	6885.00
J52_37	4860.00	6885.00
J52_38	4995.00	6885.00
J52_39	5130.00	6885.00
J52_40	5265.00	6885.00
J52_41	5400.00	6885.00
J52_42	5535.00	6885.00
J52_43	5670.00	6885.00
J52_44	5805.00	6885.00
J52_45	5940.00	6885.00
J52_46	6075.00	6885.00
J52_47	6210.00	6885.00
J52_48	6345.00	6885.00
J52_49	6480.00	6885.00
J52_50	6615.00	6885.00
J52_51	6750.00	6885.00
J52_52	6885.00	6885.00
J52_53	7020.00	6885.00
J52_54	7155.00	6885.00
J52_55	7290.00	6885.00
J52_56	7425.00	6885.00
J52_57	7560.00	6885.00
J52_58	7695.00	6885.00
J52_59	7830.00	6885.00
J52_60	7965.00	6885.00
J52_61	8100.00	6885.00
J52_62	8235.00	6885.00
J52_63	8370.00	6885.00
J52_64	8505.00	6885.00
J53_1	0.00	7020.00
J53_2	135.00	7020.00
J53_3	270.00	7020.00
J53_4	405.00	7020.00
J53_5	540.00	7020.00
J53_6	675.00	7020.00
J53_7	810.00	7020.00
J53_8	945.00	7020.00
J53_9	1080.00	7020.00
J53_10	1215.00	7020.00
J53_11	1350.00	7020.00
J53_12	1485.00	7020.00
J53_13	1620.00	7020.00
J53_14	1755.00	7020.00
J53_15	1890.00	7020.00
J53_16	2025.00	7020.00
J53_17	2160.00	7020.00
J53_18	2295.00	7020.00
J53_19	2430.00	7020.00
J53_20	2565.00	7020.00
J53_21	2700.00	7020.00
J53_22	2835.00	7020.00
J53_23	2970.00	7020.00
J53_24	3105.00	7020.00
J53_25	3240.00	7020.00
J53_26	3375.00	7020.00
J53_27	3510.00	7020.00
J53_28	3645.00	7020.00
J53_29	3780.00	7020.00
J53_30	3915.00	7020.00
J53_31	4050.00	7020.00
J53_32	4185.00	7020.00
J53_33	4320.00	7020.00
J53_34	4455.00	7020.00
J53_35	4590.00	7020.00
J53_36	4725.00	7020.00
J53_37	4860.00	7020.00
J53_38	4995.00	7020.00
J53_39	5130.00	7020.00
J53_40	5265.00	7020.00
J53_41	5400.00	7020.00
J53_42	5535.00	7020.00
J53_43	5670.00	7020.00
J53_44	5805.00	7020.00
J53_45	5940.00	7020.00
J53_46	6075.00	7020.00
J53_47	6210.00	7020.00
J53_48	6345.00	7020.00
J53_49	6480.00	7020.00
J53_50	6615.00	7020.00
J53_51	6750.00	7020.00
J53_52	6885.00	7020.00
J53_53	7020.00	7020.00
J53_54	7155.00	7020.00
J53_55	7290.00	7020.00
J53_56	7425.00	7020.00
J53_57	7560.00	7020.00
J53_58	7695.00	7020.00
J53_59	7830.00	7020.00
J53_60	7965.00	7020.00
J53_61	8100.00	7020.00
J53_62	8235.00	7020.00
J53_63	8370.00	7020.00
J53_64	8505.00	7020.00
J54_1	0.00	7155.00
J54_2	135.00	7155.00
J54_3	270.00	7155.00
J54_4	405.00	7155.00
J54_5	540.00	7155.00
J54_6	675.00	7155.00
J54_7	810.00	7155.00
J54_8	945.00	7155.00
J54_9	1080.00	7155.00
J54_10	1215.00	7155.00
J54_11	1350.00	7155.00
J54_12	1485.00	7155.00
J54_13	1620.00	7155.00
J54_14	1755.00	7155.00
J54_15	1890.00	7155.00
J54_16	2025.00	7155.00
J54_17	2160.00	7155.00
J54_18	2295.00	7155.00
J54_19	2430.00	7155.00
J54_20	2565.00	7155.00
J54_21	2700.00	7155.00
J54_22	2835.00	7155.00
J54_23	2970.00	7155.00
J54_24	3105.00	7155.00
J54_25	3240.00	7155.00
J54_26	3375.00	7155.00
J54_27	3510.00	7155.00
J54_28	3645.00	7155.00
J54_29	3780.00	7155.00
J54_30	3915.00	7155.00
J54_31	4050.00	7155.00
J54_32	4185.00	7155.00
J54_33	4320.00	7155.00
J54_34	4455.00	7155.00
J54_35	4590.00	7155.00
J54_36	4725.00	7155.00
J54_37	4860.00	7155.00
J54_38	4995.00	7155.00
J54_39	5130.00	7155.00
J54_40	5265.00	7155.00
J54_41	5400.00	7155.00
J54_42	5535.00	7155.00
J54_43	5670.00	7155.00
J54_44	5805.00	7155.00
J54_45	5940.00	7155.00
J54_46	6075.00	7155.00
J54_47	6210.00	7155.00
J54_48	6345.00	7155.00
J54_49	6480.00	7155.00
J54_50	6615.00	7155.00
J54_51	6750.00	7155.00
J54_52	6885.00	7155.00
J54_53	7020.00	7155.00
J54_54	7155.00	7155.00
J54_55	7290.00	7155.00
J54_56	7425.00	7155.00
J54_57	7560.00	7155.00
J54_58	7695.00	7155.00
J54_59	7830.00	7155.00
J54_60	7965.00	7155.00
J54_61	8100.00	7155.00
J54_62	8235.00	7155.00
J54_63	8370.00	7155.00
J54_64	8505.00	7155.00
J55_1	0.00	7290.00
J55_2	135.00	7290.00
J55_3	270.00	7290.00
J55_4	405.00	7290.00
J55_5	540.00	7290.00
J55_6	675.00	7290.00
J55_7	810.00	7290.00
J55_8	945.00	7290.00
J55_9	1080.00	7290.00
J55_10	1215.00	7290.00
J55_11	1350.00	7290.00
J55_12	1485.00	7290.00
J55_13	1620.00	7290.00
J55_14	1755.00	7290.00
J55_15	1890.00	7290.00
J55_16	2025.00	7290.00
J55_17	2160.00	7290.00
J55_18	2295.00	7290.00
J55_19	2430.00	7290.00
J55_20	2565.00	7290.00
J55_21	2700.00	7290.00
J55_22	2835.00	7290.00
J55_23	2970.00	7290.00
J55_24	3105.00	7290.00
J55_25	3240.00	7290.00
J55_26	3375.00	7290.00
J55_27	3510.00	7290.00
J55_28	3645.00	7290.00
J55_29	3780.00	7290.00
J55_30	3915.00	7290.00
J55_31	4050.00	7290.00
J55_32	4185.00	7290.00
J55_33	4320.00	7290.00
J55_34	4455.00	7290.00
J55_35	4590.00	7290.00
J55_36	4725.00	7290.00
J55_37	4860.00	7290.00
J55_38	4995.00	7290.00
J55_39	5130.00	7290.00
J55_40	5265.00	7290.00
J55_41	5400.00	7290.00
J55_42	5535.00	7290.00
J55_43	5670.00	7290.00
J55_44	5805.00	7290.00
J55_45	5940.00	7290.00
J55_46	6075.00	7290.00
J55_47	6210.00	7290.00
J55_48	6345.00	7290.00
J55_49	6480.00	7290.00
J55_50	6615.00	7290.00
J55_51	6750.00	7290.00
J55_52	6885.00	7290.00
J55_53	7020.00	7290.00
J55_54	7155.00	7290.00
J55_55	7290.00	7290.00
J55_56	7425.00	7290.00
J55_57	7560.00	7290.00
J55_58	7695.00	7290.00
J55_59	7830.00	7290.00
J55_60	7965.00	7290.00
J55_61	8100.00	7290.00
J55_62	8235.00	7290.00
J55_63	8370.00	7290.00
J55_64	8505.00	7290.00
J56_1	0.00	7425.00
J56_2	135.00	7425.00
J56_3	270.00	7425.00
J56_4	405.00	7425.00
J56_5	540.00	7425.00
J56_6	675.00	7425.00
J56_7	810.00	7425.00
J56_8	945.00	7425.00
J56_9	1080.00	7425.00
J56_10	1215.00	7425.00
J56_11	1350.00	7425.00
J56_12	1485.00	7425.00
J56_13	1620.00	7425.00
J56_14	1755.00	7425.00
J56_15	1890.00	7425.00
J56_16	2025.00	7425.00
J56_17	2160.00	7425.00
J56_18	2295.00	7425.00
J56_19	2430.00	7425.00
J56_20	2565.00	7425.00
J56_21	2700.00	7425.00
J56_22	2835.00	7425.00
J56_23	2970.00	7425.00
J56_24	3105.00	7425.00
J56_25	3240.00	7425.00
J56_26	3375.00	7425.00
J56_27	3510.00	7425.00
J56_28	3645.00	7425.00
J56_29	3780.00	7425.00
J56_30	3915.00	7425.00
J56_31	4050.00	7425.00
J56_32	4185.00	7425.00
J56_33	4320.00	7425.00
J56_34	4455.00	7425.00
J56_35	4590.00	7425.00
J56_36	4725.00	7425.00
J56_37	4860.00	7425.00
J56_38	4995.00	7425.00
J56_39	5130.00	7425.00
J56_40	5265.00	7425.00
J56_41	5400.00	7425.00
J56_42	5535.00	7425.00
J56_43	5670.00	7425.00
J56_44	5805.00	7425.00
J56_45	5940.00	7425.00
J56_46	6075.00	7425.00
J56_47	6210.00	7425.00
J56_48	6345.00	7425.00
J56_49	6480.00	7425.00
J56_50	6615.00	7425.00
J56_51	6750.00	7425.00
J56_52	6885.00	7425.00
J56_53	7020.00	7425.00
J56_54	7155.00	7425.00
J56_55	7290.00	7425.00
J56_56	7425.00	7425.00
J56_57	7560.00	7425.00
J56_58	7695.00	7425.00
J56_59	7830.00	7425.00
J56_60	7965.00	7425.00
J56_61	8100.00	7425.00
J56_62	8235.00	7425.00
J56_63	8370.00	7425.00
J56_64	8505.00	7425.00
J57_1	0.00	7560.00
J57_2	135.00	7560.00
J57_3	270.00	7560.00
J57_4	405.00	7560.00
J57_5	540.00	7560.00
J57_6	675.00	7560.00
J57_7	810.00	7560.00
J57_8	945.00	7560.00
J57_9	1080.00	7560.00
J57_10	1215.00	7560.00
J57_11	1350.00	7560.00
J57_12	1485.00	7560.00
J57_13	1620.00	7560.00
J57_14	1755.00	7560.00
J57_15	1890.00	7560.00
J57_16	2025.00	7560.00
J57_17	2160.00	7560.00
J57_18	2295.00	7560.00
J57_19	2430.00	7560.00
J57_20	2565.00	7560.00
J57_21	2700.00	7560.00
J57_22	2835.00	7560.00
J57_23	2970.00	7560.00
J57_24	3105.00	7560.00
J57_25	3240.00	7560.00
J57_26	3375.00	7560.00
J57_27	3510.00	7560.00
J57_28	3645.00	7560.00
J57_29	3780.00	7560.00
J57_30	3915.00	7560.00
J57_31	4050.00	7560.00
J57_32	4185.00	7560.00
J57_33	4320.00	7560.00
J57_34	4455.00	7560.00
J57_35	4590.00	7560.00
J57_36	4725.00	7560.00
J57_37	4860.00	7560.00
J57_38	4995.00	7560.00
J57_39	5130.00	7560.00
J57_40	5265.00	7560.00
J57_41	5400.00	7560.00
J57_42	5535.00	7560.00
J57_43	5670.00	7560.00
J57_44	5805.00	7560.00
J57_45	5940.00	7560.00
J57_46	6075.00	7560.00
J57_47	6210.00	7560.00
J57_48	6345.00	7560.00
J57_49	6480.00	7560.00
J57_50	6615.00	7560.00
J57_51	6750.00	7560.00
J57_52	6885.00	7560.00
J57_53	7020.00	7560.00
J57_54	7155.00	7560.00
J57_55	7290.00	7560.00
J57_56	7425.00	7560.00
J57_57	7560.00	7560.00
J57_58	7695.00	7560.00
J57_59	7830.00	7560.00
J57_60	7965.00	7560.00
J57_61	8100.00	7560.00
J57_62	8235.00	7560.00
J57_63	8370.00	7560.00
J57_64	8505.00	7560.00
J58_1	0.00	7695.00
J58_2	135.00	7695.00
J58_3	270.00	7695.00
J58_4	405.00	7695.00
J58_5	540.00	7695.00
J58_6	675.00	7695.00
J58_7	810.00	7695.00
J58_8	945.00	7695.00
J58_9	1080.00	7695.00
J58_10	1215.00	7695.00
J58_11	1350.00	7695.00
J58_12	1485.00	7695.00
J58_13	1620.00	7695.00
J58_14	1755.00	7695.00
J58_15	1890.00	7695.00
J58_16	2025.00	7695.00
J58_17	2160.00	7695.00
J58_18	2295.00	7695.00
J58_19	2430.00	7695.00
J58_20	2565.00	7695.00
J58_21	2700.00	7695.00
J58_22	2835.00	7695.00
J58_23	2970.00	7695.00
J58_24	3105.00	7695.00
J58_25	3240.00	7695.00
J58_26	3375.00	7695.00
J58_27	3510.00	7695.00
J58_28	3645.00	7695.00
J58_29	3780.00	7695.00
J58_30	3915.00	7695.00
J58_31	4050.00	7695.00
J58_32	4185.00	7695.00
J58_33	4320.00	7695.00
J58_34	4455.00	7695.00
J58_35	4590.00	7695.00
J58_36	4725.00	7695.00
J58_37	4860.00	7695.00
J58_38	4995.00	7695.00
J58_39	5130.00	7695.00
J58_40	5265.00	7695.00
J58_41	5400.00	7695.00
J58_42	5535.00	7695.00
J58_43	5670.00	7695.00
J58_44	5805.00	7695.00
J58_45	5940.00	7695.00
J58_46	6075.00	7695.00
J58_47	6210.00	7695.00
J58_48	6345.00	7695.00
J58_49	6480.00	7695.00
J58_50	6615.00	7695.00
J58_51	6750.00	7695.00
J58_52	6885.00	7695.00
J58_53	7020.00	7695.00
J58_54	7155.00	7695.00
J58_55	7290.00	7695.00
J58_56	7425.00	7695.00
J58_57	7560.00	7695.00
J58_58	7695.00	7695.00
J58_59	7830.00	7695.00
J58_60	7965.00	7695.00
J58_61	8100.00	7695.00
J58_62	8235.00	7695.00
J58_63	8370.00	7695.00
J58_64	8505.00	7695.00
J59_1	0.00	7830.00
J59_2	135.00	7830.00
J59_3	270.00	7830.00
J59_4	405.00	7830.00
J59_5	540.00	7830.00
J59_6	675.00	7830.00
J59_7	810.00	7830.00
J59_8	945.00	7830.00
J59_9	1080.00	7830.00
J59_10	1215.00	7830.00
J59_11	1350.00	7830.00
J59_12	1485.00	7830.00
J59_13	1620.00	7830.00
J59_14	1755.00	7830.00
J59_15	1890.00	7830.00
J59_16	2025.00	7830.00
J59_17	2160.00	7830.00
J59_18	2295.00	7830.00
J59_19	2430.00	7830.00
J59_20	2565.00	7830.00
J59_21	2700.00	7830.00
J59_22	2835.00	7830.00
J59_23	2970.00	7830.00
J59_24	3105.00	7830.00
J59_25	3240.00	7830.00
J59_26	3375.00	7830.00
J59_27	3510.00	7830.00
J59_28	3645.00	7830.00
J59_29	3780.00	7830.00
J59_30	3915.00	7830.00
J59_31	4050.00	7830.00
J59_32	4185.00	7830.00
J59_33	4320.00	7830.00
J59_34	4455.00	7830.00
J59_35	4590.00	7830.00
J59_36	4725.00	7830.00
J59_37	4860.00	7830.00
J59_38	4995.00	7830.00
J59_39	5130.00	7830.00
J59_40	5265.00	7830.00
J59_41	5400.00	7830.00
J59_42	5535.00	7830.00
J59_43	5670.00	7830.00
J59_44	5805.00	7830.00
J59_45	5940.00	7830.00
J59_46	6075.00	7830.00
J59_47	6210.00	7830.00
J59_48	6345.00	7830.00
J59_49	6480.00	7830.00
J59_50	6615.00	7830.00
J59_51	6750.00	7830.00
J59_52	6885.00	7830.00
J59_53	7020.00	7830.00
J59_54	7155.00	7830.00
J59_55	7290.00	7830.00
J59_56	7425.00	7830.00
J59_57	7560.00	7830.00
J59_58	7695.00	7830.00
J59_59	7830.00	7830.00
J59_60	7965.00	7830.00
J59_61	8100.00	7830.00
J59_62	8235.00	7830.00
J59_63	8370.00	7830.00
J59_64	8505.00	7830.00
J60_1	0.00	7965.00
J60_2	135.00	7965.00
J60_3	270.00	7965.00
J60_4	405.00	7965.00
J60_5	540.00	7965.00
J60_6	675.00	7965.00
J60_7	810.00	7965.00
J60_8	945.00	7965.00
J60_9	1080.00	7965.00
J60_10	1215.00	7965.00
J60_11	1350.00	7965.00
J60_12	1485.00	7965.00
J60_13	1620.00	7965.00
J60_14	1755.00	7965.00
J60_15	1890.00	7965.00
J60_16	2025.00	7965.00
J60_17	2160.00	7965.00
J60_18	2295.00	7965.00
J60_19	2430.00	7965.00
J60_20	2565.00	7965.00
J60_21	2700.00	7965.00
J60_22	2835.00	7965.00
J60_23	2970.00	7965.00
J60_24	3105.00	7965.00
J60_25	3240.00	7965.00
J60_26	3375.00	7965.00
J60_27	3510.00	7965.00
J60_28	3645.00	7965.00
J60_29	3780.00	7965.00
J60_30	3915.00	7965.00
J60_31	4050.00	7965.00
J60_32	4185.00	7965.00
J60_33	4320.00	7965.00
J60_34	4455.00	7965.00
J60_35	4590.00	7965.00
J60_36	4725.00	7965.00
J60_37	4860.00	7965.00
J60_38	4995.00	7965.00
J60_39	5130.00	7965.00
J60_40	5265.00	7965.00
J60_41	5400.00	7965.00
J60_42	5535.00	7965.00
J60_43	5670.00	7965.00
J60_44	5805.00	7965.00
J60_45	5940.00	7965.00
J60_46	6075.00	7965.00
J60_47	6210.00	7965.00
J60_48	6345.00	7965.00
J60_49	6480.00	7965.00
J60_50	6615.00	7965.00
J60_51	6750.00	7965.00
J60_52	6885.00	7965.00
J60_53	7020.00	7965.00
J60_54	7155.00	7965.00
J60_55	7290.00	7965.00
J60_56	7425.00	7965.00
J60_57	7560.00	7965.00
J60_58	7695.00	7965.00
J60_59	7830.00	7965.00
J60_60	7965.00	7965.00
J60_61	8100.00	7965.00
J60_62	8235.00	7965.00
J60_63	8370.00	7965.00
J60_64	8505.00	7965.00
J61_1	0.00	8100.00
J61_2	135.00	8100.00
J61_3	270.00	8100.00
J61_4	405.00	8100.00
J61_5	540.00	8100.00
J61_6	675.00	8100.00
J61_7	810.00	8100.00
J61_8	945.00	8100.00
J61_9	1080.00	8100.00
J61_10	1215.00	8100.00
J61_11	1350.00	8100.00
J61_12	1485.00	8100.00
J61_13	1620.00	8100.00
J61_14	1755.00	8100.00
J61_15	1890.00	8100.00
J61_16	2025.00	8100.00
J61_17	2160.00	8100.00
J61_18	2295.00	8100.00
J61_19	2430.00	8100.00
J61_20	2565.00	8100.00
J61_21	2700.00	8100.00
J61_22	2835.00	8100.00
J61_23	2970.00	8100.00
J61_24	3105.00	8100.00
J61_25	3240.00	8100.00
J61_26	3375.00	8100.00
J61_27	3510.00	8100.00
J61_28	3645.00	8100.00
J61_29	3780.00	8100.00
J61_30	3915.00	8100.00
J61_31	4050.00	8100.00
J61_32	4185.00	8100.00
J61_33	4320.00	8100.00
J61_34	4455.00	8100.00
J61_35	4590.00	8100.00
J61_36	4725.00	8100.00
J61_37	4860.00	8100.00
J61_38	4995.00	8100.00
J61_39	5130.00	8100.00
J61_40	5265.00	8100.00
J61_41	5400.00	8100.00
J61_42	5535.00	8100.00
J61_43	5670.00	8100.00
J61_44	5805.00	8100.00
J61_45	5940.00	8100.00
J61_46	6075.00	8100.00
J61_47	6210.00	8100.00
J61_48	6345.00	8100.00
J61_49	6480.00	8100.00
J61_50	6615.00	8100.00
J61_51	6750.00	8100.00
J61_52	6885.00	8100.00
J61_53	7020.00	8100.00
J61_54	7155.00	8100.00
J61_55	7290.00	8100.00
J61_56	7425.00	8100.00
J61_57	7560.00	8100.00
J61_58	7695.00	8100.00
J61_59	7830.00	8100.00
J61_60	7965.00	8100.00
J61_61	8100.00	8100.00
J61_62	8235.00	8100.00
J61_63	8370.00	8100.00
J61_64	8505.00	8100.00
J62_1	0.00	8235.00
J62_2	135.00	8235.00
J62_3	270.00	8235.00
J62_4	405.00	8235.00
J62_5	540.00	8235.00
J62_6	675.00	8235.00
J62_7	810.00	8235.00
J62_8	945.00	8235.00
J62_9	1080.00	8235.00
J62_10	1215.00	8235.00
J62_11	1350.00	8235.00
J62_12	1485.00	8235.00
J62_13	1620.00	8235.00
J62_14	1755.00	8235.00
J62_15	1890.00	8235.00
J62_16	2025.00	8235.00
J62_17	2160.00	8235.00
J62_18	2295.00	8235.00
J62_19	2430.00	8235.00
J62_20	2565.00	8235.00
J62_21	2700.00	8235.00
J62_22	2835.00	8235.00
J62_23	2970.00	8235.00
J62_24	3105.00	8235.00
J62_25	3240.00	8235.00
J62_26	3375.00	8235.00
J62_27	3510.00	8235.00
J62_28	3645.00	8235.00
J62_29	3780.00	8235.00
J62_30	3915.00	8235.00
J62_31	4050.00	8235.00
J62_32	4185.00	8235.00
J62_33	4320.00	8235.00
J62_34	4455.00	8235.00
J62_35	4590.00	8235.00
J62_36	4725.00	8235.00
J62_37	4860.00	8235.00
J62_38	4995.00	8235.00
J62_39	5130.00	8235.00
J62_40	5265.00	8235.00
J62_41	5400.00	8235.00
J62_42	5535.00	8235.00
J62_43	5670.00	8235.00
J62_44	5805.00	8235.00
J62_45	5940.00	8235.00
J62_46	6075.00	8235.00
J62_47	6210.00	8235.00
J62_48	6345.00	8235.00
J62_49	6480.00	8235.00
J62_50	6615.00	8235.00
J62_51	6750.00	8235.00
J62_52	6885.00	8235.00
J62_53	7020.00	8235.00
J62_54	7155.00	8235.00
J62_55	7290.00	8235.00
J62_56	7425.00	8235.00
J62_57	7560.00	8235.00
J62_58	7695.00	8235.00
J62_59	7830.00	8235.00
J62_60	7965.00	8235.00
J62_61	8100.00	8235.00
J62_62	8235.00	8235.00
J62_63	8370.00	8235.00
J62_64	8505.00	8235.00
J63_1	0.00	8370.00
J63_2	135.00	8370.00
J63_3	270.00	8370.00
J63_4	405.00	8370.00
J63_5	540.00	8370.00
J63_6	675.00	8370.00
J63_7	810.00	8370.00
J63_8	945.00	8370.00
J63_9	1080.00	8370.00
J63_10	1215.00	8370.00
J63_11	1350.00	8370.00
J63_12	1485.00	8370.00
J63_13	1620.00	8370.00
J63_14	1755.00	8370.00
J63_15	1890.00	8370.00
J63_16	2025.00	8370.00
J63_17	2160.00	8370.00
J63_18	2295.00	8370.00
J63_19	2430.00	8370.00
J63_20	2565.00	8370.00
J63_21	2700.00	8370.00
J63_22	2835.00	8370.00
J63_23	2970.00	8370.00
J63_24	3105.00	8370.00
J63_25	3240.00	8370.00
J63_26	3375.00	8370.00
J63_27	3510.00	8370.00
J63_28	3645.00	8370.00
J63_29	3780.00	8370.00
J63_30	3915.00	8370.00
J63_31	4050.00	8370.00
J63_32	4185.00	8370.00
J63_33	4320.00	8370.00
J63_34	4455.00	8370.00
J63_35	4590.00	8370.00
J63_36	4725.00	8370.00
J63_37	4860.00	8370.00
J63_38	4995.00	8370.00
J63_39	5130.00	8370.00
J63_40	5265.00	8370.00
J63_41	5400.00	8370.00
J63_42	5535.00	8370.00
J63_43	5670.00	8370.00
J63_44	5805.00	8370.00
J63_45	5940.00	8370.00
J63_46	6075.00	8370.00
J63_47	6210.00	8370.00
J63_48	6345.00	8370.00
J63_49	6480.00	8370.00
J63_50	6615.00	8370.00
J63_51	6750.00	8370.00
J63_52	6885.00	8370.00
J63_53	7020.00	8370.00
J63_54	7155.00	8370.00
J63_55	7290.00	8370.00
J63_56	7425.00	8370.00
J63_57	7560.00	8370.00
J63_58	7695.00	8370.00
J63_59	7830.00	8370.00
J63_60	7965.00	8370.00
J63_61	8100.00	8370.00
J63_62	8235.00	8370.00
J63_63	8370.00	8370.00
J63_64	8505.00	8370.00
J64_1	0.00	8505.00
J64_2	135.00	8505.00
J64_3	270.00	8505.00
J64_4	405.00	8505.00
J64_5	540.00	8505.00
J64_6	675.00	8505.00
J64_7	810.00	8505.00
J64_8	945.00	8505.00
J64_9	1080.00	8505.00
J64_10	1215.00	8505.00
J64_11	1350.00	8505.00
J64_12	1485.00	8505.00
J64_13	1620.00	8505.00
J64_14	1755.00	8505.00
J64_15	1890.00	8505.00
J64_16	2025.00	8505.00
J64_17	2160.00	8505.00
J64_18	2295.00	8505.00
J64_19	2430.00	8505.00
J64_20	2565.00	8505.00
J64_21	2700.00	8505.00
J64_22	2835.00	8505.00
J64_23	2970.00	8505.00
J64_24	3105.00	8505.00
J64_25	3240.00	8505.00
J64_26	3375.00	8505.00
J64_27	3510.00	8505.00
J64_28	3645.00	8505.00
J64_29	3780.00	8505.00
J64_30	3915.00	8505.00
J64_31	4050.00	8505.00
J64_32	4185.00	8505.00
J64_33	4320.00	8505.00
J64_34	4455.00	8505.00
J64_35	4590.00	8505.00
J64_36	4725.00	8505.00
J64_37	4860.00	8505.00
J64_38	4995.00	8505.00
J64_39	5130.00	8505.00
J64_40	5265.00	8505.00
J64_41	5400.00	8505.00
J64_42	5535.00	8505.00
J64_43	5670.00	8505.00
J64_44	5805.00	8505.00
J64_45	5940.00	8505.00
J64_46	6075.00	8505.00
J64_47	6210.00	8505.00
J64_48	6345.00	8505.00
J64_49	6480.00	8505.00
J64_50	6615.00	8505.00
J64_51	6750.00	8505.00
J64_52	6885.00	8505.00
J64_53	7020.00	8505.00
J64_54	7155.00	8505.00
J64_55	7290.00	8505.00
J64_56	7425.00	8505.00
J64_57	7560.00	8505.00
J64_58	7695.00	8505.00
J64_59	7830.00	8505.00
J64_60	7965.00	8505.00
J64_61	8100.00	8505.00
J64_62	8235.00	8505.00
J64_63	8370.00	8505.00
J64_64	8505.00	8505.00
T1	824.82	5468.98
T2	2100.02	4278.83
T3	3538.03	4268.68
T4	4983.30	4288.48
T5	6416.45	4265.13
T6	7654.22	2943.08


[END]
