[TITLE]
Complex Suite Scenario: hw_lps_chlorine_dense
seed=101 districts=3x3 size=22

[JUNCTIONS]
;ID	Elev	Demand	Pattern
J1_1	185.195	0.0012056	P_RES
J1_2	190.462	0.0007646	P_RES
J1_3	196.603	0.0021789	P_IND
J1_4	202.453	0.0018498	P_COM
J1_5	209.167	0.0011837	P_RES
J1_6	215.560	0.0019684	P_RES
J1_7	222.786	0.0011061	P_RES
J1_8	227.778	0.0013549	P_RES
J1_9	232.995	0.0010284	P_COM
J1_10	240.823	0.0016266	P_RES
J1_11	246.400	0.0008126	P_COM
J1_12	252.987	0.0013466	P_COM
J1_13	259.719	0.0028638	P_COM
J1_14	265.258	0.0016289	P_COM
J1_15	271.577	0.0035786	P_COM
J1_16	277.915	0.0011364	P_RES
J1_17	283.196	0.0019729	P_COM
J1_18	288.641	0.0017733	P_COM
J1_19	294.328	0.0042729	P_IND
J1_20	300.368	0.0026623	P_RES
J1_21	307.312	0.0017697	P_RES
J1_22	312.932	0.0014181	P_RES
J1_23	319.136	0.0020188	P_IND
J1_24	326.529	0.0008361	P_RES
J1_25	330.583	0.0008325	P_RES
J1_26	337.344	0.0019282	P_RES
J1_27	344.129	0.0017188	P_RES
J1_28	348.800	0.0008434	P_RES
J1_29	356.263	0.0011859	P_RES
J1_30	361.207	0.0018083	P_RES
J1_31	368.081	0.0019285	P_RES
J1_32	374.817	0.0019111	P_IND
J1_33	379.508	0.0014439	P_RES
J1_34	386.172	0.0014113	P_COM
J1_35	391.983	0.0039328	P_IND
J1_36	398.011	0.0017252	P_RES
J1_37	402.819	0.0004443	P_RES
J1_38	408.327	0.0009804	P_RES
J1_39	415.751	0.0046537	P_RES
J1_40	420.967	0.0007915	P_RES
J1_41	427.488	0.0030262	P_IND
J1_42	433.063	0.0053210	P_IND
J1_43	438.654	0.0017536	P_RES
J1_44	445.731	0.0024615	P_RES
J1_45	449.505	0.0009176	P_RES
J1_46	457.376	0.0006211	P_RES
J1_47	461.756	0.0021518	P_RES
J1_48	466.706	0.0023192	P_RES
J1_49	472.902	0.0008190	P_RES
J1_50	480.425	0.0045434	P_COM
J1_51	484.432	0.0014758	P_COM
J1_52	489.815	0.0011765	P_COM
J1_53	497.075	0.0016250	P_RES
J1_54	503.127	0.0033604	P_IND
J1_55	508.542	0.0005987	P_RES
J1_56	514.584	0.0036138	P_COM
J1_57	519.068	0.0019620	P_RES
J1_58	525.256	0.0021385	P_IND
J1_59	529.889	0.0016075	P_RES
J1_60	536.960	0.0010328	P_RES
J1_61	542.193	0.0006604	P_RES
J1_62	548.920	0.0033732	P_RES
J1_63	553.674	0.0055075	P_IND
J1_64	560.286	0.0020344	P_RES
J1_65	563.768	0.0018525	P_RES
J1_66	570.719	0.0019914	P_RES
J2_1	184.587	0.0015809	P_RES
J2_2	188.719	0.0017308	P_RES
J2_3	194.883	0.0010911	P_RES
J2_4	201.055	0.0017075	P_RES
J2_5	208.753	0.0007275	P_RES
J2_6	212.979	0.0009192	P_RES
J2_7	221.231	0.0007067	P_RES
J2_8	226.636	0.0034633	P_RES
J2_9	232.143	0.0010410	P_RES
J2_10	239.762	0.0019772	P_IND
J2_11	245.768	0.0016163	P_COM
J2_12	251.984	0.0007716	P_RES
J2_13	257.517	0.0017040	P_COM
J2_14	263.429	0.0030348	P_RES
J2_15	269.585	0.0027807	P_COM
J2_16	274.343	0.0016030	P_RES
J2_17	282.400	0.0028579	P_COM
J2_18	286.768	0.0014089	P_COM
J2_19	294.314	0.0010238	P_RES
J2_20	299.626	0.0021086	P_COM
J2_21	305.524	0.0019866	P_RES
J2_22	311.431	0.0013234	P_RES
J2_23	318.648	0.0018388	P_RES
J2_24	324.479	0.0008564	P_RES
J2_25	329.610	0.0016060	P_RES
J2_26	335.889	0.0017221	P_RES
J2_27	343.310	0.0007350	P_RES
J2_28	347.494	0.0013466	P_RES
J2_29	352.978	0.0018118	P_RES
J2_30	359.620	0.0007963	P_RES
J2_31	365.151	0.0016578	P_COM
J2_32	371.697	0.0014060	P_RES
J2_33	378.171	0.0015275	P_COM
J2_34	382.862	0.0006938	P_RES
J2_35	389.145	0.0006646	P_RES
J2_36	396.651	0.0024573	P_IND
J2_37	402.686	0.0018955	P_RES
J2_38	408.237	0.0032875	P_RES
J2_39	412.874	0.0034798	P_IND
J2_40	418.403	0.0020410	P_RES
J2_41	426.441	0.0017104	P_COM
J2_42	430.280	0.0011817	P_RES
J2_43	437.905	0.0019808	P_RES
J2_44	442.764	0.0011842	P_RES
J2_45	449.664	0.0008412	P_RES
J2_46	454.538	0.0007466	P_RES
J2_47	461.517	0.0032463	P_COM
J2_48	465.078	0.0010142	P_RES
J2_49	471.150	0.0016527	P_RES
J2_50	477.824	0.0017070	P_RES
J2_51	483.115	0.0030225	P_RES
J2_52	490.088	0.0032489	P_COM
J2_53	494.871	0.0018823	P_COM
J2_54	501.589	0.0020938	P_RES
J2_55	505.655	0.0005224	P_RES
J2_56	512.975	0.0008661	P_RES
J2_57	517.875	0.0021630	P_RES
J2_58	522.876	0.0010409	P_RES
J2_59	529.801	0.0017605	P_RES
J2_60	535.772	0.0012545	P_RES
J2_61	540.870	0.0012443	P_RES
J2_62	545.894	0.0011952	P_RES
J2_63	552.531	0.0022868	P_IND
J2_64	557.960	0.0024829	P_COM
J2_65	564.569	0.0038282	P_IND
J2_66	569.645	0.0022982	P_RES
J3_1	182.366	0.0017107	P_RES
J3_2	188.744	0.0018606	P_COM
J3_3	194.278	0.0014257	P_COM
J3_4	199.692	0.0010154	P_RES
J3_5	206.895	0.0018023	P_IND
J3_6	212.501	0.0008616	P_RES
J3_7	218.508	0.0028031	P_RES
J3_8	224.485	0.0034439	P_IND
J3_9	232.168	0.0022682	P_COM
J3_10	236.160	0.0009685	P_RES
J3_11	242.950	0.0035564	P_IND
J3_12	250.064	0.0028788	P_RES
J3_13	254.602	0.0022016	P_RES
J3_14	262.650	0.0023313	P_COM
J3_15	268.364	0.0023561	P_IND
J3_16	272.924	0.0007563	P_RES
J3_17	280.221	0.0018071	P_COM
J3_18	286.137	0.0029327	P_IND
J3_19	291.798	0.0015364	P_RES
J3_20	297.682	0.0013215	P_RES
J3_21	303.836	0.0021634	P_RES
J3_22	310.897	0.0012714	P_RES
J3_23	315.670	0.0008161	P_RES
J3_24	323.364	0.0016711	P_RES
J3_25	328.469	0.0020978	P_COM
J3_26	335.407	0.0014317	P_RES
J3_27	339.721	0.0033304	P_IND
J3_28	347.364	0.0020472	P_COM
J3_29	351.519	0.0012925	P_RES
J3_30	357.715	0.0005633	P_RES
J3_31	364.057	0.0017871	P_COM
J3_32	370.486	0.0013403	P_RES
J3_33	375.410	0.0012471	P_RES
J3_34	382.122	0.0025068	P_COM
J3_35	389.488	0.0033159	P_IND
J3_36	393.628	0.0037947	P_COM
J3_37	401.357	0.0015974	P_RES
J3_38	406.866	0.0030041	P_IND
J3_39	412.763	0.0025034	P_COM
J3_40	417.060	0.0007557	P_RES
J3_41	423.499	0.0006085	P_RES
J3_42	430.639	0.0017423	P_RES
J3_43	434.385	0.0019119	P_IND
J3_44	440.248	0.0010833	P_RES
J3_45	447.294	0.0033940	P_IND
J3_46	453.869	0.0017169	P_RES
J3_47	459.479	0.0005641	P_RES
J3_48	465.265	0.0007903	P_RES
J3_49	471.220	0.0028156	P_COM
J3_50	476.820	0.0036687	P_RES
J3_51	483.068	0.0009970	P_RES
J3_52	486.848	0.0024750	P_RES
J3_53	492.779	0.0013092	P_RES
J3_54	499.810	0.0036152	P_COM
J3_55	504.410	0.0005815	P_RES
J3_56	511.181	0.0011376	P_RES
J3_57	517.458	0.0007066	P_RES
J3_58	522.288	0.0007755	P_RES
J3_59	528.212	0.0016523	P_COM
J3_60	533.400	0.0023927	P_IND
J3_61	538.691	0.0015972	P_RES
J3_62	545.513	0.0016879	P_RES
J3_63	549.886	0.0008150	P_RES
J3_64	555.795	0.0015179	P_COM
J3_65	561.356	0.0014427	P_RES
J3_66	568.115	0.0014721	P_RES
J4_1	179.624	0.0033431	P_RES
J4_2	186.338	0.0020637	P_IND
J4_3	192.313	0.0009702	P_RES
J4_4	199.641	0.0006596	P_RES
J4_5	203.699	0.0005577	P_RES
J4_6	210.244	0.0031236	P_RES
J4_7	216.883	0.0015815	P_RES
J4_8	222.658	0.0013717	P_COM
J4_9	230.172	0.0025725	P_COM
J4_10	234.477	0.0018401	P_RES
J4_11	240.598	0.0008336	P_RES
J4_12	248.300	0.0013898	P_RES
J4_13	255.034	0.0030222	P_IND
J4_14	260.511	0.0009394	P_RES
J4_15	266.145	0.0023732	P_COM
J4_16	272.301	0.0019216	P_COM
J4_17	279.064	0.0040734	P_COM
J4_18	285.151	0.0019593	P_RES
J4_19	290.295	0.0010237	P_RES
J4_20	295.682	0.0019170	P_IND
J4_21	301.548	0.0039708	P_COM
J4_22	308.935	0.0018409	P_COM
J4_23	314.742	0.0017025	P_RES
J4_24	321.384	0.0020333	P_COM
J4_25	327.406	0.0026775	P_RES
J4_26	332.904	0.0018793	P_RES
J4_27	338.015	0.0017254	P_RES
J4_28	344.237	0.0007487	P_RES
J4_29	352.129	0.0018693	P_COM
J4_30	356.354	0.0010400	P_RES
J4_31	362.993	0.0025875	P_IND
J4_32	368.503	0.0007548	P_RES
J4_33	374.937	0.0033636	P_COM
J4_34	380.460	0.0023089	P_RES
J4_35	387.912	0.0006498	P_RES
J4_36	393.156	0.0017074	P_RES
J4_37	398.585	0.0018232	P_RES
J4_38	405.192	0.0016671	P_RES
J4_39	410.280	0.0039152	P_IND
J4_40	416.455	0.0008758	P_RES
J4_41	423.097	0.0005638	P_RES
J4_42	427.138	0.0025724	P_COM
J4_43	434.667	0.0021909	P_RES
J4_44	439.317	0.0016267	P_RES
J4_45	445.580	0.0017065	P_COM
J4_46	450.739	0.0037671	P_IND
J4_47	457.964	0.0025175	P_IND
J4_48	462.578	0.0017505	P_COM
J4_49	468.635	0.0040306	P_COM
J4_50	473.914	0.0037520	P_COM
J4_51	481.365	0.0028815	P_IND
J4_52	485.571	0.0010569	P_RES
J4_53	490.763	0.0015698	P_RES
J4_54	498.154	0.0010500	P_RES
J4_55	503.242	0.0004666	P_RES
J4_56	508.675	0.0009721	P_RES
J4_57	514.083	0.0008594	P_RES
J4_58	520.735	0.0032130	P_COM
J4_59	526.454	0.0018544	P_RES
J4_60	532.810	0.0013927	P_RES
J4_61	536.636	0.0005934	P_RES
J4_62	542.640	0.0007544	P_RES
J4_63	549.755	0.0013214	P_RES
J4_64	555.635	0.0028613	P_RES
J4_65	560.817	0.0008405	P_RES
J4_66	565.772	0.0023733	P_RES
J5_1	178.524	0.0017470	P_COM
J5_2	184.049	0.0006414	P_RES
J5_3	190.849	0.0008325	P_RES
J5_4	196.690	0.0047585	P_IND
J5_5	203.724	0.0020247	P_RES
J5_6	208.941	0.0009261	P_RES
J5_7	215.527	0.0009183	P_RES
J5_8	221.156	0.0022124	P_RES
J5_9	227.676	0.0011628	P_RES
J5_10	233.064	0.0032628	P_IND
J5_11	240.670	0.0019559	P_RES
J5_12	245.330	0.0008267	P_RES
J5_13	252.549	0.0010421	P_RES
J5_14	257.825	0.0008936	P_RES
J5_15	264.325	0.0008413	P_RES
J5_16	271.801	0.0013437	P_RES
J5_17	276.364	0.0037159	P_COM
J5_18	283.198	0.0027336	P_COM
J5_19	288.307	0.0012786	P_RES
J5_20	293.903	0.0025312	P_IND
J5_21	300.587	0.0058450	P_IND
J5_22	306.511	0.0020791	P_COM
J5_23	313.561	0.0019835	P_RES
J5_24	318.404	0.0016956	P_COM
J5_25	324.184	0.0010161	P_RES
J5_26	330.808	0.0011542	P_RES
J5_27	337.405	0.0026537	P_RES
J5_28	343.074	0.0013727	P_RES
J5_29	348.346	0.0016531	P_RES
J5_30	354.433	0.0027156	P_COM
J5_31	360.486	0.0025038	P_IND
J5_32	367.906	0.0010648	P_RES
J5_33	372.477	0.0010997	P_RES
J5_34	379.786	0.0034063	P_IND
J5_35	384.921	0.0021091	P_RES
J5_36	389.965	0.0017158	P_RES
J5_37	396.208	0.0036109	P_RES
J5_38	404.086	0.0009593	P_RES
J5_39	409.785	0.0024858	P_COM
J5_40	414.532	0.0023147	P_RES
J5_41	419.583	0.0015530	P_COM
J5_42	427.298	0.0018522	P_COM
J5_43	431.559	0.0033702	P_COM
J5_44	438.958	0.0035695	P_IND
J5_45	444.483	0.0010505	P_RES
J5_46	450.734	0.0009489	P_RES
J5_47	455.201	0.0036187	P_IND
J5_48	462.028	0.0033626	P_COM
J5_49	467.975	0.0004558	P_RES
J5_50	473.758	0.0015554	P_RES
J5_51	479.512	0.0006537	P_RES
J5_52	484.711	0.0014685	P_RES
J5_53	491.513	0.0013963	P_RES
J5_54	495.418	0.0018164	P_RES
J5_55	501.138	0.0011482	P_RES
J5_56	507.452	0.0009242	P_RES
J5_57	513.389	0.0035169	P_COM
J5_58	518.132	0.0013532	P_RES
J5_59	525.525	0.0022570	P_RES
J5_60	529.267	0.0018342	P_COM
J5_61	536.607	0.0009657	P_RES
J5_62	540.872	0.0025634	P_COM
J5_63	547.917	0.0012970	P_COM
J5_64	553.564	0.0019653	P_COM
J5_65	558.461	0.0051824	P_IND
J5_66	564.020	0.0008148	P_RES
J6_1	177.839	0.0013372	P_COM
J6_2	182.039	0.0009739	P_RES
J6_3	188.507	0.0016964	P_RES
J6_4	196.441	0.0017436	P_IND
J6_5	201.516	0.0013651	P_RES
J6_6	208.713	0.0024544	P_COM
J6_7	214.963	0.0016894	P_RES
J6_8	218.991	0.0024990	P_RES
J6_9	227.240	0.0036712	P_RES
J6_10	233.229	0.0007141	P_RES
J6_11	239.471	0.0024373	P_COM
J6_12	245.180	0.0004984	P_RES
J6_13	250.164	0.0027736	P_COM
J6_14	257.999	0.0011080	P_RES
J6_15	261.852	0.0021906	P_RES
J6_16	270.047	0.0009665	P_RES
J6_17	274.514	0.0017282	P_RES
J6_18	280.141	0.0038955	P_IND
J6_19	287.094	0.0030845	P_COM
J6_20	293.535	0.0023835	P_COM
J6_21	298.358	0.0028719	P_COM
J6_22	305.719	0.0008334	P_RES
J6_23	311.549	0.0022542	P_RES
J6_24	317.529	0.0015559	P_RES
J6_25	323.046	0.0019822	P_RES
J6_26	329.812	0.0040736	P_COM
J6_27	335.696	0.0012808	P_RES
J6_28	341.992	0.0043297	P_IND
J6_29	347.340	0.0012252	P_RES
J6_30	354.934	0.0021514	P_RES
J6_31	359.049	0.0020567	P_COM
J6_32	366.537	0.0017395	P_IND
J6_33	372.233	0.0006674	P_RES
J6_34	376.574	0.0013408	P_RES
J6_35	384.355	0.0026983	P_IND
J6_36	390.662	0.0015625	P_RES
J6_37	395.781	0.0016319	P_RES
J6_38	402.339	0.0025724	P_RES
J6_39	407.916	0.0009456	P_RES
J6_40	413.900	0.0026486	P_COM
J6_41	418.424	0.0020919	P_COM
J6_42	426.041	0.0029099	P_RES
J6_43	430.047	0.0019098	P_RES
J6_44	435.502	0.0020083	P_COM
J6_45	441.292	0.0014637	P_RES
J6_46	449.005	0.0014945	P_RES
J6_47	455.174	0.0022007	P_COM
J6_48	460.560	0.0011033	P_COM
J6_49	465.466	0.0053638	P_COM
J6_50	472.181	0.0014030	P_RES
J6_51	477.331	0.0015836	P_RES
J6_52	482.028	0.0018791	P_COM
J6_53	487.741	0.0035858	P_COM
J6_54	494.961	0.0017425	P_IND
J6_55	501.159	0.0016258	P_COM
J6_56	505.374	0.0015505	P_RES
J6_57	512.148	0.0021111	P_RES
J6_58	517.027	0.0015619	P_RES
J6_59	523.980	0.0011239	P_RES
J6_60	529.672	0.0010223	P_RES
J6_61	535.558	0.0010432	P_RES
J6_62	540.749	0.0030606	P_COM
J6_63	546.196	0.0009301	P_RES
J6_64	552.008	0.0015695	P_RES
J6_65	556.243	0.0020564	P_RES
J6_66	563.244	0.0024425	P_COM
J7_1	176.317	0.0010227	P_RES
J7_2	181.452	0.0036773	P_COM
J7_3	187.153	0.0017793	P_RES
J7_4	193.746	0.0019814	P_RES
J7_5	200.534	0.0012034	P_RES
J7_6	207.274	0.0011080	P_RES
J7_7	212.906	0.0023343	P_IND
J7_8	218.771	0.0016333	P_RES
J7_9	224.145	0.0020202	P_COM
J7_10	229.857	0.0010469	P_RES
J7_11	236.740	0.0007665	P_RES
J7_12	243.856	0.0006370	P_RES
J7_13	249.797	0.0008641	P_RES
J7_14	254.088	0.0013481	P_RES
J7_15	261.134	0.0014032	P_RES
J7_16	266.798	0.0029146	P_COM
J7_17	272.762	0.0008458	P_RES
J7_18	280.764	0.0006728	P_RES
J7_19	285.423	0.0009261	P_RES
J7_20	292.467	0.0010473	P_RES
J7_21	297.636	0.0008810	P_RES
J7_22	303.414	0.0014875	P_RES
J7_23	308.880	0.0013733	P_RES
J7_24	315.726	0.0011972	P_RES
J7_25	322.398	0.0010079	P_RES
J7_26	329.007	0.0016403	P_RES
J7_27	332.991	0.0027581	P_COM
J7_28	341.186	0.0015817	P_RES
J7_29	346.320	0.0014695	P_COM
J7_30	352.053	0.0022354	P_COM
J7_31	359.012	0.0035167	P_IND
J7_32	363.576	0.0013905	P_RES
J7_33	368.999	0.0008891	P_RES
J7_34	376.309	0.0013997	P_RES
J7_35	382.931	0.0008820	P_RES
J7_36	386.867	0.0014516	P_RES
J7_37	394.890	0.0035994	P_COM
J7_38	399.926	0.0015809	P_RES
J7_39	405.119	0.0005513	P_RES
J7_40	410.385	0.0009759	P_RES
J7_41	417.794	0.0030258	P_IND
J7_42	422.853	0.0032745	P_COM
J7_43	428.196	0.0012874	P_RES
J7_44	434.529	0.0032305	P_COM
J7_45	440.589	0.0011463	P_COM
J7_46	445.787	0.0016193	P_IND
J7_47	453.526	0.0016727	P_RES
J7_48	457.807	0.0013786	P_COM
J7_49	464.595	0.0016434	P_RES
J7_50	468.937	0.0031490	P_COM
J7_51	475.827	0.0009517	P_RES
J7_52	481.842	0.0032771	P_RES
J7_53	487.344	0.0041011	P_IND
J7_54	492.485	0.0020769	P_RES
J7_55	499.146	0.0007492	P_RES
J7_56	505.256	0.0015520	P_RES
J7_57	510.354	0.0021270	P_RES
J7_58	515.361	0.0026800	P_IND
J7_59	521.405	0.0007278	P_RES
J7_60	527.696	0.0009801	P_RES
J7_61	533.841	0.0017297	P_RES
J7_62	538.455	0.0020999	P_COM
J7_63	544.783	0.0028783	P_COM
J7_64	549.210	0.0021201	P_COM
J7_65	554.751	0.0033019	P_RES
J7_66	561.918	0.0017073	P_COM
J8_1	173.110	0.0014309	P_COM
J8_2	179.689	0.0020752	P_RES
J8_3	185.622	0.0015464	P_COM
J8_4	191.380	0.0021161	P_RES
J8_5	198.951	0.0014867	P_RES
J8_6	204.197	0.0021016	P_RES
J8_7	210.567	0.0010098	P_RES
J8_8	217.181	0.0015460	P_RES
J8_9	221.969	0.0016621	P_RES
J8_10	228.248	0.0014510	P_RES
J8_11	236.012	0.0021031	P_RES
J8_12	241.081	0.0021127	P_COM
J8_13	246.660	0.0011350	P_RES
J8_14	253.165	0.0004712	P_RES
J8_15	260.212	0.0022655	P_COM
J8_16	266.810	0.0022063	P_RES
J8_17	271.596	0.0037706	P_COM
J8_18	277.508	0.0036609	P_COM
J8_19	283.132	0.0008569	P_RES
J8_20	289.748	0.0017729	P_RES
J8_21	295.358	0.0013857	P_RES
J8_22	301.721	0.0012318	P_RES
J8_23	308.236	0.0015244	P_RES
J8_24	313.679	0.0018231	P_COM
J8_25	320.482	0.0009974	P_RES
J8_26	326.791	0.0013605	P_RES
J8_27	331.317	0.0016707	P_COM
J8_28	338.361	0.0011244	P_RES
J8_29	343.351	0.0014682	P_RES
J8_30	350.799	0.0025496	P_RES
J8_31	357.076	0.0011311	P_COM
J8_32	363.295	0.0011981	P_RES
J8_33	368.829	0.0012178	P_COM
J8_34	375.209	0.0016359	P_RES
J8_35	381.395	0.0012557	P_COM
J8_36	385.162	0.0014183	P_RES
J8_37	392.253	0.0018037	P_RES
J8_38	397.673	0.0006711	P_COM
J8_39	404.104	0.0017345	P_COM
J8_40	409.016	0.0014890	P_RES
J8_41	415.565	0.0020386	P_IND
J8_42	421.351	0.0016055	P_COM
J8_43	426.657	0.0015754	P_RES
J8_44	433.124	0.0013904	P_RES
J8_45	439.123	0.0016163	P_COM
J8_46	443.886	0.0016602	P_RES
J8_47	449.841	0.0023159	P_COM
J8_48	456.412	0.0006068	P_RES
J8_49	461.266	0.0022794	P_RES
J8_50	467.254	0.0013493	P_RES
J8_51	473.871	0.0020804	P_RES
J8_52	478.851	0.0017037	P_RES
J8_53	485.800	0.0027310	P_RES
J8_54	491.279	0.0007694	P_RES
J8_55	497.627	0.0016384	P_COM
J8_56	503.708	0.0033517	P_COM
J8_57	507.354	0.0005998	P_RES
J8_58	514.456	0.0009220	P_RES
J8_59	520.608	0.0010583	P_RES
J8_60	525.653	0.0016628	P_RES
J8_61	531.768	0.0032575	P_RES
J8_62	537.392	0.0014847	P_RES
J8_63	541.519	0.0017240	P_RES
J8_64	548.886	0.0015717	P_COM
J8_65	554.346	0.0036352	P_IND
J8_66	559.938	0.0020180	P_RES
J9_1	171.074	0.0010989	P_RES
J9_2	178.417	0.0015094	P_RES
J9_3	185.291	0.0025885	P_COM
J9_4	191.603	0.0018645	P_RES
J9_5	197.320	0.0011669	P_RES
J9_6	202.371	0.0005784	P_RES
J9_7	208.724	0.0010334	P_RES
J9_8	215.593	0.0008702	P_RES
J9_9	221.048	0.0015912	P_RES
J9_10	226.732	0.0009964	P_RES
J9_11	232.591	0.0025240	P_IND
J9_12	239.582	0.0020553	P_COM
J9_13	245.582	0.0040550	P_IND
J9_14	251.154	0.0009949	P_RES
J9_15	257.920	0.0034613	P_RES
J9_16	263.412	0.0010665	P_RES
J9_17	270.607	0.0010420	P_RES
J9_18	277.069	0.0010575	P_RES
J9_19	282.493	0.0008744	P_RES
J9_20	288.007	0.0013755	P_COM
J9_21	295.404	0.0028575	P_IND
J9_22	301.573	0.0015803	P_RES
J9_23	307.410	0.0027118	P_IND
J9_24	313.273	0.0013141	P_RES
J9_25	319.102	0.0014552	P_RES
J9_26	325.049	0.0010201	P_RES
J9_27	329.857	0.0016608	P_RES
J9_28	337.916	0.0021995	P_RES
J9_29	343.399	0.0040575	P_IND
J9_30	348.240	0.0008737	P_RES
J9_31	354.306	0.0034788	P_COM
J9_32	360.576	0.0013577	P_COM
J9_33	367.776	0.0014185	P_RES
J9_34	373.035	0.0018499	P_RES
J9_35	378.762	0.0012214	P_RES
J9_36	383.683	0.0013467	P_RES
J9_37	389.589	0.0029952	P_COM
J9_38	395.614	0.0014249	P_COM
J9_39	403.071	0.0015629	P_RES
J9_40	407.880	0.0012963	P_RES
J9_41	413.033	0.0010107	P_RES
J9_42	420.584	0.0024020	P_RES
J9_43	426.686	0.0040962	P_IND
J9_44	431.586	0.0005351	P_RES
J9_45	438.359	0.0018832	P_COM
J9_46	442.764	0.0012467	P_COM
J9_47	449.375	0.0017334	P_RES
J9_48	455.622	0.0018319	P_IND
J9_49	459.888	0.0015854	P_RES
J9_50	465.719	0.0009615	P_RES
J9_51	472.667	0.0018304	P_RES
J9_52	478.373	0.0011035	P_RES
J9_53	483.773	0.0009212	P_COM
J9_54	489.128	0.0011174	P_RES
J9_55	494.997	0.0015346	P_RES
J9_56	500.071	0.0023385	P_RES
J9_57	505.729	0.0024246	P_RES
J9_58	513.405	0.0025695	P_IND
J9_59	518.859	0.0009463	P_RES
J9_60	524.967	0.0011080	P_RES
J9_61	529.276	0.0017642	P_COM
J9_62	534.429	0.0012539	P_RES
J9_63	541.335	0.0006157	P_RES
J9_64	547.134	0.0008095	P_RES
J9_65	552.618	0.0025007	P_RES
J9_66	558.318	0.0011866	P_RES
J10_1	170.886	0.0011979	P_RES
J10_2	176.241	0.0025078	P_IND
J10_3	183.326	0.0012362	P_RES
J10_4	187.979	0.0012807	P_RES
J10_5	194.990	0.0026485	P_COM
J10_6	202.477	0.0014732	P_RES
J10_7	208.369	0.0080432	P_COM
J10_8	213.132	0.0044519	P_COM
J10_9	218.925	0.0008485	P_RES
J10_10	226.476	0.0013503	P_COM
J10_11	232.394	0.0033273	P_IND
J10_12	238.985	0.0028179	P_IND
J10_13	244.088	0.0011292	P_RES
J10_14	249.504	0.0012549	P_RES
J10_15	256.814	0.0027028	P_RES
J10_16	261.815	0.0016838	P_RES
J10_17	267.691	0.0018337	P_RES
J10_18	274.909	0.0010456	P_RES
J10_19	281.385	0.0015001	P_RES
J10_20	286.476	0.0017265	P_COM
J10_21	293.111	0.0017707	P_COM
J10_22	299.752	0.0006051	P_RES
J10_23	306.253	0.0023882	P_RES
J10_24	311.409	0.0017435	P_RES
J10_25	316.349	0.0005859	P_RES
J10_26	324.306	0.0009887	P_RES
J10_27	328.956	0.0019431	P_COM
J10_28	335.944	0.0008949	P_RES
J10_29	341.435	0.0016329	P_RES
J10_30	346.120	0.0016664	P_RES
J10_31	353.243	0.0008120	P_RES
J10_32	359.105	0.0019062	P_RES
J10_33	364.067	0.0008094	P_RES
J10_34	371.308	0.0040959	P_IND
J10_35	377.398	0.0014114	P_RES
J10_36	382.444	0.0004626	P_RES
J10_37	388.186	0.0010276	P_RES
J10_38	395.196	0.0010609	P_RES
J10_39	400.277	0.0021201	P_RES
J10_40	406.688	0.0005339	P_RES
J10_41	412.094	0.0010707	P_RES
J10_42	419.188	0.0012486	P_RES
J10_43	425.231	0.0022798	P_RES
J10_44	429.796	0.0021455	P_RES
J10_45	436.200	0.0021916	P_IND
J10_46	442.829	0.0029255	P_COM
J10_47	447.641	0.0033767	P_IND
J10_48	454.343	0.0027486	P_COM
J10_49	458.427	0.0009765	P_RES
J10_50	465.719	0.0018039	P_RES
J10_51	470.581	0.0008146	P_RES
J10_52	475.499	0.0010303	P_RES
J10_53	482.948	0.0021236	P_RES
J10_54	486.909	0.0037912	P_COM
J10_55	493.360	0.0045646	P_IND
J10_56	499.567	0.0014418	P_RES
J10_57	505.430	0.0013924	P_RES
J10_58	509.704	0.0029842	P_COM
J10_59	517.350	0.0035592	P_COM
J10_60	521.668	0.0005456	P_RES
J10_61	528.021	0.0004453	P_RES
J10_62	533.248	0.0013611	P_RES
J10_63	538.741	0.0065979	P_IND
J10_64	544.323	0.0022118	P_RES
J10_65	549.643	0.0012227	P_RES
J10_66	556.177	0.0034740	P_COM
J11_1	169.877	0.0026884	P_RES
J11_2	173.884	0.0011367	P_RES
J11_3	181.638	0.0014899	P_RES
J11_4	186.937	0.0017681	P_RES
J11_5	194.650	0.0009384	P_RES
J11_6	199.780	0.0032321	P_IND
J11_7	205.268	0.0012180	P_RES
J11_8	212.131	0.0025404	P_COM
J11_9	217.743	0.0013520	P_RES
J11_10	223.616	0.0024990	P_COM
J11_11	229.450	0.0016061	P_RES
J11_12	235.365	0.0012710	P_RES
J11_13	242.292	0.0029612	P_COM
J11_14	248.908	0.0012209	P_COM
J11_15	255.857	0.0040541	P_COM
J11_16	259.959	0.0023670	P_COM
J11_17	267.974	0.0009717	P_RES
J11_18	272.850	0.0016119	P_RES
J11_19	279.661	0.0018458	P_RES
J11_20	285.228	0.0030161	P_RES
J11_21	290.973	0.0019570	P_RES
J11_22	298.349	0.0008673	P_RES
J11_23	303.185	0.0016170	P_COM
J11_24	309.857	0.0044045	P_IND
J11_25	314.960	0.0014653	P_RES
J11_26	322.723	0.0032368	P_COM
J11_27	326.426	0.0013759	P_RES
J11_28	334.756	0.0015918	P_RES
J11_29	338.731	0.0019284	P_COM
J11_30	345.235	0.0020495	P_RES
J11_31	350.771	0.0008401	P_RES
J11_32	357.017	0.0037309	P_IND
J11_33	363.682	0.0009135	P_RES
J11_34	370.243	0.0012725	P_RES
J11_35	374.906	0.0012530	P_RES
J11_36	381.678	0.0019661	P_RES
J11_37	387.572	0.0004306	P_RES
J11_38	392.258	0.0022131	P_RES
J11_39	398.494	0.0020913	P_RES
J11_40	404.617	0.0016759	P_RES
J11_41	411.034	0.0012372	P_RES
J11_42	416.855	0.0015193	P_RES
J11_43	422.141	0.0005346	P_RES
J11_44	427.502	0.0018982	P_RES
J11_45	434.478	0.0012676	P_RES
J11_46	440.618	0.0020597	P_RES
J11_47	446.716	0.0007737	P_RES
J11_48	452.329	0.0035909	P_IND
J11_49	457.542	0.0008508	P_RES
J11_50	464.048	0.0012494	P_RES
J11_51	468.768	0.0014138	P_RES
J11_52	474.106	0.0032639	P_RES
J11_53	480.386	0.0012544	P_RES
J11_54	485.754	0.0009327	P_RES
J11_55	490.891	0.0033798	P_COM
J11_56	498.379	0.0006333	P_RES
J11_57	503.369	0.0008691	P_RES
J11_58	508.826	0.0010601	P_RES
J11_59	515.429	0.0013056	P_RES
J11_60	520.625	0.0039100	P_IND
J11_61	526.896	0.0016624	P_COM
J11_62	532.930	0.0010197	P_RES
J11_63	537.018	0.0008947	P_RES
J11_64	543.293	0.0007906	P_RES
J11_65	548.333	0.0050506	P_RES
J11_66	553.763	0.0005813	P_RES
J12_1	168.171	0.0007162	P_RES
J12_2	172.607	0.0011714	P_RES
J12_3	179.858	0.0034351	P_COM
J12_4	186.670	0.0018111	P_RES
J12_5	192.758	0.0008652	P_RES
J12_6	198.343	0.0011203	P_RES
J12_7	204.906	0.0023425	P_COM
J12_8	211.340	0.0013099	P_RES
J12_9	216.517	0.0013180	P_COM
J12_10	221.686	0.0038827	P_IND
J12_11	228.111	0.0019320	P_RES
J12_12	235.535	0.0030177	P_RES
J12_13	241.796	0.0033222	P_RES
J12_14	247.334	0.0009395	P_RES
J12_15	252.435	0.0017386	P_RES
J12_16	259.303	0.0015215	P_COM
J12_17	264.663	0.0013880	P_RES
J12_18	270.793	0.0025852	P_COM
J12_19	278.381	0.0026590	P_IND
J12_20	284.167	0.0058584	P_IND
J12_21	288.701	0.0009970	P_RES
J12_22	295.869	0.0013108	P_RES
J12_23	302.395	0.0020273	P_COM
J12_24	308.637	0.0005718	P_RES
J12_25	314.819	0.0016132	P_RES
J12_26	320.789	0.0012419	P_RES
J12_27	325.652	0.0006265	P_RES
J12_28	331.808	0.0013740	P_RES
J12_29	337.193	0.0011389	P_RES
J12_30	344.099	0.0016097	P_RES
J12_31	350.080	0.0017656	P_RES
J12_32	355.434	0.0096031	P_COM
J12_33	361.152	0.0009067	P_RES
J12_34	366.818	0.0013841	P_RES
J12_35	373.954	0.0006579	P_RES
J12_36	380.183	0.0012428	P_RES
J12_37	384.596	0.0013588	P_RES
J12_38	391.407	0.0012529	P_RES
J12_39	396.305	0.0011608	P_RES
J12_40	402.916	0.0013993	P_RES
J12_41	408.757	0.0010984	P_RES
J12_42	415.280	0.0024310	P_COM
J12_43	420.184	0.0018600	P_COM
J12_44	426.394	0.0009391	P_RES
J12_45	432.863	0.0029396	P_RES
J12_46	439.105	0.0015764	P_RES
J12_47	445.200	0.0011904	P_RES
J12_48	449.969	0.0013040	P_RES
J12_49	455.644	0.0023384	P_COM
J12_50	461.447	0.0033269	P_COM
J12_51	468.267	0.0014391	P_RES
J12_52	471.982	0.0013044	P_COM
J12_53	479.576	0.0026311	P_IND
J12_54	484.337	0.0014534	P_RES
J12_55	490.983	0.0023016	P_COM
J12_56	496.819	0.0011761	P_RES
J12_57	500.715	0.0026109	P_RES
J12_58	508.415	0.0014561	P_RES
J12_59	513.804	0.0018726	P_RES
J12_60	518.656	0.0027948	P_COM
J12_61	525.738	0.0026771	P_RES
J12_62	531.095	0.0011416	P_RES
J12_63	535.137	0.0012816	P_RES
J12_64	541.394	0.0029509	P_COM
J12_65	548.221	0.0020647	P_COM
J12_66	552.012	0.0021647	P_RES
J13_1	166.176	0.0018149	P_RES
J13_2	170.710	0.0012944	P_IND
J13_3	178.182	0.0011760	P_RES
J13_4	183.762	0.0007214	P_RES
J13_5	190.618	0.0019982	P_RES
J13_6	196.473	0.0012916	P_RES
J13_7	202.745	0.0007294	P_RES
J13_8	207.499	0.0009450	P_RES
J13_9	213.535	0.0018062	P_RES
J13_10	221.818	0.0010805	P_RES
J13_11	227.895	0.0014060	P_RES
J13_12	233.897	0.0013656	P_RES
J13_13	238.393	0.0037971	P_COM
J13_14	246.015	0.0018939	P_RES
J13_15	251.364	0.0023337	P_COM
J13_16	257.493	0.0036557	P_RES
J13_17	264.125	0.0011844	P_RES
J13_18	269.345	0.0010876	P_RES
J13_19	275.813	0.0013092	P_RES
J13_20	281.729	0.0021940	P_RES
J13_21	288.735	0.0018736	P_RES
J13_22	295.128	0.0005911	P_RES
J13_23	298.998	0.0016110	P_RES
J13_24	307.152	0.0037352	P_IND
J13_25	311.457	0.0026727	P_IND
J13_26	317.163	0.0018577	P_RES
J13_27	323.678	0.0024173	P_COM
J13_28	330.302	0.0009096	P_COM
J13_29	336.475	0.0031107	P_COM
J13_30	341.114	0.0011235	P_RES
J13_31	349.423	0.0012002	P_COM
J13_32	354.476	0.0020312	P_RES
J13_33	359.691	0.0008118	P_RES
J13_34	366.842	0.0020032	P_RES
J13_35	372.817	0.0007572	P_RES
J13_36	377.734	0.0010461	P_RES
J13_37	383.884	0.0029404	P_RES
J13_38	390.424	0.0014706	P_RES
J13_39	395.272	0.0017637	P_COM
J13_40	401.938	0.0017517	P_COM
J13_41	406.788	0.0024638	P_COM
J13_42	413.412	0.0020981	P_RES
J13_43	418.894	0.0036692	P_IND
J13_44	424.494	0.0015807	P_COM
J13_45	430.501	0.0028720	P_COM
J13_46	436.887	0.0036476	P_RES
J13_47	442.994	0.0015410	P_RES
J13_48	447.721	0.0012099	P_RES
J13_49	453.339	0.0024706	P_COM
J13_50	459.426	0.0015268	P_IND
J13_51	466.281	0.0011343	P_RES
J13_52	471.184	0.0008268	P_RES
J13_53	476.655	0.0015448	P_RES
J13_54	482.910	0.0007127	P_RES
J13_55	488.308	0.0019388	P_RES
J13_56	494.130	0.0023884	P_COM
J13_57	501.222	0.0018868	P_IND
J13_58	506.130	0.0014704	P_RES
J13_59	512.538	0.0007166	P_RES
J13_60	516.052	0.0010933	P_RES
J13_61	523.274	0.0010796	P_RES
J13_62	529.404	0.0012254	P_COM
J13_63	533.252	0.0012627	P_COM
J13_64	539.126	0.0041584	P_IND
J13_65	544.513	0.0012288	P_RES
J13_66	551.800	0.0029855	P_RES
J14_1	164.834	0.0010987	P_RES
J14_2	169.617	0.0019061	P_COM
J14_3	176.656	0.0034295	P_COM
J14_4	181.342	0.0021630	P_RES
J14_5	189.316	0.0007131	P_RES
J14_6	195.277	0.0013375	P_RES
J14_7	201.375	0.0014659	P_RES
J14_8	207.387	0.0005302	P_RES
J14_9	213.084	0.0012051	P_RES
J14_10	219.841	0.0018934	P_COM
J14_11	224.189	0.0009742	P_RES
J14_12	231.402	0.0026506	P_RES
J14_13	236.724	0.0010739	P_RES
J14_14	244.287	0.0011000	P_RES
J14_15	249.218	0.0014001	P_RES
J14_16	256.666	0.0016261	P_RES
J14_17	261.745	0.0028773	P_COM
J14_18	268.663	0.0005643	P_RES
J14_19	274.512	0.0008327	P_RES
J14_20	279.550	0.0015752	P_RES
J14_21	285.898	0.0023947	P_COM
J14_22	292.402	0.0012705	P_RES
J14_23	299.459	0.0082469	P_COM
J14_24	303.609	0.0042720	P_IND
J14_25	310.646	0.0025690	P_IND
J14_26	317.711	0.0021065	P_RES
J14_27	323.260	0.0010103	P_RES
J14_28	327.491	0.0011524	P_RES
J14_29	333.738	0.0004141	P_RES
J14_30	340.574	0.0026183	P_RES
J14_31	346.715	0.0025153	P_COM
J14_32	353.121	0.0018271	P_RES
J14_33	359.269	0.0031834	P_IND
J14_34	364.363	0.0007967	P_RES
J14_35	369.827	0.0010085	P_RES
J14_36	376.452	0.0004259	P_RES
J14_37	381.095	0.0007772	P_RES
J14_38	388.614	0.0017755	P_RES
J14_39	393.980	0.0009431	P_RES
J14_40	399.900	0.0016950	P_RES
J14_41	405.056	0.0016269	P_RES
J14_42	412.837	0.0006693	P_RES
J14_43	416.608	0.0006962	P_RES
J14_44	424.320	0.0015748	P_RES
J14_45	429.558	0.0014463	P_RES
J14_46	436.164	0.0031172	P_IND
J14_47	439.993	0.0012746	P_COM
J14_48	446.768	0.0015760	P_RES
J14_49	453.199	0.0009821	P_RES
J14_50	459.240	0.0023595	P_COM
J14_51	464.330	0.0017845	P_RES
J14_52	469.061	0.0085270	P_IND
J14_53	476.522	0.0011484	P_RES
J14_54	481.216	0.0016692	P_RES
J14_55	488.141	0.0003821	P_RES
J14_56	491.787	0.0029899	P_RES
J14_57	497.467	0.0021841	P_COM
J14_58	504.998	0.0015848	P_RES
J14_59	510.320	0.0012939	P_RES
J14_60	514.647	0.0010986	P_RES
J14_61	520.760	0.0023046	P_COM
J14_62	527.046	0.0023184	P_RES
J14_63	533.351	0.0016153	P_RES
J14_64	539.228	0.0014209	P_RES
J14_65	544.860	0.0022904	P_IND
J14_66	548.630	0.0030416	P_COM
J15_1	162.098	0.0017901	P_RES
J15_2	169.450	0.0024526	P_IND
J15_3	175.261	0.0008928	P_RES
J15_4	181.574	0.0017203	P_COM
J15_5	187.520	0.0020174	P_RES
J15_6	192.574	0.0007480	P_RES
J15_7	199.446	0.0034285	P_COM
J15_8	204.749	0.0040138	P_RES
J15_9	211.350	0.0020562	P_COM
J15_10	217.489	0.0012026	P_RES
J15_11	224.510	0.0018687	P_RES
J15_12	229.891	0.0014183	P_RES
J15_13	235.061	0.0012999	P_RES
J15_14	241.109	0.0010073	P_COM
J15_15	249.051	0.0013813	P_RES
J15_16	253.561	0.0009295	P_RES
J15_17	260.009	0.0028344	P_IND
J15_18	267.107	0.0018897	P_RES
J15_19	271.421	0.0018962	P_COM
J15_20	278.021	0.0008815	P_RES
J15_21	284.371	0.0021466	P_RES
J15_22	289.552	0.0018733	P_COM
J15_23	295.598	0.0015598	P_RES
J15_24	301.686	0.0034089	P_COM
J15_25	307.947	0.0006181	P_RES
J15_26	315.936	0.0007186	P_RES
J15_27	321.003	0.0030313	P_COM
J15_28	325.715	0.0024884	P_COM
J15_29	332.179	0.0027319	P_COM
J15_30	338.843	0.0025153	P_COM
J15_31	344.158	0.0012251	P_RES
J15_32	350.951	0.0027171	P_RES
J15_33	356.931	0.0008890	P_RES
J15_34	363.449	0.0016130	P_RES
J15_35	369.817	0.0027046	P_COM
J15_36	374.761	0.0018334	P_RES
J15_37	381.214	0.0027400	P_RES
J15_38	386.187	0.0014904	P_RES
J15_39	393.557	0.0006578	P_RES
J15_40	397.384	0.0009007	P_RES
J15_41	404.820	0.0007729	P_RES
J15_42	409.407	0.0033306	P_COM
J15_43	416.216	0.0025173	P_RES
J15_44	421.415	0.0036141	P_RES
J15_45	428.553	0.0012149	P_RES
J15_46	434.192	0.0017735	P_RES
J15_47	439.215	0.0013977	P_COM
J15_48	444.375	0.0024129	P_COM
J15_49	451.637	0.0025254	P_COM
J15_50	456.321	0.0013715	P_RES
J15_51	462.660	0.0011596	P_RES
J15_52	467.843	0.0006955	P_RES
J15_53	474.901	0.0006545	P_RES
J15_54	480.014	0.0017979	P_RES
J15_55	484.709	0.0020722	P_RES
J15_56	490.060	0.0024781	P_COM
J15_57	497.024	0.0042449	P_IND
J15_58	502.586	0.0014470	P_RES
J15_59	507.976	0.0004917	P_RES
J15_60	514.738	0.0010016	P_RES
J15_61	519.701	0.0015797	P_RES
J15_62	524.621	0.0017922	P_RES
J15_63	531.139	0.0012950	P_RES
J15_64	537.443	0.0014137	P_RES
J15_65	542.044	0.0020755	P_RES
J15_66	546.818	0.0016478	P_RES
J16_1	159.396	0.0011201	P_RES
J16_2	167.294	0.0044061	P_IND
J16_3	173.126	0.0011846	P_RES
J16_4	178.569	0.0035690	P_COM
J16_5	185.540	0.0031413	P_RES
J16_6	190.258	0.0010620	P_RES
J16_7	197.654	0.0013271	P_RES
J16_8	203.665	0.0010991	P_RES
J16_9	208.874	0.0024746	P_COM
J16_10	215.268	0.0040416	P_COM
J16_11	222.628	0.0008631	P_RES
J16_12	227.330	0.0014861	P_RES
J16_13	234.440	0.0030356	P_COM
J16_14	241.274	0.0025221	P_COM
J16_15	246.643	0.0007369	P_COM
J16_16	253.298	0.0005558	P_RES
J16_17	258.749	0.0010170	P_RES
J16_18	265.613	0.0012977	P_RES
J16_19	269.716	0.0015161	P_RES
J16_20	277.622	0.0011717	P_RES
J16_21	282.242	0.0037758	P_IND
J16_22	289.462	0.0014313	P_RES
J16_23	296.102	0.0031579	P_RES
J16_24	301.703	0.0010189	P_RES
J16_25	307.239	0.0009393	P_COM
J16_26	313.432	0.0018648	P_COM
J16_27	318.223	0.0012874	P_RES
J16_28	325.877	0.0018311	P_RES
J16_29	332.143	0.0011977	P_COM
J16_30	336.073	0.0012287	P_RES
J16_31	342.519	0.0024879	P_RES
J16_32	349.845	0.0021968	P_RES
J16_33	354.222	0.0020994	P_RES
J16_34	361.552	0.0023846	P_RES
J16_35	368.235	0.0027381	P_COM
J16_36	372.623	0.0024644	P_IND
J16_37	378.175	0.0035605	P_IND
J16_38	384.035	0.0020565	P_COM
J16_39	391.808	0.0013515	P_RES
J16_40	395.439	0.0009509	P_RES
J16_41	403.060	0.0014074	P_RES
J16_42	407.619	0.0020548	P_RES
J16_43	413.199	0.0036161	P_COM
J16_44	419.183	0.0009797	P_RES
J16_45	425.218	0.0015940	P_RES
J16_46	431.964	0.0029008	P_COM
J16_47	437.749	0.0015904	P_RES
J16_48	442.313	0.0009225	P_RES
J16_49	448.262	0.0031425	P_COM
J16_50	455.871	0.0041194	P_IND
J16_51	461.658	0.0009644	P_RES
J16_52	465.559	0.0029373	P_RES
J16_53	473.116	0.0011445	P_COM
J16_54	478.892	0.0031407	P_RES
J16_55	484.702	0.0035584	P_IND
J16_56	488.198	0.0007412	P_RES
J16_57	495.035	0.0011595	P_RES
J16_58	499.831	0.0020106	P_RES
J16_59	505.947	0.0022185	P_RES
J16_60	513.278	0.0017934	P_COM
J16_61	518.547	0.0024913	P_COM
J16_62	522.824	0.0027684	P_RES
J16_63	529.324	0.0013712	P_COM
J16_64	535.467	0.0015640	P_RES
J16_65	540.083	0.0006610	P_RES
J16_66	547.208	0.0010222	P_RES
J17_1	158.279	0.0012726	P_COM
J17_2	165.543	0.0009212	P_RES
J17_3	171.035	0.0025227	P_COM
J17_4	177.335	0.0022417	P_RES
J17_5	184.564	0.0014734	P_COM
J17_6	189.027	0.0019688	P_RES
J17_7	195.656	0.0006687	P_RES
J17_8	202.418	0.0023184	P_RES
J17_9	208.356	0.0023616	P_IND
J17_10	212.918	0.0038288	P_COM
J17_11	220.225	0.0006750	P_RES
J17_12	227.282	0.0007729	P_RES
J17_13	231.820	0.0024669	P_COM
J17_14	237.866	0.0038332	P_IND
J17_15	244.769	0.0040561	P_IND
J17_16	249.833	0.0009872	P_RES
J17_17	256.349	0.0012546	P_RES
J17_18	261.864	0.0011614	P_RES
J17_19	267.874	0.0019440	P_RES
J17_20	274.006	0.0010085	P_RES
J17_21	281.386	0.0006633	P_RES
J17_22	288.214	0.0030150	P_IND
J17_23	294.476	0.0009817	P_RES
J17_24	298.431	0.0014796	P_RES
J17_25	305.396	0.0008148	P_RES
J17_26	311.859	0.0019190	P_IND
J17_27	316.441	0.0017153	P_RES
J17_28	324.385	0.0016064	P_RES
J17_29	330.484	0.0011148	P_RES
J17_30	336.430	0.0009798	P_RES
J17_31	340.911	0.0020395	P_RES
J17_32	347.385	0.0011862	P_RES
J17_33	353.676	0.0010822	P_RES
J17_34	358.599	0.0019769	P_RES
J17_35	365.394	0.0014339	P_COM
J17_36	372.175	0.0014419	P_RES
J17_37	376.160	0.0030536	P_IND
J17_38	384.037	0.0017736	P_RES
J17_39	389.404	0.0047529	P_RES
J17_40	394.928	0.0007174	P_RES
J17_41	400.518	0.0034347	P_IND
J17_42	406.212	0.0019254	P_RES
J17_43	412.673	0.0009310	P_RES
J17_44	419.217	0.0007163	P_RES
J17_45	425.303	0.0028607	P_RES
J17_46	429.189	0.0009541	P_RES
J17_47	436.873	0.0034258	P_IND
J17_48	442.313	0.0008164	P_RES
J17_49	447.538	0.0025360	P_COM
J17_50	452.334	0.0017548	P_RES
J17_51	460.024	0.0009797	P_RES
J17_52	465.221	0.0006469	P_RES
J17_53	469.878	0.0014226	P_COM
J17_54	475.451	0.0021531	P_RES
J17_55	482.764	0.0007664	P_RES
J17_56	487.512	0.0012446	P_COM
J17_57	492.655	0.0021269	P_RES
J17_58	499.994	0.0018614	P_RES
J17_59	505.364	0.0012855	P_RES
J17_60	509.933	0.0024938	P_COM
J17_61	515.002	0.0022477	P_COM
J17_62	521.145	0.0018828	P_COM
J17_63	528.158	0.0009975	P_RES
J17_64	533.688	0.0012673	P_RES
J17_65	538.510	0.0012781	P_RES
J17_66	544.632	0.0019524	P_RES
J18_1	156.448	0.0013754	P_COM
J18_2	163.080	0.0013306	P_RES
J18_3	169.521	0.0013249	P_RES
J18_4	175.779	0.0012723	P_RES
J18_5	182.413	0.0015440	P_RES
J18_6	188.681	0.0018917	P_RES
J18_7	192.798	0.0014010	P_RES
J18_8	199.522	0.0014170	P_RES
J18_9	205.649	0.0012680	P_RES
J18_10	212.363	0.0045636	P_COM
J18_11	218.518	0.0043244	P_RES
J18_12	224.669	0.0008159	P_RES
J18_13	230.076	0.0012270	P_RES
J18_14	237.952	0.0015543	P_RES
J18_15	244.097	0.0006750	P_RES
J18_16	248.757	0.0008784	P_RES
J18_17	255.247	0.0008439	P_RES
J18_18	261.033	0.0016371	P_RES
J18_19	268.366	0.0008285	P_RES
J18_20	274.457	0.0016294	P_RES
J18_21	279.300	0.0020866	P_IND
J18_22	286.052	0.0024687	P_COM
J18_23	291.012	0.0023193	P_RES
J18_24	297.432	0.0016079	P_RES
J18_25	304.914	0.0032521	P_COM
J18_26	309.068	0.0015570	P_RES
J18_27	315.594	0.0008516	P_RES
J18_28	322.786	0.0021527	P_COM
J18_29	327.809	0.0032495	P_COM
J18_30	332.834	0.0020879	P_RES
J18_31	338.813	0.0013795	P_RES
J18_32	344.655	0.0025316	P_COM
J18_33	352.552	0.0019312	P_RES
J18_34	357.383	0.0024283	P_RES
J18_35	363.743	0.0023196	P_RES
J18_36	369.307	0.0015299	P_RES
J18_37	374.474	0.0007376	P_RES
J18_38	381.960	0.0012697	P_COM
J18_39	386.302	0.0019507	P_RES
J18_40	393.113	0.0023444	P_IND
J18_41	400.002	0.0008857	P_RES
J18_42	404.098	0.0015358	P_COM
J18_43	410.774	0.0032043	P_COM
J18_44	415.717	0.0020950	P_RES
J18_45	421.705	0.0029528	P_IND
J18_46	428.699	0.0013023	P_RES
J18_47	433.715	0.0022479	P_RES
J18_48	439.396	0.0023934	P_IND
J18_49	445.536	0.0007881	P_RES
J18_50	450.837	0.0022842	P_COM
J18_51	457.094	0.0009916	P_RES
J18_52	462.606	0.0022119	P_IND
J18_53	469.559	0.0027445	P_COM
J18_54	473.533	0.0012322	P_RES
J18_55	479.155	0.0007672	P_RES
J18_56	486.446	0.0011305	P_RES
J18_57	491.744	0.0008772	P_RES
J18_58	496.196	0.0011675	P_RES
J18_59	502.841	0.0018343	P_RES
J18_60	508.912	0.0022773	P_RES
J18_61	514.076	0.0016760	P_RES
J18_62	521.141	0.0020079	P_COM
J18_63	526.820	0.0035047	P_COM
J18_64	530.846	0.0014804	P_RES
J18_65	537.977	0.0043454	P_COM
J18_66	543.765	0.0039447	P_COM
J19_1	155.991	0.0026058	P_RES
J19_2	161.422	0.0012583	P_RES
J19_3	167.737	0.0017707	P_RES
J19_4	174.640	0.0008239	P_COM
J19_5	179.014	0.0015614	P_RES
J19_6	184.957	0.0046289	P_COM
J19_7	193.097	0.0018961	P_RES
J19_8	198.800	0.0008183	P_RES
J19_9	203.669	0.0010835	P_RES
J19_10	209.700	0.0010927	P_RES
J19_11	217.568	0.0018359	P_COM
J19_12	222.818	0.0023300	P_IND
J19_13	229.326	0.0008696	P_RES
J19_14	235.308	0.0008633	P_RES
J19_15	240.533	0.0014601	P_RES
J19_16	247.095	0.0035323	P_IND
J19_17	254.048	0.0018661	P_COM
J19_18	259.929	0.0015603	P_RES
J19_19	264.959	0.0008529	P_RES
J19_20	270.906	0.0011254	P_RES
J19_21	277.803	0.0007947	P_RES
J19_22	283.322	0.0013223	P_RES
J19_23	289.005	0.0031047	P_COM
J19_24	295.131	0.0015199	P_RES
J19_25	301.845	0.0042237	P_IND
J19_26	307.015	0.0009126	P_RES
J19_27	314.700	0.0026562	P_IND
J19_28	320.350	0.0018145	P_COM
J19_29	326.767	0.0013718	P_RES
J19_30	331.930	0.0010493	P_RES
J19_31	338.339	0.0017992	P_RES
J19_32	344.538	0.0011778	P_RES
J19_33	349.740	0.0039468	P_IND
J19_34	356.729	0.0016136	P_RES
J19_35	362.177	0.0020225	P_COM
J19_36	367.860	0.0009976	P_RES
J19_37	374.336	0.0015681	P_RES
J19_38	379.025	0.0006019	P_RES
J19_39	385.790	0.0045424	P_COM
J19_40	392.530	0.0046338	P_IND
J19_41	396.662	0.0032952	P_IND
J19_42	403.648	0.0023118	P_RES
J19_43	409.021	0.0024247	P_RES
J19_44	414.035	0.0015037	P_RES
J19_45	421.140	0.0035446	P_IND
J19_46	427.116	0.0015383	P_COM
J19_47	433.281	0.0045775	P_COM
J19_48	438.623	0.0013786	P_RES
J19_49	445.129	0.0030054	P_RES
J19_50	450.048	0.0041964	P_IND
J19_51	455.408	0.0023196	P_RES
J19_52	461.096	0.0005788	P_RES
J19_53	466.376	0.0008529	P_RES
J19_54	472.128	0.0013961	P_COM
J19_55	479.106	0.0009401	P_RES
J19_56	483.287	0.0023108	P_COM
J19_57	488.771	0.0017203	P_RES
J19_58	495.097	0.0006837	P_RES
J19_59	502.451	0.0018857	P_RES
J19_60	507.257	0.0011015	P_RES
J19_61	513.876	0.0040154	P_IND
J19_62	518.114	0.0060236	P_IND
J19_63	523.924	0.0012444	P_COM
J19_64	528.997	0.0014793	P_RES
J19_65	535.961	0.0037240	P_COM
J19_66	541.039	0.0018549	P_COM
J20_1	153.016	0.0032028	P_RES
J20_2	160.938	0.0036578	P_RES
J20_3	167.074	0.0017114	P_RES
J20_4	172.944	0.0024596	P_RES
J20_5	177.243	0.0013942	P_RES
J20_6	184.447	0.0014420	P_RES
J20_7	189.352	0.0038512	P_COM
J20_8	197.077	0.0009000	P_RES
J20_9	201.680	0.0057775	P_IND
J20_10	209.147	0.0014821	P_RES
J20_11	214.159	0.0015678	P_RES
J20_12	220.770	0.0007261	P_RES
J20_13	227.490	0.0017132	P_RES
J20_14	233.789	0.0012809	P_COM
J20_15	240.435	0.0009046	P_RES
J20_16	245.649	0.0013748	P_RES
J20_17	251.931	0.0021854	P_RES
J20_18	256.732	0.0020746	P_COM
J20_19	264.217	0.0039430	P_IND
J20_20	268.928	0.0017130	P_COM
J20_21	275.266	0.0055954	P_COM
J20_22	283.153	0.0023305	P_IND
J20_23	288.850	0.0019609	P_RES
J20_24	294.052	0.0023107	P_COM
J20_25	299.750	0.0005212	P_RES
J20_26	305.974	0.0006535	P_RES
J20_27	312.826	0.0015373	P_RES
J20_28	317.686	0.0020788	P_RES
J20_29	324.585	0.0016182	P_RES
J20_30	330.351	0.0017553	P_COM
J20_31	335.276	0.0039078	P_COM
J20_32	342.664	0.0009623	P_COM
J20_33	348.971	0.0014261	P_COM
J20_34	355.259	0.0035840	P_RES
J20_35	360.634	0.0007124	P_RES
J20_36	365.276	0.0034906	P_IND
J20_37	372.629	0.0005385	P_RES
J20_38	377.911	0.0013604	P_RES
J20_39	383.142	0.0016173	P_RES
J20_40	389.601	0.0010899	P_RES
J20_41	394.449	0.0019033	P_RES
J20_42	401.338	0.0007418	P_RES
J20_43	407.343	0.0008488	P_RES
J20_44	413.174	0.0015783	P_RES
J20_45	418.374	0.0008167	P_RES
J20_46	424.629	0.0006724	P_RES
J20_47	431.457	0.0013842	P_COM
J20_48	437.253	0.0012414	P_RES
J20_49	443.271	0.0024825	P_COM
J20_50	447.857	0.0014966	P_RES
J20_51	454.555	0.0025963	P_COM
J20_52	458.890	0.0008657	P_RES
J20_53	466.288	0.0019599	P_IND
J20_54	471.335	0.0025007	P_IND
J20_55	476.460	0.0009535	P_RES
J20_56	482.836	0.0018174	P_RES
J20_57	489.042	0.0017741	P_COM
J20_58	493.358	0.0009098	P_RES
J20_59	499.843	0.0020165	P_RES
J20_60	504.932	0.0010609	P_RES
J20_61	512.056	0.0057100	P_IND
J20_62	516.263	0.0018143	P_RES
J20_63	521.460	0.0016145	P_COM
J20_64	527.212	0.0017987	P_RES
J20_65	533.721	0.0017205	P_COM
J20_66	538.918	0.0030099	P_COM
J21_1	151.103	0.0020681	P_RES
J21_2	157.655	0.0014153	P_COM
J21_3	163.579	0.0017132	P_COM
J21_4	170.202	0.0016351	P_COM
J21_5	176.778	0.0009400	P_RES
J21_6	182.662	0.0011432	P_RES
J21_7	187.909	0.0032626	P_IND
J21_8	194.847	0.0015866	P_RES
J21_9	201.755	0.0011767	P_RES
J21_10	206.610	0.0016682	P_COM
J21_11	214.234	0.0015498	P_RES
J21_12	220.609	0.0010087	P_RES
J21_13	226.753	0.0008179	P_RES
J21_14	231.346	0.0020621	P_RES
J21_15	238.421	0.0006609	P_RES
J21_16	243.100	0.0024584	P_COM
J21_17	250.062	0.0022576	P_RES
J21_18	257.114	0.0009752	P_RES
J21_19	261.710	0.0011401	P_RES
J21_20	269.189	0.0021358	P_RES
J21_21	273.297	0.0009663	P_RES
J21_22	280.956	0.0007911	P_RES
J21_23	287.125	0.0015854	P_COM
J21_24	292.734	0.0026798	P_COM
J21_25	298.028	0.0022882	P_COM
J21_26	303.637	0.0014946	P_RES
J21_27	311.391	0.0012032	P_COM
J21_28	315.950	0.0012536	P_RES
J21_29	323.740	0.0009291	P_RES
J21_30	329.545	0.0018197	P_RES
J21_31	334.077	0.0014233	P_RES
J21_32	339.839	0.0040019	P_IND
J21_33	346.651	0.0016320	P_RES
J21_34	351.692	0.0030998	P_COM
J21_35	358.896	0.0028398	P_RES
J21_36	363.776	0.0011922	P_RES
J21_37	369.980	0.0008251	P_RES
J21_38	375.511	0.0014955	P_RES
J21_39	382.269	0.0016298	P_COM
J21_40	388.535	0.0028254	P_IND
J21_41	393.588	0.0034451	P_RES
J21_42	400.179	0.0041083	P_COM
J21_43	406.413	0.0013584	P_RES
J21_44	412.211	0.0014024	P_RES
J21_45	418.243	0.0005142	P_RES
J21_46	423.490	0.0013453	P_RES
J21_47	428.868	0.0029223	P_COM
J21_48	435.348	0.0021508	P_RES
J21_49	439.545	0.0007385	P_RES
J21_50	447.276	0.0012636	P_RES
J21_51	451.359	0.0013370	P_RES
J21_52	457.136	0.0013706	P_IND
J21_53	464.301	0.0045229	P_RES
J21_54	470.084	0.0012887	P_COM
J21_55	474.547	0.0031237	P_COM
J21_56	479.751	0.0067208	P_IND
J21_57	486.250	0.0007907	P_RES
J21_58	492.311	0.0024652	P_RES
J21_59	498.730	0.0020017	P_RES
J21_60	504.005	0.0009330	P_RES
J21_61	509.072	0.0006305	P_RES
J21_62	513.910	0.0015859	P_COM
J21_63	521.470	0.0031078	P_RES
J21_64	526.199	0.0043910	P_IND
J21_65	531.626	0.0015464	P_RES
J21_66	536.302	0.0015842	P_RES
J22_1	150.980	0.0011713	P_COM
J22_2	156.446	0.0027637	P_COM
J22_3	162.860	0.0010117	P_RES
J22_4	169.550	0.0008565	P_RES
J22_5	175.470	0.0018580	P_IND
J22_6	180.486	0.0027581	P_COM
J22_7	186.954	0.0027397	P_IND
J22_8	193.706	0.0018163	P_COM
J22_9	199.743	0.0022094	P_COM
J22_10	206.484	0.0028759	P_IND
J22_11	212.301	0.0008702	P_RES
J22_12	216.791	0.0024684	P_COM
J22_13	223.924	0.0015493	P_RES
J22_14	229.754	0.0012914	P_RES
J22_15	235.242	0.0013419	P_RES
J22_16	241.700	0.0033839	P_COM
J22_17	248.041	0.0013897	P_RES
J22_18	254.416	0.0050265	P_IND
J22_19	259.637	0.0013807	P_RES
J22_20	266.614	0.0029022	P_COM
J22_21	272.996	0.0036432	P_COM
J22_22	279.009	0.0011887	P_RES
J22_23	284.015	0.0008001	P_RES
J22_24	290.071	0.0025569	P_RES
J22_25	296.808	0.0017760	P_RES
J22_26	301.892	0.0006980	P_RES
J22_27	308.672	0.0017300	P_RES
J22_28	314.341	0.0007474	P_RES
J22_29	319.796	0.0012290	P_RES
J22_30	326.377	0.0013000	P_RES
J22_31	331.676	0.0018924	P_RES
J22_32	338.001	0.0027239	P_RES
J22_33	344.241	0.0011621	P_COM
J22_34	350.015	0.0012862	P_RES
J22_35	356.146	0.0019913	P_IND
J22_36	362.410	0.0009544	P_RES
J22_37	367.921	0.0013681	P_RES
J22_38	375.231	0.0006895	P_RES
J22_39	381.007	0.0014049	P_RES
J22_40	387.300	0.0028848	P_IND
J22_41	392.616	0.0027450	P_RES
J22_42	397.568	0.0014923	P_RES
J22_43	403.791	0.0025446	P_RES
J22_44	408.736	0.0006411	P_RES
J22_45	414.834	0.0019307	P_COM
J22_46	421.947	0.0025629	P_RES
J22_47	427.097	0.0020033	P_RES
J22_48	432.280	0.0025110	P_COM
J22_49	439.576	0.0017545	P_RES
J22_50	443.908	0.0015479	P_RES
J22_51	449.956	0.0041229	P_IND
J22_52	455.082	0.0008594	P_RES
J22_53	462.979	0.0012683	P_COM
J22_54	468.299	0.0007134	P_RES
J22_55	474.116	0.0013116	P_RES
J22_56	479.960	0.0029743	P_IND
J22_57	484.951	0.0052934	P_IND
J22_58	489.717	0.0029028	P_IND
J22_59	496.670	0.0028621	P_COM
J22_60	501.544	0.0019646	P_RES
J22_61	506.692	0.0015670	P_RES
J22_62	514.005	0.0015970	P_COM
J22_63	517.710	0.0007514	P_RES
J22_64	525.005	0.0016139	P_RES
J22_65	531.292	0.0029838	P_RES
J22_66	536.610	0.0037148	P_IND
J23_1	147.652	0.0017180	P_RES
J23_2	154.372	0.0007526	P_RES
J23_3	159.680	0.0012698	P_RES
J23_4	167.378	0.0032898	P_COM
J23_5	172.400	0.0006647	P_RES
J23_6	179.166	0.0030726	P_RES
J23_7	186.209	0.0025528	P_COM
J23_8	191.702	0.0011252	P_RES
J23_9	197.686	0.0016448	P_RES
J23_10	204.550	0.0037004	P_RES
J23_11	210.756	0.0009497	P_RES
J23_12	216.661	0.0016950	P_RES
J23_13	222.738	0.0052512	P_COM
J23_14	228.494	0.0014497	P_RES
J23_15	233.734	0.0013689	P_RES
J23_16	241.052	0.0022056	P_RES
J23_17	247.311	0.0012508	P_RES
J23_18	252.528	0.0019603	P_COM
J23_19	258.705	0.0006884	P_RES
J23_20	264.578	0.0021255	P_IND
J23_21	269.744	0.0012632	P_RES
J23_22	277.259	0.0007628	P_RES
J23_23	282.285	0.0021669	P_COM
J23_24	289.628	0.0011644	P_RES
J23_25	293.991	0.0019780	P_RES
J23_26	301.908	0.0010250	P_RES
J23_27	307.289	0.0023790	P_RES
J23_28	312.547	0.0023411	P_COM
J23_29	319.920	0.0015471	P_COM
J23_30	325.744	0.0036269	P_COM
J23_31	330.420	0.0013506	P_RES
J23_32	337.127	0.0020052	P_RES
J23_33	342.577	0.0008488	P_RES
J23_34	349.119	0.0006384	P_RES
J23_35	355.877	0.0017353	P_COM
J23_36	360.222	0.0009750	P_RES
J23_37	366.645	0.0021571	P_COM
J23_38	372.406	0.0012392	P_RES
J23_39	377.729	0.0021913	P_RES
J23_40	384.232	0.0022995	P_IND
J23_41	389.961	0.0013918	P_RES
J23_42	395.804	0.0012308	P_RES
J23_43	403.273	0.0022598	P_COM
J23_44	408.139	0.0025566	P_RES
J23_45	414.038	0.0006700	P_RES
J23_46	420.803	0.0019837	P_RES
J23_47	425.316	0.0018546	P_COM
J23_48	431.879	0.0027007	P_COM
J23_49	436.905	0.0009175	P_RES
J23_50	442.064	0.0006979	P_RES
J23_51	449.782	0.0015168	P_IND
J23_52	454.024	0.0037485	P_IND
J23_53	461.111	0.0025659	P_RES
J23_54	465.589	0.0004954	P_RES
J23_55	471.846	0.0028732	P_RES
J23_56	476.916	0.0009596	P_RES
J23_57	484.155	0.0018931	P_IND
J23_58	487.636	0.0028345	P_COM
J23_59	494.132	0.0008990	P_RES
J23_60	500.292	0.0023606	P_COM
J23_61	505.592	0.0037752	P_IND
J23_62	510.872	0.0009769	P_RES
J23_63	517.363	0.0012325	P_RES
J23_64	521.588	0.0014737	P_RES
J23_65	529.011	0.0014274	P_RES
J23_66	533.693	0.0016794	P_IND
J24_1	147.433	0.0014746	P_RES
J24_2	153.411	0.0025199	P_COM
J24_3	159.863	0.0042471	P_RES
J24_4	166.037	0.0030630	P_COM
J24_5	171.327	0.0028826	P_IND
J24_6	177.188	0.0021723	P_RES
J24_7	183.134	0.0016729	P_COM
J24_8	190.109	0.0008646	P_RES
J24_9	196.917	0.0026983	P_COM
J24_10	201.997	0.0022903	P_RES
J24_11	208.739	0.0021978	P_RES
J24_12	214.572	0.0021849	P_RES
J24_13	219.695	0.0018425	P_RES
J24_14	227.287	0.0019201	P_RES
J24_15	232.212	0.0023863	P_IND
J24_16	239.633	0.0005835	P_RES
J24_17	244.887	0.0006892	P_RES
J24_18	252.009	0.0022764	P_RES
J24_19	256.482	0.0014668	P_RES
J24_20	261.854	0.0015683	P_COM
J24_21	270.297	0.0009506	P_RES
J24_22	274.912	0.0010935	P_RES
J24_23	280.181	0.0012892	P_RES
J24_24	287.846	0.0009013	P_COM
J24_25	292.439	0.0015245	P_COM
J24_26	299.061	0.0011868	P_RES
J24_27	304.767	0.0014213	P_RES
J24_28	310.283	0.0024403	P_COM
J24_29	317.495	0.0011864	P_RES
J24_30	322.358	0.0012591	P_RES
J24_31	330.164	0.0009965	P_RES
J24_32	334.886	0.0006037	P_RES
J24_33	342.269	0.0014399	P_COM
J24_34	346.397	0.0004047	P_RES
J24_35	352.062	0.0014355	P_RES
J24_36	358.880	0.0008030	P_RES
J24_37	365.840	0.0013283	P_RES
J24_38	371.885	0.0011637	P_RES
J24_39	375.968	0.0009365	P_RES
J24_40	382.470	0.0008023	P_RES
J24_41	387.989	0.0013332	P_RES
J24_42	393.334	0.0049351	P_IND
J24_43	399.788	0.0006368	P_RES
J24_44	407.191	0.0007933	P_RES
J24_45	411.710	0.0019289	P_RES
J24_46	418.483	0.0015602	P_COM
J24_47	422.529	0.0015729	P_RES
J24_48	429.186	0.0017207	P_COM
J24_49	436.248	0.0007716	P_RES
J24_50	440.715	0.0016117	P_RES
J24_51	447.087	0.0043941	P_RES
J24_52	452.237	0.0011719	P_RES
J24_53	457.302	0.0015580	P_RES
J24_54	463.919	0.0028247	P_RES
J24_55	469.416	0.0013748	P_RES
J24_56	476.219	0.0006089	P_RES
J24_57	480.390	0.0010311	P_RES
J24_58	486.724	0.0010506	P_RES
J24_59	493.062	0.0007451	P_RES
J24_60	499.023	0.0012077	P_RES
J24_61	503.802	0.0020517	P_COM
J24_62	509.724	0.0013984	P_COM
J24_63	515.044	0.0022317	P_RES
J24_64	521.192	0.0018663	P_RES
J24_65	525.649	0.0016182	P_RES
J24_66	531.639	0.0025241	P_COM
J25_1	144.811	0.0015310	P_RES
J25_2	150.141	0.0011565	P_COM
J25_3	157.893	0.0021566	P_RES
J25_4	164.097	0.0037014	P_IND
J25_5	170.608	0.0011368	P_RES
J25_6	175.936	0.0015848	P_RES
J25_7	182.234	0.0014555	P_RES
J25_8	187.653	0.0005703	P_RES
J25_9	194.904	0.0029163	P_COM
J25_10	199.683	0.0007797	P_RES
J25_11	206.718	0.0020438	P_RES
J25_12	212.058	0.0008119	P_RES
J25_13	219.502	0.0013852	P_RES
J25_14	225.210	0.0014905	P_RES
J25_15	231.681	0.0018096	P_RES
J25_16	237.973	0.0019912	P_RES
J25_17	243.665	0.0039505	P_COM
J25_18	249.899	0.0017207	P_RES
J25_19	254.375	0.0011256	P_RES
J25_20	262.382	0.0014573	P_RES
J25_21	266.423	0.0031632	P_IND
J25_22	273.676	0.0020919	P_COM
J25_23	279.502	0.0017526	P_RES
J25_24	284.423	0.0019510	P_RES
J25_25	291.748	0.0010851	P_RES
J25_26	297.469	0.0023304	P_RES
J25_27	302.556	0.0013568	P_RES
J25_28	309.462	0.0013058	P_RES
J25_29	316.539	0.0010831	P_RES
J25_30	321.388	0.0020121	P_RES
J25_31	328.434	0.0030328	P_IND
J25_32	334.258	0.0026340	P_RES
J25_33	338.847	0.0020044	P_COM
J25_34	346.411	0.0014650	P_RES
J25_35	350.356	0.0018276	P_RES
J25_36	357.519	0.0020012	P_COM
J25_37	364.016	0.0006763	P_RES
J25_38	369.054	0.0015445	P_RES
J25_39	375.901	0.0008483	P_RES
J25_40	381.358	0.0007178	P_RES
J25_41	385.758	0.0029426	P_COM
J25_42	392.156	0.0026398	P_RES
J25_43	398.722	0.0040042	P_RES
J25_44	405.557	0.0006827	P_RES
J25_45	410.372	0.0013603	P_IND
J25_46	415.448	0.0029056	P_RES
J25_47	421.678	0.0010529	P_RES
J25_48	428.945	0.0005319	P_RES
J25_49	433.621	0.0009390	P_RES
J25_50	439.538	0.0026971	P_COM
J25_51	446.211	0.0020032	P_COM
J25_52	449.731	0.0017913	P_COM
J25_53	455.944	0.0021797	P_COM
J25_54	463.439	0.0022976	P_COM
J25_55	468.762	0.0039987	P_IND
J25_56	474.007	0.0011228	P_RES
J25_57	479.126	0.0012714	P_RES
J25_58	485.448	0.0028163	P_IND
J25_59	490.610	0.0015065	P_RES
J25_60	496.706	0.0018684	P_RES
J25_61	502.761	0.0004473	P_RES
J25_62	508.825	0.0016995	P_COM
J25_63	512.426	0.0032226	P_IND
J25_64	519.606	0.0007393	P_RES
J25_65	524.419	0.0012029	P_RES
J25_66	530.112	0.0028340	P_COM
J26_1	143.861	0.0021112	P_COM
J26_2	148.647	0.0030614	P_RES
J26_3	156.246	0.0008959	P_RES
J26_4	162.202	0.0004987	P_RES
J26_5	166.946	0.0027914	P_COM
J26_6	174.979	0.0012145	P_RES
J26_7	179.299	0.0010670	P_RES
J26_8	185.366	0.0009096	P_RES
J26_9	191.314	0.0016164	P_RES
J26_10	199.454	0.0010391	P_RES
J26_11	203.518	0.0050333	P_COM
J26_12	211.447	0.0016515	P_RES
J26_13	215.710	0.0025901	P_COM
J26_14	223.733	0.0063712	P_IND
J26_15	228.874	0.0019114	P_RES
J26_16	235.819	0.0056738	P_IND
J26_17	240.750	0.0021956	P_COM
J26_18	246.396	0.0009756	P_RES
J26_19	253.402	0.0013335	P_RES
J26_20	259.586	0.0022662	P_IND
J26_21	266.525	0.0012213	P_RES
J26_22	270.856	0.0011400	P_RES
J26_23	276.913	0.0045124	P_IND
J26_24	282.995	0.0014883	P_COM
J26_25	289.037	0.0008861	P_RES
J26_26	295.860	0.0020215	P_COM
J26_27	302.929	0.0012434	P_RES
J26_28	307.701	0.0007813	P_RES
J26_29	314.900	0.0021581	P_RES
J26_30	319.199	0.0012944	P_RES
J26_31	326.933	0.0012618	P_RES
J26_32	332.532	0.0014697	P_RES
J26_33	337.132	0.0009534	P_RES
J26_34	344.177	0.0044864	P_COM
J26_35	349.628	0.0006416	P_RES
J26_36	354.471	0.0015016	P_RES
J26_37	360.772	0.0018891	P_RES
J26_38	367.005	0.0016366	P_RES
J26_39	372.433	0.0013393	P_RES
J26_40	379.442	0.0026166	P_RES
J26_41	384.005	0.0010558	P_RES
J26_42	390.545	0.0040452	P_IND
J26_43	396.062	0.0014288	P_COM
J26_44	402.351	0.0016382	P_RES
J26_45	408.880	0.0016979	P_COM
J26_46	415.447	0.0008255	P_RES
J26_47	420.884	0.0030948	P_RES
J26_48	425.489	0.0013302	P_RES
J26_49	431.874	0.0034883	P_COM
J26_50	437.513	0.0011721	P_RES
J26_51	444.344	0.0008374	P_RES
J26_52	448.422	0.0013285	P_RES
J26_53	455.959	0.0019920	P_RES
J26_54	460.283	0.0020733	P_IND
J26_55	465.302	0.0016550	P_RES
J26_56	472.563	0.0029020	P_RES
J26_57	478.225	0.0028997	P_IND
J26_58	483.763	0.0010700	P_RES
J26_59	489.146	0.0028840	P_COM
J26_60	494.183	0.0025288	P_RES
J26_61	500.524	0.0010357	P_RES
J26_62	506.542	0.0014855	P_RES
J26_63	512.468	0.0023915	P_COM
J26_64	517.583	0.0026665	P_RES
J26_65	523.701	0.0027996	P_COM
J26_66	529.702	0.0003769	P_RES
J27_1	141.298	0.0032599	P_RES
J27_2	147.157	0.0004344	P_RES
J27_3	153.505	0.0007807	P_RES
J27_4	160.636	0.0004017	P_RES
J27_5	167.122	0.0017290	P_COM
J27_6	171.185	0.0008521	P_RES
J27_7	177.985	0.0009252	P_RES
J27_8	183.803	0.0009623	P_RES
J27_9	190.957	0.0006968	P_RES
J27_10	196.747	0.0010026	P_RES
J27_11	203.836	0.0027536	P_RES
J27_12	208.518	0.0007293	P_RES
J27_13	213.878	0.0011179	P_RES
J27_14	221.358	0.0004561	P_RES
J27_15	228.200	0.0020896	P_COM
J27_16	232.346	0.0029766	P_IND
J27_17	239.067	0.0016675	P_RES
J27_18	245.015	0.0032025	P_IND
J27_19	252.794	0.0005000	P_RES
J27_20	256.738	0.0010032	P_RES
J27_21	263.950	0.0027485	P_COM
J27_22	269.448	0.0022572	P_RES
J27_23	276.244	0.0017990	P_RES
J27_24	282.045	0.0016782	P_COM
J27_25	287.063	0.0029763	P_RES
J27_26	293.166	0.0011749	P_RES
J27_27	300.041	0.0007887	P_COM
J27_28	305.173	0.0010535	P_RES
J27_29	312.265	0.0015297	P_RES
J27_30	317.212	0.0014094	P_RES
J27_31	324.801	0.0050606	P_COM
J27_32	330.254	0.0045808	P_COM
J27_33	336.473	0.0018705	P_IND
J27_34	341.185	0.0008687	P_RES
J27_35	347.307	0.0007863	P_RES
J27_36	354.444	0.0015140	P_RES
J27_37	359.416	0.0027051	P_RES
J27_38	366.223	0.0032232	P_COM
J27_39	372.306	0.0039602	P_COM
J27_40	378.358	0.0020977	P_COM
J27_41	384.246	0.0013798	P_RES
J27_42	389.857	0.0042637	P_IND
J27_43	394.147	0.0033050	P_RES
J27_44	399.798	0.0062225	P_IND
J27_45	407.504	0.0018696	P_COM
J27_46	412.698	0.0035448	P_COM
J27_47	417.398	0.0006387	P_RES
J27_48	424.079	0.0026290	P_RES
J27_49	430.625	0.0012381	P_RES
J27_50	436.812	0.0015573	P_RES
J27_51	442.393	0.0046739	P_COM
J27_52	447.290	0.0029870	P_COM
J27_53	454.251	0.0006848	P_RES
J27_54	458.951	0.0020010	P_RES
J27_55	463.749	0.0007285	P_RES
J27_56	471.381	0.0013264	P_RES
J27_57	476.182	0.0037776	P_IND
J27_58	481.844	0.0013764	P_RES
J27_59	488.047	0.0027808	P_IND
J27_60	493.373	0.0009441	P_RES
J27_61	497.833	0.0009958	P_RES
J27_62	503.990	0.0009639	P_COM
J27_63	510.688	0.0013038	P_RES
J27_64	516.576	0.0026692	P_COM
J27_65	521.967	0.0074020	P_IND
J27_66	526.657	0.0015738	P_RES
J28_1	139.434	0.0012152	P_RES
J28_2	144.643	0.0019564	P_RES
J28_3	151.820	0.0012956	P_RES
J28_4	158.090	0.0010651	P_RES
J28_5	164.111	0.0033311	P_RES
J28_6	169.594	0.0014447	P_RES
J28_7	175.862	0.0008643	P_RES
J28_8	182.473	0.0021704	P_RES
J28_9	188.669	0.0012630	P_RES
J28_10	195.659	0.0031504	P_COM
J28_11	201.039	0.0004360	P_RES
J28_12	207.178	0.0017274	P_IND
J28_13	212.245	0.0012645	P_RES
J28_14	220.543	0.0028271	P_IND
J28_15	226.661	0.0042280	P_IND
J28_16	230.761	0.0020244	P_RES
J28_17	236.540	0.0016672	P_RES
J28_18	243.281	0.0015512	P_COM
J28_19	249.966	0.0011951	P_RES
J28_20	256.021	0.0010742	P_RES
J28_21	262.861	0.0005569	P_RES
J28_22	268.328	0.0047347	P_COM
J28_23	273.762	0.0015289	P_RES
J28_24	279.157	0.0020194	P_COM
J28_25	287.255	0.0019863	P_RES
J28_26	292.100	0.0025188	P_RES
J28_27	297.400	0.0011449	P_RES
J28_28	305.223	0.0010917	P_RES
J28_29	310.932	0.0010992	P_RES
J28_30	317.141	0.0024823	P_RES
J28_31	323.092	0.0020930	P_RES
J28_32	328.787	0.0013250	P_COM
J28_33	334.456	0.0011502	P_RES
J28_34	340.706	0.0012311	P_RES
J28_35	347.252	0.0010984	P_RES
J28_36	352.552	0.0007276	P_RES
J28_37	356.844	0.0015640	P_RES
J28_38	363.511	0.0037581	P_COM
J28_39	370.769	0.0005561	P_RES
J28_40	375.500	0.0016056	P_RES
J28_41	381.051	0.0020382	P_IND
J28_42	387.184	0.0008690	P_RES
J28_43	394.304	0.0026827	P_RES
J28_44	398.996	0.0014480	P_COM
J28_45	404.486	0.0015791	P_RES
J28_46	411.452	0.0016224	P_RES
J28_47	417.343	0.0020735	P_COM
J28_48	421.441	0.0022350	P_COM
J28_49	428.522	0.0016378	P_COM
J28_50	433.890	0.0021661	P_RES
J28_51	440.444	0.0012857	P_RES
J28_52	446.653	0.0073143	P_IND
J28_53	451.346	0.0018393	P_RES
J28_54	456.625	0.0007381	P_RES
J28_55	462.252	0.0018458	P_IND
J28_56	469.536	0.0021210	P_RES
J28_57	475.080	0.0013833	P_RES
J28_58	480.358	0.0036722	P_COM
J28_59	486.494	0.0024254	P_RES
J28_60	491.677	0.0014725	P_RES
J28_61	497.026	0.0018894	P_COM
J28_62	502.364	0.0034082	P_COM
J28_63	509.001	0.0007661	P_RES
J28_64	513.146	0.0006961	P_RES
J28_65	519.923	0.0010742	P_RES
J28_66	524.934	0.0018376	P_RES
J29_1	137.389	0.0012017	P_COM
J29_2	144.703	0.0035358	P_RES
J29_3	150.811	0.0010444	P_RES
J29_4	156.046	0.0011715	P_RES
J29_5	163.543	0.0012562	P_RES
J29_6	168.324	0.0014277	P_RES
J29_7	175.511	0.0024354	P_COM
J29_8	181.349	0.0015409	P_COM
J29_9	186.134	0.0013107	P_IND
J29_10	192.466	0.0035080	P_RES
J29_11	198.949	0.0018237	P_RES
J29_12	205.460	0.0015730	P_RES
J29_13	212.081	0.0017531	P_RES
J29_14	216.730	0.0008059	P_RES
J29_15	222.869	0.0008104	P_RES
J29_16	228.793	0.0013289	P_RES
J29_17	235.823	0.0017611	P_IND
J29_18	241.992	0.0010779	P_RES
J29_19	247.116	0.0028544	P_IND
J29_20	254.123	0.0011665	P_RES
J29_21	260.103	0.0007273	P_RES
J29_22	266.456	0.0020119	P_IND
J29_23	273.121	0.0010550	P_RES
J29_24	279.447	0.0018789	P_RES
J29_25	283.421	0.0008164	P_RES
J29_26	290.490	0.0018186	P_RES
J29_27	295.484	0.0011751	P_RES
J29_28	302.468	0.0016475	P_RES
J29_29	309.675	0.0017118	P_COM
J29_30	314.477	0.0006529	P_RES
J29_31	319.830	0.0018357	P_IND
J29_32	326.315	0.0019281	P_RES
J29_33	332.653	0.0016422	P_RES
J29_34	337.454	0.0021415	P_RES
J29_35	343.342	0.0017954	P_RES
J29_36	349.511	0.0013182	P_RES
J29_37	355.549	0.0010558	P_RES
J29_38	361.218	0.0041827	P_RES
J29_39	366.903	0.0018427	P_RES
J29_40	372.928	0.0033652	P_IND
J29_41	379.542	0.0023421	P_RES
J29_42	386.276	0.0010387	P_RES
J29_43	392.579	0.0020714	P_RES
J29_44	397.410	0.0007721	P_RES
J29_45	402.606	0.0011623	P_RES
J29_46	410.248	0.0009525	P_RES
J29_47	415.181	0.0014455	P_RES
J29_48	421.158	0.0044232	P_IND
J29_49	425.919	0.0009711	P_RES
J29_50	431.484	0.0046384	P_COM
J29_51	438.478	0.0008855	P_COM
J29_52	443.046	0.0013070	P_COM
J29_53	448.793	0.0023836	P_RES
J29_54	454.784	0.0020298	P_COM
J29_55	461.799	0.0013004	P_RES
J29_56	466.406	0.0013720	P_RES
J29_57	471.488	0.0008572	P_RES
J29_58	478.788	0.0012296	P_RES
J29_59	484.816	0.0015509	P_RES
J29_60	490.729	0.0043270	P_IND
J29_61	494.774	0.0033904	P_RES
J29_62	501.549	0.0020545	P_COM
J29_63	506.506	0.0021259	P_RES
J29_64	511.381	0.0009483	P_RES
J29_65	518.931	0.0021631	P_RES
J29_66	523.740	0.0005034	P_RES
J30_1	135.693	0.0012978	P_RES
J30_2	141.671	0.0012497	P_RES
J30_3	147.704	0.0013614	P_RES
J30_4	155.610	0.0019091	P_RES
J30_5	160.884	0.0016563	P_IND
J30_6	166.607	0.0008768	P_RES
J30_7	173.270	0.0034361	P_COM
J30_8	179.465	0.0022330	P_COM
J30_9	186.309	0.0011281	P_IND
J30_10	192.176	0.0014124	P_COM
J30_11	197.619	0.0008758	P_RES
J30_12	203.085	0.0015257	P_RES
J30_13	208.585	0.0020385	P_RES
J30_14	215.520	0.0010039	P_RES
J30_15	222.940	0.0007318	P_RES
J30_16	229.228	0.0020827	P_COM
J30_17	234.113	0.0005658	P_RES
J30_18	239.719	0.0008242	P_RES
J30_19	245.812	0.0010130	P_COM
J30_20	252.095	0.0010170	P_RES
J30_21	257.680	0.0021697	P_COM
J30_22	265.665	0.0022912	P_COM
J30_23	271.141	0.0032909	P_IND
J30_24	277.305	0.0013783	P_RES
J30_25	281.740	0.0009416	P_RES
J30_26	289.740	0.0025123	P_IND
J30_27	294.622	0.0016859	P_RES
J30_28	301.095	0.0008652	P_RES
J30_29	307.180	0.0015592	P_RES
J30_30	311.969	0.0009905	P_RES
J30_31	318.443	0.0012679	P_RES
J30_32	323.709	0.0015827	P_RES
J30_33	330.288	0.0012298	P_RES
J30_34	336.508	0.0018443	P_COM
J30_35	343.066	0.0024855	P_RES
J30_36	349.011	0.0021161	P_COM
J30_37	355.267	0.0029902	P_IND
J30_38	360.013	0.0024907	P_IND
J30_39	365.553	0.0017138	P_RES
J30_40	371.625	0.0008152	P_RES
J30_41	376.911	0.0008878	P_RES
J30_42	383.175	0.0015318	P_RES
J30_43	389.084	0.0004934	P_RES
J30_44	395.550	0.0024952	P_RES
J30_45	400.911	0.0032259	P_RES
J30_46	406.985	0.0013952	P_RES
J30_47	412.702	0.0034563	P_COM
J30_48	419.883	0.0009532	P_RES
J30_49	425.593	0.0050599	P_IND
J30_50	429.552	0.0013998	P_RES
J30_51	436.414	0.0042318	P_IND
J30_52	441.649	0.0013529	P_RES
J30_53	447.783	0.0013466	P_RES
J30_54	452.597	0.0029092	P_RES
J30_55	459.935	0.0035004	P_IND
J30_56	464.064	0.0009321	P_RES
J30_57	469.617	0.0020732	P_RES
J30_58	476.709	0.0014546	P_RES
J30_59	481.710	0.0029925	P_RES
J30_60	488.616	0.0030136	P_COM
J30_61	494.192	0.0006322	P_RES
J30_62	499.744	0.0044386	P_IND
J30_63	504.388	0.0019887	P_COM
J30_64	509.571	0.0022985	P_RES
J30_65	515.192	0.0010291	P_RES
J30_66	520.513	0.0014541	P_RES
J31_1	134.572	0.0036144	P_IND
J31_2	139.438	0.0011617	P_COM
J31_3	146.420	0.0009405	P_RES
J31_4	153.581	0.0033393	P_COM
J31_5	158.952	0.0015953	P_COM
J31_6	164.816	0.0010030	P_RES
J31_7	172.383	0.0009511	P_RES
J31_8	176.871	0.0014010	P_RES
J31_9	183.623	0.0011254	P_RES
J31_10	189.788	0.0031114	P_RES
J31_11	194.902	0.0023843	P_IND
J31_12	202.977	0.0020528	P_RES
J31_13	206.841	0.0016812	P_RES
J31_14	213.067	0.0020097	P_RES
J31_15	219.710	0.0013982	P_RES
J31_16	225.226	0.0011547	P_RES
J31_17	233.528	0.0009580	P_RES
J31_18	238.532	0.0011664	P_RES
J31_19	244.789	0.0029487	P_RES
J31_20	249.922	0.0041700	P_IND
J31_21	256.939	0.0019796	P_RES
J31_22	263.793	0.0025275	P_RES
J31_23	267.675	0.0025218	P_COM
J31_24	274.950	0.0018672	P_COM
J31_25	281.851	0.0029394	P_RES
J31_26	288.155	0.0019175	P_RES
J31_27	293.139	0.0016629	P_RES
J31_28	299.343	0.0012399	P_RES
J31_29	305.167	0.0023732	P_COM
J31_30	310.567	0.0030508	P_RES
J31_31	316.246	0.0014863	P_RES
J31_32	322.777	0.0023714	P_IND
J31_33	328.014	0.0011361	P_RES
J31_34	334.663	0.0007974	P_RES
J31_35	340.357	0.0024363	P_RES
J31_36	345.997	0.0012690	P_RES
J31_37	353.416	0.0008499	P_RES
J31_38	357.624	0.0026670	P_COM
J31_39	363.716	0.0008350	P_RES
J31_40	370.756	0.0031589	P_COM
J31_41	375.666	0.0011071	P_RES
J31_42	383.132	0.0006462	P_RES
J31_43	386.870	0.0008894	P_RES
J31_44	394.423	0.0015196	P_RES
J31_45	398.748	0.0021416	P_COM
J31_46	406.111	0.0023542	P_RES
J31_47	412.529	0.0011084	P_RES
J31_48	417.239	0.0011430	P_RES
J31_49	423.193	0.0024196	P_COM
J31_50	427.807	0.0013975	P_RES
J31_51	433.753	0.0015668	P_RES
J31_52	439.264	0.0024613	P_IND
J31_53	445.813	0.0009747	P_RES
J31_54	452.259	0.0007952	P_RES
J31_55	456.845	0.0051093	P_IND
J31_56	462.554	0.0009815	P_RES
J31_57	467.913	0.0016038	P_COM
J31_58	474.779	0.0013479	P_COM
J31_59	480.971	0.0028971	P_COM
J31_60	484.982	0.0014550	P_COM
J31_61	490.588	0.0029019	P_RES
J31_62	498.146	0.0051792	P_COM
J31_63	501.857	0.0015589	P_RES
J31_64	507.918	0.0020430	P_RES
J31_65	515.131	0.0036575	P_IND
J31_66	519.235	0.0011080	P_RES
J32_1	133.420	0.0005071	P_RES
J32_2	139.436	0.0015982	P_RES
J32_3	143.742	0.0038963	P_IND
J32_4	150.918	0.0008169	P_RES
J32_5	157.953	0.0012379	P_IND
J32_6	163.294	0.0013336	P_RES
J32_7	168.234	0.0012528	P_RES
J32_8	176.611	0.0006625	P_RES
J32_9	182.429	0.0020178	P_COM
J32_10	187.987	0.0010402	P_RES
J32_11	195.030	0.0011017	P_RES
J32_12	200.444	0.0010156	P_RES
J32_13	205.117	0.0018702	P_RES
J32_14	211.937	0.0014952	P_IND
J32_15	217.519	0.0024433	P_RES
J32_16	223.394	0.0035143	P_IND
J32_17	231.671	0.0025624	P_IND
J32_18	237.101	0.0026852	P_COM
J32_19	242.155	0.0016199	P_RES
J32_20	249.789	0.0013539	P_RES
J32_21	254.652	0.0013631	P_RES
J32_22	260.822	0.0015409	P_RES
J32_23	266.568	0.0017350	P_RES
J32_24	274.229	0.0010097	P_RES
J32_25	278.879	0.0011131	P_RES
J32_26	284.345	0.0009993	P_RES
J32_27	290.329	0.0019754	P_RES
J32_28	297.938	0.0008876	P_COM
J32_29	302.311	0.0011311	P_RES
J32_30	309.834	0.0006720	P_RES
J32_31	315.828	0.0008582	P_RES
J32_32	322.131	0.0008698	P_RES
J32_33	326.081	0.0007573	P_RES
J32_34	332.737	0.0015435	P_RES
J32_35	338.229	0.0018802	P_RES
J32_36	344.820	0.0004500	P_RES
J32_37	350.703	0.0031636	P_RES
J32_38	357.629	0.0028483	P_IND
J32_39	361.660	0.0032809	P_RES
J32_40	368.364	0.0013125	P_COM
J32_41	374.851	0.0017709	P_RES
J32_42	379.621	0.0024507	P_COM
J32_43	386.919	0.0044010	P_IND
J32_44	392.807	0.0013517	P_RES
J32_45	398.993	0.0020475	P_COM
J32_46	403.667	0.0033895	P_RES
J32_47	409.972	0.0013050	P_RES
J32_48	415.798	0.0007745	P_RES
J32_49	420.381	0.0040123	P_IND
J32_50	427.576	0.0038018	P_IND
J32_51	432.837	0.0015472	P_RES
J32_52	437.708	0.0037653	P_COM
J32_53	443.700	0.0015528	P_RES
J32_54	449.846	0.0020760	P_RES
J32_55	455.275	0.0011438	P_RES
J32_56	461.476	0.0007975	P_RES
J32_57	467.267	0.0017859	P_RES
J32_58	472.108	0.0044458	P_IND
J32_59	479.621	0.0007597	P_RES
J32_60	483.884	0.0016650	P_RES
J32_61	489.556	0.0006150	P_RES
J32_62	495.052	0.0013434	P_COM
J32_63	500.271	0.0020217	P_RES
J32_64	505.872	0.0006732	P_RES
J32_65	511.779	0.0011715	P_RES
J32_66	518.713	0.0014103	P_RES
J33_1	130.996	0.0038896	P_IND
J33_2	136.838	0.0016207	P_COM
J33_3	141.873	0.0014857	P_COM
J33_4	148.215	0.0015969	P_RES
J33_5	156.130	0.0016902	P_RES
J33_6	161.472	0.0006865	P_RES
J33_7	167.159	0.0016210	P_RES
J33_8	172.896	0.0029494	P_COM
J33_9	180.639	0.0027127	P_RES
J33_10	185.206	0.0012835	P_RES
J33_11	191.628	0.0013899	P_RES
J33_12	198.726	0.0037077	P_IND
J33_13	204.474	0.0018205	P_COM
J33_14	210.313	0.0019908	P_RES
J33_15	215.778	0.0015507	P_RES
J33_16	221.695	0.0015219	P_RES
J33_17	229.800	0.0016137	P_COM
J33_18	233.764	0.0008491	P_RES
J33_19	241.915	0.0005491	P_RES
J33_20	247.798	0.0040374	P_IND
J33_21	252.765	0.0006473	P_RES
J33_22	258.255	0.0016012	P_COM
J33_23	265.238	0.0013677	P_RES
J33_24	270.590	0.0017602	P_RES
J33_25	276.200	0.0009099	P_RES
J33_26	283.598	0.0024427	P_RES
J33_27	290.498	0.0030440	P_IND
J33_28	295.988	0.0015159	P_RES
J33_29	300.573	0.0038722	P_RES
J33_30	308.606	0.0027628	P_COM
J33_31	313.613	0.0008329	P_RES
J33_32	318.295	0.0021445	P_COM
J33_33	325.862	0.0017899	P_RES
J33_34	331.605	0.0008713	P_RES
J33_35	338.336	0.0020198	P_RES
J33_36	342.272	0.0019925	P_COM
J33_37	349.276	0.0010593	P_RES
J33_38	354.984	0.0011728	P_RES
J33_39	361.091	0.0031862	P_IND
J33_40	367.298	0.0025247	P_RES
J33_41	373.020	0.0033092	P_IND
J33_42	378.806	0.0017575	P_RES
J33_43	383.986	0.0013821	P_COM
J33_44	390.898	0.0013220	P_RES
J33_45	396.570	0.0007850	P_RES
J33_46	403.005	0.0040731	P_COM
J33_47	408.538	0.0009759	P_RES
J33_48	413.334	0.0015067	P_RES
J33_49	419.005	0.0023000	P_COM
J33_50	425.997	0.0011091	P_RES
J33_51	431.728	0.0008224	P_RES
J33_52	437.356	0.0015821	P_COM
J33_53	442.078	0.0017115	P_RES
J33_54	447.226	0.0008706	P_RES
J33_55	454.753	0.0021992	P_RES
J33_56	458.952	0.0013087	P_COM
J33_57	464.463	0.0026420	P_RES
J33_58	470.536	0.0022636	P_IND
J33_59	475.818	0.0029959	P_RES
J33_60	483.113	0.0036618	P_IND
J33_61	488.267	0.0007353	P_RES
J33_62	494.737	0.0012751	P_RES
J33_63	499.496	0.0014106	P_RES
J33_64	504.467	0.0011440	P_RES
J33_65	509.655	0.0005639	P_RES
J33_66	517.258	0.0013558	P_RES
J34_1	129.110	0.0005660	P_RES
J34_2	135.622	0.0062050	P_COM
J34_3	140.638	0.0015341	P_RES
J34_4	146.222	0.0022378	P_RES
J34_5	152.954	0.0029173	P_RES
J34_6	160.489	0.0023580	P_RES
J34_7	167.034	0.0014536	P_RES
J34_8	171.152	0.0017195	P_RES
J34_9	177.015	0.0021083	P_COM
J34_10	185.257	0.0018037	P_COM
J34_11	190.780	0.0013732	P_COM
J34_12	197.215	0.0031269	P_IND
J34_13	202.328	0.0024552	P_COM
J34_14	208.854	0.0042056	P_IND
J34_15	213.800	0.0017777	P_RES
J34_16	220.523	0.0009520	P_RES
J34_17	227.686	0.0014653	P_RES
J34_18	234.220	0.0022065	P_RES
J34_19	240.119	0.0010548	P_RES
J34_20	244.860	0.0009686	P_RES
J34_21	251.806	0.0014463	P_RES
J34_22	257.139	0.0013527	P_RES
J34_23	263.578	0.0010240	P_RES
J34_24	270.513	0.0026828	P_IND
J34_25	274.574	0.0011225	P_RES
J34_26	281.688	0.0016628	P_COM
J34_27	288.356	0.0008114	P_RES
J34_28	293.225	0.0013753	P_COM
J34_29	300.673	0.0036450	P_RES
J34_30	306.662	0.0012592	P_RES
J34_31	312.753	0.0025851	P_COM
J34_32	318.780	0.0017920	P_RES
J34_33	323.650	0.0037960	P_IND
J34_34	328.565	0.0012906	P_RES
J34_35	336.325	0.0008204	P_RES
J34_36	341.836	0.0012989	P_RES
J34_37	347.576	0.0013999	P_RES
J34_38	353.129	0.0019881	P_RES
J34_39	358.778	0.0011041	P_RES
J34_40	365.555	0.0013864	P_COM
J34_41	372.081	0.0014976	P_RES
J34_42	377.157	0.0023056	P_COM
J34_43	383.749	0.0013461	P_RES
J34_44	389.233	0.0043508	P_IND
J34_45	394.284	0.0009240	P_RES
J34_46	400.521	0.0007370	P_RES
J34_47	405.819	0.0012399	P_RES
J34_48	410.692	0.0022544	P_COM
J34_49	416.485	0.0031116	P_IND
J34_50	423.318	0.0049167	P_COM
J34_51	429.288	0.0017842	P_RES
J34_52	435.409	0.0018914	P_RES
J34_53	440.176	0.0032657	P_IND
J34_54	446.669	0.0039431	P_IND
J34_55	451.463	0.0010480	P_RES
J34_56	457.795	0.0009483	P_RES
J34_57	463.584	0.0011773	P_RES
J34_58	470.161	0.0021446	P_RES
J34_59	474.861	0.0024851	P_RES
J34_60	480.747	0.0028287	P_COM
J34_61	485.870	0.0017942	P_COM
J34_62	492.715	0.0008297	P_RES
J34_63	497.196	0.0006475	P_RES
J34_64	503.705	0.0008499	P_RES
J34_65	508.816	0.0017897	P_RES
J34_66	514.793	0.0020097	P_RES
J35_1	126.034	0.0034350	P_RES
J35_2	133.263	0.0016618	P_RES
J35_3	139.682	0.0007645	P_RES
J35_4	146.623	0.0023576	P_RES
J35_5	150.880	0.0005321	P_RES
J35_6	157.466	0.0007888	P_RES
J35_7	164.532	0.0007315	P_RES
J35_8	169.150	0.0018300	P_RES
J35_9	176.374	0.0019269	P_RES
J35_10	182.788	0.0020632	P_COM
J35_11	187.417	0.0029546	P_COM
J35_12	195.326	0.0008585	P_RES
J35_13	200.044	0.0018634	P_RES
J35_14	206.502	0.0014417	P_RES
J35_15	213.490	0.0015525	P_RES
J35_16	218.426	0.0023485	P_COM
J35_17	225.515	0.0023065	P_RES
J35_18	232.556	0.0041572	P_COM
J35_19	237.092	0.0017393	P_RES
J35_20	242.436	0.0025931	P_COM
J35_21	250.750	0.0024651	P_COM
J35_22	256.480	0.0012264	P_RES
J35_23	261.729	0.0007158	P_RES
J35_24	267.969	0.0013814	P_RES
J35_25	273.057	0.0017061	P_COM
J35_26	280.718	0.0013702	P_COM
J35_27	285.815	0.0017409	P_RES
J35_28	292.216	0.0020778	P_RES
J35_29	298.652	0.0021367	P_COM
J35_30	303.958	0.0007881	P_RES
J35_31	310.278	0.0019654	P_RES
J35_32	316.921	0.0016432	P_COM
J35_33	321.131	0.0012481	P_COM
J35_34	327.321	0.0017247	P_RES
J35_35	334.917	0.0005612	P_RES
J35_36	339.148	0.0011257	P_RES
J35_37	345.794	0.0020473	P_RES
J35_38	352.518	0.0009121	P_RES
J35_39	358.091	0.0007469	P_RES
J35_40	363.828	0.0032122	P_IND
J35_41	368.518	0.0022882	P_RES
J35_42	375.084	0.0005794	P_RES
J35_43	379.766	0.0027702	P_RES
J35_44	385.991	0.0025710	P_COM
J35_45	392.236	0.0008363	P_RES
J35_46	398.609	0.0015312	P_RES
J35_47	403.983	0.0007255	P_RES
J35_48	409.914	0.0004443	P_RES
J35_49	416.621	0.0018221	P_RES
J35_50	422.465	0.0015815	P_RES
J35_51	427.494	0.0014414	P_RES
J35_52	432.752	0.0023157	P_RES
J35_53	439.576	0.0035722	P_COM
J35_54	444.590	0.0015080	P_RES
J35_55	451.029	0.0014261	P_RES
J35_56	454.946	0.0019997	P_COM
J35_57	460.720	0.0016510	P_COM
J35_58	466.458	0.0014995	P_RES
J35_59	473.531	0.0015002	P_COM
J35_60	478.504	0.0011249	P_RES
J35_61	483.396	0.0019696	P_COM
J35_62	489.647	0.0024833	P_RES
J35_63	496.362	0.0012885	P_RES
J35_64	500.827	0.0015747	P_RES
J35_65	507.474	0.0015991	P_RES
J35_66	513.009	0.0021731	P_RES
J36_1	126.313	0.0008148	P_RES
J36_2	132.230	0.0007930	P_RES
J36_3	136.626	0.0010389	P_RES
J36_4	143.655	0.0011772	P_RES
J36_5	150.688	0.0026349	P_IND
J36_6	155.743	0.0015000	P_RES
J36_7	161.704	0.0030765	P_IND
J36_8	168.248	0.0015504	P_COM
J36_9	175.230	0.0028097	P_IND
J36_10	180.684	0.0016011	P_RES
J36_11	187.116	0.0009700	P_RES
J36_12	192.802	0.0046540	P_COM
J36_13	199.265	0.0010802	P_RES
J36_14	204.315	0.0020214	P_RES
J36_15	211.470	0.0008042	P_RES
J36_16	216.766	0.0013259	P_RES
J36_17	224.539	0.0027235	P_RES
J36_18	229.928	0.0018075	P_RES
J36_19	236.840	0.0018703	P_COM
J36_20	241.748	0.0014617	P_RES
J36_21	247.312	0.0022686	P_COM
J36_22	254.526	0.0008313	P_RES
J36_23	259.503	0.0022063	P_RES
J36_24	266.120	0.0009300	P_RES
J36_25	271.024	0.0016103	P_COM
J36_26	277.024	0.0014814	P_COM
J36_27	282.900	0.0017063	P_COM
J36_28	289.834	0.0025628	P_COM
J36_29	296.796	0.0022009	P_COM
J36_30	301.344	0.0010596	P_RES
J36_31	308.157	0.0028605	P_RES
J36_32	313.378	0.0018661	P_COM
J36_33	320.247	0.0023324	P_RES
J36_34	325.051	0.0005819	P_RES
J36_35	331.499	0.0004784	P_RES
J36_36	338.631	0.0008284	P_RES
J36_37	344.607	0.0013788	P_RES
J36_38	350.282	0.0008115	P_RES
J36_39	354.783	0.0008239	P_RES
J36_40	360.610	0.0014378	P_RES
J36_41	368.477	0.0004101	P_RES
J36_42	374.132	0.0015249	P_RES
J36_43	378.248	0.0020966	P_COM
J36_44	383.988	0.0019237	P_RES
J36_45	390.428	0.0004612	P_RES
J36_46	396.300	0.0025678	P_RES
J36_47	401.310	0.0019770	P_COM
J36_48	408.547	0.0009068	P_RES
J36_49	412.942	0.0016167	P_COM
J36_50	418.774	0.0023692	P_COM
J36_51	426.377	0.0020250	P_RES
J36_52	432.294	0.0013661	P_RES
J36_53	435.988	0.0021447	P_IND
J36_54	443.426	0.0016157	P_RES
J36_55	447.617	0.0013556	P_COM
J36_56	455.184	0.0014358	P_RES
J36_57	460.260	0.0027540	P_COM
J36_58	465.811	0.0006860	P_RES
J36_59	471.327	0.0014158	P_COM
J36_60	477.197	0.0027046	P_IND
J36_61	483.886	0.0007593	P_RES
J36_62	487.651	0.0004761	P_RES
J36_63	494.189	0.0019248	P_RES
J36_64	499.752	0.0016999	P_COM
J36_65	504.287	0.0028509	P_RES
J36_66	511.952	0.0013085	P_RES
J37_1	123.560	0.0011905	P_RES
J37_2	130.927	0.0007271	P_RES
J37_3	135.006	0.0015525	P_RES
J37_4	142.849	0.0027235	P_COM
J37_5	149.262	0.0017757	P_RES
J37_6	153.261	0.0012608	P_RES
J37_7	160.683	0.0007806	P_RES
J37_8	167.141	0.0010298	P_RES
J37_9	173.488	0.0031022	P_COM
J37_10	179.825	0.0020125	P_RES
J37_11	185.317	0.0010918	P_RES
J37_12	192.206	0.0049280	P_COM
J37_13	196.127	0.0007188	P_RES
J37_14	204.463	0.0009779	P_RES
J37_15	209.871	0.0007438	P_RES
J37_16	216.627	0.0013317	P_RES
J37_17	222.372	0.0017858	P_RES
J37_18	227.098	0.0018133	P_RES
J37_19	234.302	0.0007006	P_RES
J37_20	239.466	0.0017279	P_COM
J37_21	246.408	0.0016140	P_RES
J37_22	251.216	0.0020177	P_COM
J37_23	258.233	0.0024888	P_RES
J37_24	263.906	0.0016534	P_COM
J37_25	270.046	0.0009217	P_RES
J37_26	277.475	0.0011450	P_RES
J37_27	283.166	0.0025902	P_IND
J37_28	287.422	0.0004932	P_RES
J37_29	293.304	0.0012472	P_RES
J37_30	299.711	0.0014846	P_RES
J37_31	305.306	0.0015178	P_RES
J37_32	312.368	0.0049744	P_IND
J37_33	317.887	0.0042503	P_COM
J37_34	323.882	0.0011766	P_RES
J37_35	331.158	0.0007965	P_RES
J37_36	336.450	0.0021279	P_COM
J37_37	341.184	0.0006933	P_RES
J37_38	348.259	0.0009719	P_RES
J37_39	354.522	0.0019382	P_RES
J37_40	360.454	0.0010700	P_RES
J37_41	365.896	0.0021007	P_RES
J37_42	370.736	0.0051987	P_IND
J37_43	377.625	0.0011655	P_RES
J37_44	382.793	0.0009163	P_RES
J37_45	389.237	0.0017955	P_RES
J37_46	394.175	0.0014506	P_COM
J37_47	400.139	0.0027744	P_COM
J37_48	406.399	0.0018640	P_COM
J37_49	412.305	0.0009293	P_RES
J37_50	417.048	0.0008695	P_RES
J37_51	423.421	0.0023583	P_RES
J37_52	428.935	0.0017113	P_RES
J37_53	434.190	0.0022407	P_COM
J37_54	441.525	0.0016793	P_RES
J37_55	446.772	0.0009174	P_RES
J37_56	453.586	0.0034405	P_COM
J37_57	458.354	0.0017810	P_RES
J37_58	463.848	0.0003359	P_RES
J37_59	470.493	0.0012027	P_RES
J37_60	474.255	0.0016780	P_RES
J37_61	480.825	0.0014824	P_IND
J37_62	486.512	0.0035573	P_IND
J37_63	493.060	0.0022632	P_IND
J37_64	498.293	0.0026231	P_COM
J37_65	504.137	0.0007321	P_RES
J37_66	509.366	0.0035600	P_RES
J38_1	120.707	0.0009067	P_RES
J38_2	126.875	0.0011008	P_RES
J38_3	133.944	0.0006008	P_RES
J38_4	139.944	0.0031778	P_COM
J38_5	147.324	0.0009426	P_RES
J38_6	152.799	0.0012527	P_RES
J38_7	159.149	0.0015255	P_RES
J38_8	165.860	0.0006169	P_RES
J38_9	170.244	0.0023563	P_COM
J38_10	176.603	0.0008446	P_RES
J38_11	182.773	0.0015284	P_COM
J38_12	188.780	0.0013110	P_RES
J38_13	196.070	0.0017828	P_RES
J38_14	202.085	0.0004731	P_RES
J38_15	207.651	0.0029684	P_RES
J38_16	214.098	0.0012945	P_RES
J38_17	219.958	0.0021693	P_IND
J38_18	226.648	0.0039738	P_IND
J38_19	231.859	0.0024601	P_COM
J38_20	238.277	0.0016505	P_COM
J38_21	245.387	0.0013622	P_RES
J38_22	251.044	0.0023073	P_IND
J38_23	255.393	0.0022100	P_COM
J38_24	262.746	0.0016412	P_RES
J38_25	269.329	0.0034981	P_RES
J38_26	274.808	0.0016123	P_RES
J38_27	279.379	0.0016227	P_RES
J38_28	287.217	0.0023766	P_COM
J38_29	293.291	0.0018192	P_RES
J38_30	299.221	0.0016287	P_COM
J38_31	303.376	0.0018626	P_RES
J38_32	310.106	0.0013020	P_RES
J38_33	316.918	0.0011201	P_RES
J38_34	323.029	0.0029082	P_IND
J38_35	327.733	0.0008917	P_RES
J38_36	333.972	0.0016074	P_RES
J38_37	339.245	0.0019838	P_RES
J38_38	345.253	0.0022220	P_COM
J38_39	351.343	0.0019609	P_COM
J38_40	357.215	0.0026468	P_COM
J38_41	362.754	0.0037171	P_COM
J38_42	369.706	0.0023945	P_COM
J38_43	376.296	0.0033803	P_RES
J38_44	382.133	0.0007199	P_RES
J38_45	388.231	0.0011312	P_IND
J38_46	393.318	0.0010390	P_COM
J38_47	399.546	0.0025984	P_COM
J38_48	405.776	0.0016228	P_RES
J38_49	411.586	0.0017810	P_RES
J38_50	416.352	0.0024716	P_COM
J38_51	421.584	0.0007878	P_RES
J38_52	426.629	0.0010867	P_RES
J38_53	432.801	0.0009147	P_RES
J38_54	440.442	0.0024552	P_IND
J38_55	445.004	0.0024903	P_RES
J38_56	450.598	0.0016399	P_COM
J38_57	457.256	0.0034240	P_RES
J38_58	462.711	0.0009372	P_RES
J38_59	467.738	0.0024788	P_IND
J38_60	473.472	0.0010452	P_RES
J38_61	478.205	0.0011938	P_RES
J38_62	484.404	0.0033499	P_IND
J38_63	489.766	0.0013550	P_RES
J38_64	496.179	0.0063033	P_COM
J38_65	501.002	0.0010195	P_RES
J38_66	507.409	0.0017108	P_RES
J39_1	120.329	0.0018158	P_COM
J39_2	126.710	0.0028571	P_IND
J39_3	131.988	0.0010965	P_RES
J39_4	138.411	0.0058813	P_IND
J39_5	145.734	0.0042489	P_IND
J39_6	149.639	0.0010175	P_RES
J39_7	157.503	0.0014730	P_COM
J39_8	161.986	0.0010004	P_RES
J39_9	169.177	0.0008309	P_RES
J39_10	174.159	0.0011176	P_RES
J39_11	180.660	0.0029967	P_IND
J39_12	187.651	0.0010238	P_RES
J39_13	194.513	0.0017262	P_RES
J39_14	199.478	0.0008501	P_RES
J39_15	206.731	0.0009931	P_RES
J39_16	212.291	0.0003804	P_RES
J39_17	218.603	0.0020677	P_COM
J39_18	224.984	0.0023113	P_RES
J39_19	229.569	0.0037361	P_COM
J39_20	237.225	0.0031506	P_IND
J39_21	241.564	0.0011954	P_RES
J39_22	247.595	0.0021203	P_COM
J39_23	254.249	0.0013651	P_RES
J39_24	260.773	0.0015724	P_RES
J39_25	266.496	0.0044121	P_COM
J39_26	272.706	0.0007959	P_RES
J39_27	279.564	0.0009183	P_RES
J39_28	285.861	0.0009220	P_RES
J39_29	291.268	0.0004489	P_RES
J39_30	297.144	0.0032396	P_IND
J39_31	302.075	0.0014011	P_RES
J39_32	307.651	0.0046108	P_IND
J39_33	313.512	0.0011666	P_RES
J39_34	321.277	0.0013548	P_RES
J39_35	327.630	0.0012046	P_RES
J39_36	331.775	0.0011287	P_RES
J39_37	339.071	0.0012499	P_RES
J39_38	345.129	0.0015825	P_RES
J39_39	350.134	0.0012882	P_RES
J39_40	356.504	0.0017918	P_RES
J39_41	362.507	0.0013521	P_RES
J39_42	366.948	0.0010204	P_RES
J39_43	372.694	0.0018349	P_RES
J39_44	380.083	0.0039735	P_RES
J39_45	384.909	0.0010949	P_RES
J39_46	390.802	0.0012740	P_RES
J39_47	398.177	0.0010725	P_RES
J39_48	403.780	0.0010098	P_RES
J39_49	407.854	0.0009086	P_RES
J39_50	413.895	0.0057590	P_COM
J39_51	421.240	0.0008841	P_RES
J39_52	427.096	0.0006866	P_RES
J39_53	432.371	0.0011805	P_COM
J39_54	437.612	0.0019482	P_RES
J39_55	442.531	0.0034578	P_COM
J39_56	449.953	0.0054864	P_IND
J39_57	453.547	0.0023315	P_IND
J39_58	461.307	0.0010846	P_RES
J39_59	466.697	0.0022619	P_RES
J39_60	472.149	0.0013770	P_RES
J39_61	476.419	0.0019286	P_COM
J39_62	481.950	0.0004507	P_RES
J39_63	489.581	0.0021640	P_RES
J39_64	494.388	0.0007654	P_RES
J39_65	500.950	0.0010646	P_RES
J39_66	505.559	0.0006087	P_RES
J40_1	117.128	0.0019064	P_COM
J40_2	123.275	0.0028899	P_RES
J40_3	131.691	0.0007145	P_RES
J40_4	136.365	0.0008962	P_RES
J40_5	142.719	0.0024469	P_RES
J40_6	149.873	0.0008761	P_RES
J40_7	155.649	0.0024366	P_COM
J40_8	162.300	0.0010135	P_RES
J40_9	168.294	0.0021028	P_COM
J40_10	173.596	0.0016109	P_COM
J40_11	179.680	0.0029346	P_COM
J40_12	184.689	0.0020086	P_COM
J40_13	192.677	0.0010769	P_RES
J40_14	197.492	0.0016179	P_RES
J40_15	205.310	0.0010206	P_RES
J40_16	209.369	0.0016599	P_COM
J40_17	215.776	0.0027178	P_RES
J40_18	222.080	0.0018424	P_RES
J40_19	228.813	0.0024435	P_RES
J40_20	234.452	0.0011705	P_IND
J40_21	241.062	0.0014501	P_RES
J40_22	245.752	0.0017844	P_RES
J40_23	252.142	0.0013670	P_RES
J40_24	259.640	0.0013421	P_RES
J40_25	264.050	0.0042104	P_IND
J40_26	271.460	0.0008887	P_RES
J40_27	277.767	0.0020291	P_COM
J40_28	283.569	0.0016059	P_RES
J40_29	288.064	0.0026243	P_COM
J40_30	293.986	0.0016565	P_RES
J40_31	300.275	0.0024983	P_RES
J40_32	306.765	0.0027317	P_COM
J40_33	312.669	0.0047235	P_IND
J40_34	319.860	0.0022730	P_IND
J40_35	324.544	0.0028184	P_COM
J40_36	330.509	0.0032967	P_IND
J40_37	336.868	0.0028380	P_COM
J40_38	341.615	0.0009788	P_RES
J40_39	348.108	0.0015584	P_RES
J40_40	353.551	0.0018217	P_COM
J40_41	360.006	0.0010904	P_RES
J40_42	365.482	0.0009967	P_RES
J40_43	372.770	0.0010564	P_RES
J40_44	376.786	0.0010213	P_RES
J40_45	383.297	0.0017452	P_RES
J40_46	389.159	0.0010077	P_RES
J40_47	394.694	0.0016573	P_COM
J40_48	401.137	0.0022758	P_COM
J40_49	406.419	0.0016150	P_RES
J40_50	412.883	0.0006913	P_RES
J40_51	418.215	0.0016210	P_COM
J40_52	425.409	0.0011809	P_RES
J40_53	429.109	0.0011357	P_RES
J40_54	435.656	0.0016634	P_RES
J40_55	442.458	0.0011810	P_RES
J40_56	447.859	0.0010767	P_RES
J40_57	451.814	0.0018731	P_RES
J40_58	458.207	0.0020763	P_RES
J40_59	464.071	0.0013020	P_RES
J40_60	469.965	0.0007817	P_COM
J40_61	476.236	0.0013687	P_RES
J40_62	481.629	0.0023134	P_COM
J40_63	486.610	0.0037174	P_IND
J40_64	491.658	0.0006091	P_RES
J40_65	497.317	0.0005903	P_RES
J40_66	503.425	0.0013596	P_RES
J41_1	115.854	0.0009360	P_RES
J41_2	123.142	0.0030947	P_IND
J41_3	127.607	0.0027319	P_COM
J41_4	135.277	0.0015172	P_RES
J41_5	142.189	0.0011479	P_RES
J41_6	147.080	0.0028255	P_IND
J41_7	154.067	0.0018079	P_RES
J41_8	158.746	0.0022016	P_RES
J41_9	165.499	0.0020086	P_COM
J41_10	172.604	0.0015765	P_RES
J41_11	177.410	0.0010124	P_RES
J41_12	184.518	0.0025687	P_RES
J41_13	189.251	0.0006983	P_RES
J41_14	197.115	0.0012976	P_RES
J41_15	203.216	0.0018270	P_RES
J41_16	208.016	0.0017048	P_RES
J41_17	214.923	0.0033995	P_IND
J41_18	220.462	0.0010972	P_RES
J41_19	227.239	0.0008439	P_RES
J41_20	232.668	0.0023350	P_COM
J41_21	238.277	0.0010640	P_RES
J41_22	244.972	0.0013463	P_RES
J41_23	250.738	0.0008497	P_RES
J41_24	255.925	0.0012734	P_RES
J41_25	263.152	0.0024405	P_RES
J41_26	269.072	0.0050830	P_COM
J41_27	275.217	0.0009759	P_RES
J41_28	282.026	0.0011219	P_RES
J41_29	286.851	0.0018154	P_RES
J41_30	293.902	0.0016120	P_RES
J41_31	299.030	0.0051409	P_IND
J41_32	305.609	0.0041616	P_COM
J41_33	310.218	0.0015751	P_RES
J41_34	317.251	0.0019322	P_RES
J41_35	323.310	0.0009812	P_RES
J41_36	328.628	0.0005579	P_RES
J41_37	335.443	0.0022012	P_RES
J41_38	340.236	0.0016666	P_RES
J41_39	346.497	0.0009965	P_RES
J41_40	351.532	0.0011903	P_RES
J41_41	359.558	0.0024357	P_RES
J41_42	364.521	0.0010677	P_RES
J41_43	370.349	0.0009467	P_RES
J41_44	376.202	0.0006754	P_RES
J41_45	381.533	0.0023980	P_RES
J41_46	387.303	0.0019182	P_IND
J41_47	392.380	0.0008949	P_RES
J41_48	398.133	0.0011496	P_RES
J41_49	404.788	0.0042379	P_RES
J41_50	411.462	0.0021586	P_COM
J41_51	416.276	0.0024731	P_RES
J41_52	421.669	0.0019098	P_IND
J41_53	428.592	0.0017669	P_RES
J41_54	432.759	0.0034647	P_COM
J41_55	439.702	0.0014611	P_RES
J41_56	445.344	0.0013555	P_RES
J41_57	451.706	0.0006242	P_RES
J41_58	457.337	0.0016888	P_COM
J41_59	462.851	0.0028443	P_COM
J41_60	467.127	0.0010244	P_RES
J41_61	473.014	0.0010412	P_RES
J41_62	480.034	0.0021482	P_RES
J41_63	485.868	0.0012726	P_COM
J41_64	490.401	0.0014221	P_RES
J41_65	495.963	0.0014988	P_RES
J41_66	502.462	0.0031490	P_COM
J42_1	115.826	0.0015666	P_RES
J42_2	120.058	0.0015672	P_RES
J42_3	126.462	0.0040526	P_RES
J42_4	132.017	0.0014876	P_COM
J42_5	138.812	0.0020644	P_RES
J42_6	145.018	0.0011263	P_RES
J42_7	152.681	0.0020679	P_IND
J42_8	157.583	0.0044506	P_COM
J42_9	164.216	0.0013719	P_RES
J42_10	169.256	0.0020120	P_RES
J42_11	176.278	0.0011941	P_RES
J42_12	181.145	0.0018307	P_COM
J42_13	188.409	0.0008819	P_RES
J42_14	195.066	0.0016624	P_RES
J42_15	200.198	0.0012242	P_RES
J42_16	206.739	0.0018566	P_IND
J42_17	212.637	0.0011558	P_RES
J42_18	219.532	0.0027099	P_COM
J42_19	224.267	0.0013365	P_RES
J42_20	231.451	0.0016900	P_COM
J42_21	236.354	0.0014158	P_RES
J42_22	242.683	0.0008480	P_RES
J42_23	248.141	0.0023264	P_COM
J42_24	254.274	0.0033845	P_RES
J42_25	260.598	0.0015850	P_RES
J42_26	267.969	0.0019946	P_IND
J42_27	272.651	0.0047931	P_RES
J42_28	279.931	0.0012791	P_RES
J42_29	284.722	0.0018770	P_RES
J42_30	291.853	0.0027424	P_COM
J42_31	297.686	0.0048853	P_COM
J42_32	303.864	0.0012639	P_RES
J42_33	309.929	0.0013503	P_RES
J42_34	316.192	0.0008995	P_RES
J42_35	320.684	0.0018779	P_COM
J42_36	327.291	0.0041650	P_COM
J42_37	333.222	0.0011873	P_RES
J42_38	339.490	0.0013030	P_RES
J42_39	345.685	0.0018955	P_RES
J42_40	351.233	0.0012080	P_RES
J42_41	356.533	0.0005211	P_RES
J42_42	363.721	0.0011323	P_COM
J42_43	369.234	0.0014623	P_RES
J42_44	375.249	0.0010261	P_RES
J42_45	379.269	0.0017382	P_RES
J42_46	385.235	0.0024606	P_RES
J42_47	391.647	0.0011711	P_RES
J42_48	398.102	0.0036687	P_COM
J42_49	404.454	0.0025540	P_COM
J42_50	407.953	0.0007056	P_RES
J42_51	415.440	0.0020086	P_RES
J42_52	420.446	0.0008662	P_RES
J42_53	426.921	0.0021189	P_RES
J42_54	433.189	0.0005985	P_RES
J42_55	437.299	0.0031176	P_COM
J42_56	442.736	0.0016488	P_RES
J42_57	449.186	0.0004290	P_RES
J42_58	455.035	0.0019186	P_RES
J42_59	460.996	0.0007598	P_RES
J42_60	465.439	0.0024310	P_COM
J42_61	470.951	0.0032332	P_IND
J42_62	478.096	0.0037307	P_COM
J42_63	483.854	0.0029085	P_COM
J42_64	489.134	0.0014204	P_RES
J42_65	495.317	0.0015497	P_RES
J42_66	500.878	0.0022347	P_IND
J43_1	112.379	0.0019418	P_COM
J43_2	120.046	0.0012562	P_RES
J43_3	124.447	0.0017358	P_COM
J43_4	131.144	0.0044007	P_COM
J43_5	137.148	0.0017102	P_IND
J43_6	144.774	0.0012487	P_RES
J43_7	148.858	0.0028899	P_RES
J43_8	155.985	0.0027394	P_IND
J43_9	161.742	0.0042063	P_COM
J43_10	169.386	0.0018038	P_IND
J43_11	174.532	0.0005719	P_RES
J43_12	180.819	0.0020384	P_RES
J43_13	187.711	0.0034132	P_COM
J43_14	192.994	0.0008548	P_RES
J43_15	197.728	0.0017431	P_RES
J43_16	204.248	0.0012202	P_RES
J43_17	210.095	0.0013532	P_RES
J43_18	215.935	0.0023350	P_COM
J43_19	223.825	0.0019606	P_COM
J43_20	230.245	0.0008571	P_RES
J43_21	234.158	0.0016220	P_COM
J43_22	240.964	0.0005917	P_RES
J43_23	247.828	0.0012347	P_RES
J43_24	254.316	0.0012288	P_RES
J43_25	259.638	0.0008007	P_RES
J43_26	265.273	0.0009047	P_RES
J43_27	270.548	0.0014526	P_RES
J43_28	278.164	0.0017345	P_RES
J43_29	284.539	0.0043429	P_COM
J43_30	289.063	0.0012125	P_COM
J43_31	295.987	0.0023964	P_RES
J43_32	302.381	0.0018588	P_COM
J43_33	307.619	0.0011889	P_RES
J43_34	312.706	0.0009379	P_RES
J43_35	319.043	0.0009853	P_RES
J43_36	325.353	0.0013270	P_RES
J43_37	331.298	0.0020557	P_COM
J43_38	338.301	0.0018235	P_COM
J43_39	342.713	0.0026668	P_RES
J43_40	349.223	0.0020869	P_RES
J43_41	354.181	0.0020902	P_COM
J43_42	361.494	0.0022170	P_COM
J43_43	366.031	0.0019394	P_RES
J43_44	373.188	0.0014050	P_RES
J43_45	377.614	0.0011590	P_RES
J43_46	382.987	0.0026584	P_COM
J43_47	390.521	0.0026895	P_COM
J43_48	396.962	0.0044399	P_IND
J43_49	400.938	0.0015454	P_RES
J43_50	407.223	0.0011969	P_RES
J43_51	412.009	0.0019103	P_RES
J43_52	417.819	0.0020837	P_RES
J43_53	424.138	0.0013049	P_RES
J43_54	429.744	0.0025443	P_RES
J43_55	435.609	0.0011395	P_RES
J43_56	442.481	0.0016544	P_RES
J43_57	447.364	0.0008818	P_RES
J43_58	454.201	0.0020131	P_RES
J43_59	458.517	0.0038899	P_IND
J43_60	463.445	0.0026008	P_RES
J43_61	470.716	0.0022782	P_RES
J43_62	474.942	0.0045450	P_IND
J43_63	481.618	0.0016021	P_RES
J43_64	486.489	0.0016836	P_RES
J43_65	494.014	0.0032232	P_COM
J43_66	497.374	0.0020875	P_RES
J44_1	110.456	0.0014116	P_COM
J44_2	117.495	0.0011079	P_RES
J44_3	123.769	0.0011440	P_RES
J44_4	129.814	0.0019703	P_RES
J44_5	136.632	0.0022958	P_RES
J44_6	142.738	0.0059967	P_COM
J44_7	148.317	0.0020504	P_COM
J44_8	153.941	0.0020889	P_COM
J44_9	160.540	0.0018334	P_RES
J44_10	165.474	0.0029202	P_COM
J44_11	172.361	0.0019326	P_RES
J44_12	178.263	0.0016083	P_RES
J44_13	185.501	0.0015126	P_RES
J44_14	190.482	0.0019456	P_RES
J44_15	197.185	0.0010763	P_RES
J44_16	202.586	0.0005654	P_RES
J44_17	208.584	0.0055740	P_RES
J44_18	214.431	0.0015872	P_RES
J44_19	221.378	0.0009491	P_RES
J44_20	226.669	0.0025441	P_RES
J44_21	232.978	0.0033675	P_IND
J44_22	238.879	0.0006787	P_RES
J44_23	245.382	0.0013662	P_RES
J44_24	250.620	0.0034515	P_RES
J44_25	258.368	0.0026002	P_IND
J44_26	262.753	0.0015261	P_RES
J44_27	270.393	0.0013330	P_RES
J44_28	276.038	0.0017188	P_RES
J44_29	282.598	0.0007049	P_RES
J44_30	287.177	0.0035570	P_RES
J44_31	293.962	0.0021763	P_COM
J44_32	298.763	0.0015315	P_RES
J44_33	305.282	0.0008205	P_RES
J44_34	310.921	0.0050811	P_COM
J44_35	317.736	0.0013657	P_RES
J44_36	323.820	0.0018199	P_RES
J44_37	328.495	0.0023435	P_COM
J44_38	335.773	0.0016353	P_RES
J44_39	340.195	0.0015506	P_RES
J44_40	348.296	0.0027705	P_RES
J44_41	352.168	0.0015977	P_COM
J44_42	359.410	0.0009109	P_RES
J44_43	365.918	0.0008958	P_RES
J44_44	371.339	0.0019453	P_COM
J44_45	375.739	0.0016582	P_COM
J44_46	381.235	0.0014490	P_RES
J44_47	387.556	0.0009325	P_COM
J44_48	394.336	0.0009751	P_RES
J44_49	400.552	0.0017990	P_RES
J44_50	406.282	0.0011636	P_COM
J44_51	412.008	0.0016852	P_RES
J44_52	416.809	0.0020428	P_COM
J44_53	423.782	0.0007761	P_RES
J44_54	429.771	0.0024145	P_RES
J44_55	434.081	0.0029026	P_COM
J44_56	438.893	0.0014097	P_RES
J44_57	445.559	0.0034186	P_COM
J44_58	451.608	0.0019662	P_COM
J44_59	457.997	0.0028219	P_COM
J44_60	463.775	0.0009741	P_COM
J44_61	469.558	0.0015151	P_RES
J44_62	474.265	0.0008824	P_RES
J44_63	480.779	0.0009554	P_RES
J44_64	485.106	0.0056110	P_COM
J44_65	491.206	0.0058750	P_IND
J44_66	496.224	0.0023448	P_COM
J45_1	109.645	0.0013887	P_RES
J45_2	116.019	0.0006222	P_RES
J45_3	122.423	0.0008767	P_RES
J45_4	127.280	0.0025347	P_RES
J45_5	134.323	0.0025299	P_COM
J45_6	139.518	0.0019310	P_COM
J45_7	145.325	0.0030798	P_IND
J45_8	151.721	0.0015341	P_RES
J45_9	158.129	0.0017173	P_RES
J45_10	165.427	0.0007005	P_RES
J45_11	171.487	0.0020690	P_COM
J45_12	175.897	0.0009704	P_RES
J45_13	182.628	0.0014174	P_RES
J45_14	189.353	0.0010869	P_RES
J45_15	195.694	0.0025483	P_IND
J45_16	200.583	0.0047280	P_COM
J45_17	208.232	0.0016998	P_RES
J45_18	213.959	0.0033136	P_RES
J45_19	220.591	0.0016907	P_RES
J45_20	226.420	0.0018702	P_IND
J45_21	232.223	0.0014392	P_RES
J45_22	239.004	0.0015825	P_RES
J45_23	244.456	0.0016381	P_RES
J45_24	248.901	0.0023402	P_RES
J45_25	257.021	0.0012450	P_RES
J45_26	262.930	0.0032534	P_IND
J45_27	267.166	0.0025649	P_RES
J45_28	273.878	0.0010079	P_RES
J45_29	279.040	0.0026134	P_COM
J45_30	285.649	0.0024782	P_IND
J45_31	292.572	0.0017748	P_RES
J45_32	298.046	0.0015738	P_RES
J45_33	303.574	0.0019030	P_RES
J45_34	310.608	0.0008468	P_RES
J45_35	315.575	0.0027911	P_COM
J45_36	321.889	0.0009347	P_RES
J45_37	327.500	0.0012609	P_RES
J45_38	334.285	0.0008057	P_RES
J45_39	338.626	0.0011973	P_COM
J45_40	346.428	0.0019922	P_COM
J45_41	350.655	0.0034675	P_IND
J45_42	357.714	0.0027380	P_COM
J45_43	362.296	0.0018809	P_RES
J45_44	368.363	0.0015619	P_RES
J45_45	373.619	0.0007721	P_RES
J45_46	381.531	0.0026186	P_RES
J45_47	385.416	0.0028025	P_RES
J45_48	392.034	0.0015132	P_RES
J45_49	397.974	0.0023962	P_COM
J45_50	402.615	0.0021971	P_IND
J45_51	410.330	0.0025908	P_RES
J45_52	415.313	0.0019634	P_RES
J45_53	420.720	0.0043300	P_COM
J45_54	425.959	0.0016524	P_RES
J45_55	431.826	0.0014559	P_RES
J45_56	438.547	0.0010102	P_RES
J45_57	443.978	0.0040862	P_RES
J45_58	449.242	0.0017974	P_RES
J45_59	456.523	0.0012444	P_RES
J45_60	462.177	0.0009289	P_RES
J45_61	467.653	0.0016631	P_RES
J45_62	473.007	0.0037320	P_COM
J45_63	477.712	0.0021331	P_RES
J45_64	484.370	0.0024728	P_COM
J45_65	488.776	0.0025129	P_RES
J45_66	495.517	0.0008676	P_RES
J46_1	107.744	0.0021396	P_COM
J46_2	114.236	0.0012219	P_RES
J46_3	120.180	0.0015389	P_COM
J46_4	125.875	0.0006677	P_RES
J46_5	131.664	0.0011412	P_RES
J46_6	137.923	0.0014320	P_COM
J46_7	145.365	0.0040716	P_COM
J46_8	149.963	0.0019033	P_COM
J46_9	157.619	0.0011194	P_RES
J46_10	163.922	0.0022207	P_RES
J46_11	168.283	0.0018468	P_RES
J46_12	175.973	0.0010116	P_RES
J46_13	181.147	0.0011740	P_RES
J46_14	186.557	0.0016039	P_RES
J46_15	193.460	0.0009762	P_RES
J46_16	200.588	0.0010326	P_RES
J46_17	205.045	0.0012084	P_RES
J46_18	211.778	0.0039539	P_IND
J46_19	218.402	0.0026119	P_COM
J46_20	224.279	0.0012880	P_COM
J46_21	228.987	0.0012381	P_RES
J46_22	235.822	0.0026255	P_IND
J46_23	241.962	0.0013379	P_COM
J46_24	247.297	0.0015625	P_COM
J46_25	253.336	0.0006528	P_RES
J46_26	260.198	0.0006479	P_RES
J46_27	267.407	0.0008177	P_RES
J46_28	272.398	0.0011059	P_RES
J46_29	277.508	0.0012925	P_RES
J46_30	284.686	0.0028070	P_IND
J46_31	289.183	0.0016023	P_RES
J46_32	297.493	0.0003574	P_RES
J46_33	302.309	0.0011205	P_RES
J46_34	307.899	0.0008774	P_RES
J46_35	314.075	0.0012467	P_RES
J46_36	320.848	0.0011021	P_RES
J46_37	325.371	0.0018298	P_RES
J46_38	331.390	0.0006455	P_RES
J46_39	337.892	0.0012472	P_RES
J46_40	344.421	0.0011172	P_RES
J46_41	350.205	0.0027227	P_COM
J46_42	354.644	0.0016761	P_RES
J46_43	361.288	0.0032237	P_RES
J46_44	366.761	0.0030419	P_COM
J46_45	373.524	0.0009647	P_RES
J46_46	379.611	0.0048520	P_IND
J46_47	383.809	0.0014935	P_COM
J46_48	389.356	0.0035766	P_IND
J46_49	395.758	0.0012540	P_RES
J46_50	402.031	0.0024411	P_RES
J46_51	408.268	0.0009318	P_RES
J46_52	414.676	0.0008652	P_RES
J46_53	418.664	0.0021189	P_COM
J46_54	425.712	0.0015990	P_RES
J46_55	431.777	0.0011865	P_RES
J46_56	436.069	0.0014780	P_COM
J46_57	441.456	0.0032883	P_COM
J46_58	447.007	0.0017179	P_RES
J46_59	453.915	0.0012743	P_COM
J46_60	459.773	0.0015939	P_RES
J46_61	464.361	0.0016913	P_RES
J46_62	471.159	0.0029066	P_COM
J46_63	476.464	0.0013125	P_RES
J46_64	480.979	0.0020159	P_RES
J46_65	487.535	0.0024697	P_RES
J46_66	493.700	0.0038996	P_COM
J47_1	106.146	0.0011901	P_COM
J47_2	112.574	0.0010691	P_RES
J47_3	119.256	0.0011737	P_RES
J47_4	125.342	0.0016758	P_RES
J47_5	130.285	0.0007671	P_RES
J47_6	137.325	0.0013461	P_RES
J47_7	142.535	0.0030035	P_COM
J47_8	149.596	0.0019456	P_RES
J47_9	155.502	0.0009392	P_RES
J47_10	161.400	0.0017011	P_IND
J47_11	167.296	0.0027499	P_RES
J47_12	173.115	0.0029635	P_IND
J47_13	178.506	0.0025324	P_RES
J47_14	185.998	0.0011608	P_RES
J47_15	191.257	0.0039578	P_COM
J47_16	198.790	0.0022884	P_COM
J47_17	203.651	0.0029700	P_COM
J47_18	209.024	0.0022307	P_RES
J47_19	215.581	0.0024722	P_COM
J47_20	221.734	0.0054272	P_COM
J47_21	227.616	0.0012034	P_RES
J47_22	234.930	0.0004625	P_RES
J47_23	240.386	0.0018832	P_COM
J47_24	245.305	0.0009092	P_RES
J47_25	252.212	0.0011187	P_RES
J47_26	258.463	0.0025591	P_RES
J47_27	264.370	0.0025090	P_RES
J47_28	271.319	0.0023713	P_RES
J47_29	275.967	0.0020980	P_RES
J47_30	283.015	0.0008241	P_RES
J47_31	288.192	0.0019743	P_RES
J47_32	294.908	0.0034209	P_IND
J47_33	301.141	0.0005800	P_RES
J47_34	306.459	0.0011950	P_RES
J47_35	313.294	0.0042068	P_RES
J47_36	317.235	0.0018808	P_RES
J47_37	323.422	0.0014706	P_COM
J47_38	329.473	0.0011439	P_RES
J47_39	336.511	0.0007978	P_RES
J47_40	342.250	0.0008229	P_RES
J47_41	348.835	0.0012527	P_RES
J47_42	353.836	0.0009838	P_RES
J47_43	359.669	0.0022095	P_IND
J47_44	364.747	0.0032925	P_RES
J47_45	371.501	0.0017795	P_RES
J47_46	377.980	0.0015750	P_RES
J47_47	382.404	0.0025090	P_IND
J47_48	389.570	0.0012910	P_RES
J47_49	393.926	0.0018006	P_RES
J47_50	400.591	0.0004689	P_RES
J47_51	406.103	0.0005832	P_RES
J47_52	412.231	0.0054473	P_IND
J47_53	417.911	0.0025079	P_RES
J47_54	422.691	0.0008959	P_RES
J47_55	429.760	0.0012544	P_RES
J47_56	434.708	0.0016497	P_RES
J47_57	440.956	0.0012258	P_RES
J47_58	445.851	0.0009396	P_RES
J47_59	451.098	0.0011917	P_RES
J47_60	458.633	0.0006104	P_RES
J47_61	462.887	0.0015294	P_RES
J47_62	469.361	0.0043960	P_RES
J47_63	473.946	0.0023773	P_COM
J47_64	479.642	0.0018159	P_COM
J47_65	486.548	0.0015336	P_RES
J47_66	491.456	0.0012724	P_COM
J48_1	104.488	0.0009162	P_RES
J48_2	110.789	0.0021315	P_COM
J48_3	115.945	0.0010904	P_RES
J48_4	122.546	0.0012996	P_RES
J48_5	129.003	0.0013053	P_RES
J48_6	135.867	0.0021095	P_RES
J48_7	141.428	0.0014021	P_RES
J48_8	146.926	0.0017701	P_RES
J48_9	152.955	0.0008754	P_RES
J48_10	160.498	0.0020747	P_RES
J48_11	165.207	0.0018531	P_RES
J48_12	172.832	0.0037355	P_RES
J48_13	177.892	0.0034673	P_COM
J48_14	183.531	0.0014677	P_RES
J48_15	191.089	0.0015435	P_RES
J48_16	197.175	0.0025363	P_COM
J48_17	201.726	0.0013082	P_RES
J48_18	209.037	0.0030673	P_RES
J48_19	215.074	0.0012224	P_RES
J48_20	219.297	0.0032536	P_COM
J48_21	227.192	0.0018026	P_COM
J48_22	233.494	0.0059467	P_IND
J48_23	237.649	0.0010795	P_RES
J48_24	244.497	0.0026407	P_COM
J48_25	250.196	0.0024466	P_IND
J48_26	257.761	0.0013273	P_RES
J48_27	261.857	0.0018821	P_RES
J48_28	269.976	0.0030186	P_COM
J48_29	274.862	0.0009506	P_RES
J48_30	280.825	0.0015401	P_RES
J48_31	285.900	0.0029312	P_COM
J48_32	292.479	0.0025588	P_RES
J48_33	298.953	0.0008253	P_RES
J48_34	305.200	0.0010769	P_RES
J48_35	310.431	0.0010671	P_RES
J48_36	315.563	0.0017818	P_RES
J48_37	321.448	0.0020634	P_COM
J48_38	328.435	0.0016782	P_RES
J48_39	335.030	0.0014694	P_RES
J48_40	340.839	0.0014952	P_RES
J48_41	345.183	0.0026767	P_RES
J48_42	351.450	0.0014520	P_RES
J48_43	358.000	0.0019108	P_COM
J48_44	364.072	0.0030861	P_RES
J48_45	370.272	0.0047966	P_COM
J48_46	374.144	0.0028926	P_RES
J48_47	381.219	0.0018544	P_COM
J48_48	387.259	0.0023717	P_IND
J48_49	393.081	0.0008715	P_RES
J48_50	397.868	0.0018466	P_COM
J48_51	404.840	0.0030403	P_IND
J48_52	410.194	0.0023404	P_IND
J48_53	415.118	0.0010018	P_RES
J48_54	422.131	0.0019524	P_RES
J48_55	426.424	0.0023150	P_RES
J48_56	433.115	0.0016340	P_RES
J48_57	439.687	0.0020973	P_RES
J48_58	445.388	0.0018291	P_RES
J48_59	448.911	0.0015660	P_COM
J48_60	455.747	0.0011716	P_RES
J48_61	460.679	0.0019352	P_COM
J48_62	467.317	0.0012788	P_RES
J48_63	473.379	0.0010143	P_RES
J48_64	478.391	0.0015811	P_RES
J48_65	483.121	0.0007918	P_RES
J48_66	489.891	0.0017813	P_RES
J49_1	102.111	0.0032031	P_IND
J49_2	108.248	0.0015994	P_RES
J49_3	114.716	0.0017329	P_RES
J49_4	121.738	0.0015831	P_COM
J49_5	127.259	0.0035901	P_COM
J49_6	132.090	0.0018175	P_COM
J49_7	140.278	0.0008770	P_RES
J49_8	144.557	0.0010972	P_RES
J49_9	151.983	0.0006470	P_RES
J49_10	158.745	0.0009720	P_RES
J49_11	164.068	0.0048549	P_IND
J49_12	169.395	0.0010216	P_RES
J49_13	175.441	0.0051683	P_IND
J49_14	181.589	0.0013286	P_COM
J49_15	187.384	0.0014749	P_RES
J49_16	194.030	0.0044272	P_IND
J49_17	199.632	0.0014780	P_RES
J49_18	206.205	0.0015421	P_RES
J49_19	211.704	0.0009193	P_COM
J49_20	219.301	0.0030637	P_RES
J49_21	225.093	0.0034779	P_COM
J49_22	230.392	0.0010369	P_RES
J49_23	237.199	0.0007938	P_RES
J49_24	243.357	0.0012121	P_RES
J49_25	249.574	0.0020782	P_COM
J49_26	255.683	0.0009119	P_RES
J49_27	260.076	0.0016198	P_RES
J49_28	267.898	0.0020876	P_RES
J49_29	274.222	0.0017060	P_RES
J49_30	280.152	0.0029370	P_RES
J49_31	284.051	0.0023053	P_IND
J49_32	291.371	0.0036354	P_IND
J49_33	296.974	0.0006371	P_RES
J49_34	302.290	0.0014032	P_RES
J49_35	307.925	0.0022638	P_COM
J49_36	315.621	0.0013140	P_RES
J49_37	319.583	0.0012316	P_RES
J49_38	326.145	0.0023022	P_COM
J49_39	331.376	0.0008059	P_RES
J49_40	339.405	0.0006902	P_RES
J49_41	343.372	0.0019674	P_COM
J49_42	350.245	0.0019442	P_COM
J49_43	356.657	0.0010095	P_RES
J49_44	361.724	0.0008538	P_RES
J49_45	366.582	0.0011180	P_COM
J49_46	374.413	0.0028053	P_IND
J49_47	380.177	0.0010672	P_RES
J49_48	384.113	0.0015491	P_RES
J49_49	392.091	0.0006516	P_RES
J49_50	396.364	0.0014973	P_RES
J49_51	403.021	0.0013430	P_RES
J49_52	409.228	0.0034963	P_IND
J49_53	413.227	0.0016720	P_RES
J49_54	420.035	0.0033993	P_COM
J49_55	426.374	0.0008093	P_RES
J49_56	431.708	0.0021359	P_RES
J49_57	436.879	0.0031039	P_RES
J49_58	443.570	0.0008484	P_RES
J49_59	447.404	0.0032317	P_RES
J49_60	454.103	0.0014401	P_RES
J49_61	458.791	0.0022216	P_RES
J49_62	465.553	0.0020915	P_RES
J49_63	470.605	0.0016169	P_COM
J49_64	475.755	0.0009920	P_RES
J49_65	482.437	0.0015049	P_COM
J49_66	487.392	0.0014101	P_RES
J50_1	101.762	0.0021022	P_COM
J50_2	105.745	0.0045094	P_COM
J50_3	112.030	0.0028637	P_COM
J50_4	119.108	0.0021359	P_COM
J50_5	125.784	0.0034715	P_IND
J50_6	131.984	0.0013520	P_RES
J50_7	136.942	0.0007111	P_RES
J50_8	144.143	0.0026271	P_COM
J50_9	150.585	0.0006964	P_RES
J50_10	154.857	0.0034555	P_RES
J50_11	162.489	0.0008305	P_RES
J50_12	168.396	0.0023789	P_COM
J50_13	173.132	0.0018689	P_RES
J50_14	180.161	0.0023827	P_COM
J50_15	186.104	0.0005861	P_RES
J50_16	192.216	0.0004711	P_RES
J50_17	198.319	0.0018459	P_RES
J50_18	204.373	0.0007086	P_RES
J50_19	210.087	0.0021333	P_COM
J50_20	216.568	0.0017344	P_RES
J50_21	222.583	0.0009311	P_RES
J50_22	229.812	0.0028970	P_COM
J50_23	235.033	0.0020304	P_RES
J50_24	240.729	0.0010624	P_RES
J50_25	246.139	0.0017332	P_RES
J50_26	252.624	0.0013444	P_RES
J50_27	259.129	0.0019182	P_RES
J50_28	266.440	0.0010944	P_COM
J50_29	270.795	0.0005565	P_RES
J50_30	277.055	0.0022989	P_COM
J50_31	283.045	0.0009934	P_RES
J50_32	288.635	0.0013650	P_RES
J50_33	294.238	0.0016900	P_COM
J50_34	302.121	0.0012077	P_RES
J50_35	307.116	0.0009244	P_RES
J50_36	312.722	0.0011738	P_RES
J50_37	318.009	0.0009592	P_RES
J50_38	325.382	0.0009131	P_RES
J50_39	330.400	0.0014277	P_RES
J50_40	337.706	0.0035952	P_IND
J50_41	343.659	0.0031556	P_IND
J50_42	349.434	0.0015204	P_RES
J50_43	353.636	0.0018306	P_RES
J50_44	359.797	0.0017505	P_RES
J50_45	366.528	0.0007524	P_RES
J50_46	371.187	0.0010284	P_RES
J50_47	378.002	0.0022477	P_RES
J50_48	382.987	0.0024112	P_IND
J50_49	388.579	0.0007560	P_RES
J50_50	394.887	0.0014371	P_COM
J50_51	400.580	0.0010489	P_RES
J50_52	407.041	0.0009893	P_RES
J50_53	412.790	0.0015335	P_RES
J50_54	416.932	0.0025108	P_RES
J50_55	424.951	0.0015347	P_COM
J50_56	428.614	0.0012431	P_RES
J50_57	436.024	0.0019284	P_RES
J50_58	440.366	0.0022160	P_RES
J50_59	445.464	0.0006589	P_RES
J50_60	452.906	0.0015194	P_IND
J50_61	459.087	0.0011725	P_COM
J50_62	462.894	0.0015680	P_RES
J50_63	469.722	0.0038532	P_RES
J50_64	475.019	0.0007074	P_RES
J50_65	479.409	0.0007482	P_RES
J50_66	486.016	0.0017172	P_RES
J51_1	99.625	0.0012597	P_IND
J51_2	105.542	0.0019922	P_RES
J51_3	110.006	0.0013130	P_RES
J51_4	118.212	0.0009655	P_RES
J51_5	124.069	0.0055169	P_COM
J51_6	130.296	0.0011309	P_RES
J51_7	134.905	0.0025130	P_RES
J51_8	141.140	0.0013255	P_COM
J51_9	148.835	0.0009860	P_RES
J51_10	154.284	0.0025761	P_COM
J51_11	160.654	0.0004957	P_RES
J51_12	167.260	0.0012390	P_RES
J51_13	171.934	0.0017521	P_COM
J51_14	179.746	0.0009511	P_RES
J51_15	184.826	0.0008349	P_RES
J51_16	190.455	0.0017530	P_RES
J51_17	196.580	0.0020804	P_IND
J51_18	202.760	0.0011899	P_RES
J51_19	208.378	0.0016022	P_RES
J51_20	214.095	0.0013535	P_RES
J51_21	222.246	0.0022220	P_COM
J51_22	228.043	0.0024524	P_RES
J51_23	232.507	0.0017935	P_RES
J51_24	239.324	0.0014488	P_RES
J51_25	246.122	0.0030084	P_IND
J51_26	250.365	0.0019543	P_COM
J51_27	256.503	0.0014461	P_RES
J51_28	264.041	0.0030307	P_COM
J51_29	270.508	0.0013606	P_RES
J51_30	275.225	0.0054654	P_COM
J51_31	280.899	0.0018053	P_COM
J51_32	288.233	0.0022285	P_COM
J51_33	292.896	0.0010492	P_RES
J51_34	299.924	0.0006041	P_RES
J51_35	304.295	0.0025885	P_COM
J51_36	311.728	0.0040743	P_IND
J51_37	317.266	0.0015274	P_RES
J51_38	323.039	0.0025319	P_COM
J51_39	328.087	0.0031576	P_COM
J51_40	334.957	0.0013249	P_RES
J51_41	341.362	0.0008428	P_RES
J51_42	345.612	0.0027765	P_RES
J51_43	353.392	0.0010405	P_COM
J51_44	357.484	0.0013962	P_RES
J51_45	365.192	0.0019937	P_RES
J51_46	369.422	0.0008527	P_RES
J51_47	375.351	0.0015880	P_COM
J51_48	381.171	0.0042354	P_IND
J51_49	388.204	0.0022053	P_COM
J51_50	394.131	0.0012325	P_IND
J51_51	398.406	0.0013150	P_RES
J51_52	404.656	0.0009960	P_RES
J51_53	410.984	0.0014870	P_RES
J51_54	416.192	0.0023303	P_RES
J51_55	422.327	0.0013938	P_COM
J51_56	428.056	0.0019356	P_RES
J51_57	432.883	0.0026379	P_IND
J51_58	439.731	0.0030474	P_IND
J51_59	443.716	0.0037508	P_COM
J51_60	450.653	0.0013817	P_RES
J51_61	456.440	0.0037599	P_IND
J51_62	461.327	0.0012205	P_COM
J51_63	466.524	0.0021970	P_COM
J51_64	473.620	0.0018282	P_RES
J51_65	479.977	0.0014640	P_RES
J51_66	484.241	0.0012432	P_RES
J52_1	98.145	0.0044408	P_COM
J52_2	102.906	0.0004099	P_RES
J52_3	108.568	0.0022049	P_RES
J52_4	114.639	0.0013958	P_COM
J52_5	122.680	0.0019647	P_COM
J52_6	127.662	0.0026342	P_COM
J52_7	134.997	0.0026678	P_COM
J52_8	139.281	0.0011527	P_RES
J52_9	146.787	0.0008151	P_RES
J52_10	152.632	0.0018268	P_COM
J52_11	158.798	0.0014987	P_RES
J52_12	164.914	0.0014726	P_COM
J52_13	170.578	0.0034072	P_IND
J52_14	176.632	0.0023909	P_COM
J52_15	182.975	0.0014793	P_RES
J52_16	188.846	0.0012206	P_RES
J52_17	194.272	0.0012063	P_RES
J52_18	201.842	0.0012782	P_RES
J52_19	208.496	0.0011344	P_RES
J52_20	212.398	0.0007506	P_RES
J52_21	218.799	0.0036888	P_IND
J52_22	225.109	0.0009075	P_RES
J52_23	231.590	0.0025916	P_IND
J52_24	237.098	0.0007234	P_RES
J52_25	243.338	0.0006979	P_RES
J52_26	249.513	0.0027983	P_IND
J52_27	255.398	0.0011124	P_COM
J52_28	261.100	0.0011669	P_RES
J52_29	267.235	0.0010630	P_RES
J52_30	273.804	0.0032917	P_COM
J52_31	279.275	0.0012301	P_RES
J52_32	285.682	0.0023816	P_RES
J52_33	292.340	0.0040102	P_IND
J52_34	297.167	0.0021225	P_COM
J52_35	303.506	0.0010234	P_RES
J52_36	309.288	0.0029642	P_RES
J52_37	315.675	0.0010711	P_RES
J52_38	321.005	0.0014236	P_RES
J52_39	326.708	0.0008609	P_RES
J52_40	332.155	0.0013741	P_RES
J52_41	339.671	0.0038539	P_COM
J52_42	345.161	0.0016651	P_RES
J52_43	350.619	0.0020777	P_COM
J52_44	357.022	0.0015850	P_COM
J52_45	362.397	0.0015311	P_RES
J52_46	368.920	0.0016948	P_RES
J52_47	374.014	0.0032233	P_COM
J52_48	381.138	0.0018154	P_COM
J52_49	386.584	0.0009584	P_RES
J52_50	390.742	0.0006653	P_RES
J52_51	397.171	0.0011616	P_RES
J52_52	403.088	0.0019620	P_COM
J52_53	407.749	0.0031103	P_RES
J52_54	414.575	0.0015864	P_RES
J52_55	419.517	0.0021890	P_RES
J52_56	426.994	0.0032129	P_RES
J52_57	431.451	0.0015244	P_RES
J52_58	437.502	0.0012131	P_RES
J52_59	442.353	0.0013027	P_COM
J52_60	447.711	0.0020578	P_COM
J52_61	454.958	0.0015448	P_RES
J52_62	459.760	0.0009119	P_RES
J52_63	465.688	0.0015718	P_RES
J52_64	472.251	0.0020842	P_IND
J52_65	477.896	0.0008592	P_RES
J52_66	481.709	0.0010564	P_RES
J53_1	94.945	0.0009517	P_RES
J53_2	100.493	0.0039224	P_COM
J53_3	108.484	0.0010971	P_RES
J53_4	114.720	0.0006554	P_RES
J53_5	120.360	0.0022851	P_RES
J53_6	125.152	0.0015954	P_COM
J53_7	132.063	0.0008288	P_RES
J53_8	139.514	0.0021613	P_RES
J53_9	145.404	0.0066957	P_IND
J53_10	149.844	0.0024630	P_COM
J53_11	158.009	0.0006880	P_RES
J53_12	163.996	0.0035057	P_RES
J53_13	169.840	0.0026194	P_RES
J53_14	174.686	0.0017925	P_RES
J53_15	181.502	0.0016858	P_RES
J53_16	186.712	0.0016793	P_RES
J53_17	194.338	0.0012182	P_RES
J53_18	199.810	0.0017170	P_IND
J53_19	205.935	0.0009416	P_RES
J53_20	211.775	0.0006016	P_RES
J53_21	216.890	0.0022801	P_COM
J53_22	224.121	0.0015631	P_IND
J53_23	230.432	0.0013668	P_RES
J53_24	236.816	0.0016458	P_RES
J53_25	241.187	0.0014920	P_RES
J53_26	248.351	0.0016157	P_RES
J53_27	254.327	0.0021583	P_COM
J53_28	261.264	0.0012489	P_RES
J53_29	266.185	0.0011475	P_RES
J53_30	272.907	0.0009932	P_RES
J53_31	278.039	0.0019423	P_COM
J53_32	283.135	0.0012120	P_RES
J53_33	289.570	0.0011225	P_RES
J53_34	296.300	0.0014107	P_RES
J53_35	301.378	0.0013873	P_RES
J53_36	307.955	0.0026530	P_RES
J53_37	314.379	0.0011617	P_RES
J53_38	319.905	0.0009299	P_COM
J53_39	325.388	0.0007674	P_COM
J53_40	332.051	0.0004897	P_RES
J53_41	337.028	0.0032245	P_COM
J53_42	343.428	0.0038912	P_COM
J53_43	349.765	0.0010291	P_RES
J53_44	355.351	0.0032380	P_IND
J53_45	361.657	0.0007770	P_RES
J53_46	367.150	0.0011496	P_RES
J53_47	372.362	0.0018483	P_COM
J53_48	377.817	0.0031066	P_COM
J53_49	384.192	0.0025878	P_COM
J53_50	388.749	0.0034295	P_IND
J53_51	395.555	0.0024032	P_IND
J53_52	401.107	0.0019118	P_IND
J53_53	406.643	0.0015904	P_RES
J53_54	412.539	0.0009348	P_RES
J53_55	419.291	0.0006729	P_RES
J53_56	423.973	0.0015909	P_RES
J53_57	429.588	0.0019657	P_COM
J53_58	436.636	0.0012350	P_RES
J53_59	441.745	0.0009215	P_RES
J53_60	447.866	0.0043609	P_COM
J53_61	451.992	0.0032458	P_RES
J53_62	459.478	0.0020547	P_RES
J53_63	463.143	0.0024275	P_IND
J53_64	468.564	0.0025951	P_RES
J53_65	474.605	0.0015214	P_RES
J53_66	480.310	0.0012253	P_RES
J54_1	92.681	0.0016603	P_RES
J54_2	99.766	0.0024325	P_COM
J54_3	105.522	0.0011615	P_RES
J54_4	113.038	0.0007394	P_RES
J54_5	117.992	0.0020009	P_IND
J54_6	124.902	0.0026327	P_COM
J54_7	129.848	0.0009869	P_RES
J54_8	136.103	0.0017864	P_RES
J54_9	142.272	0.0061008	P_COM
J54_10	148.632	0.0008314	P_RES
J54_11	155.079	0.0019285	P_RES
J54_12	161.961	0.0006768	P_RES
J54_13	166.178	0.0024050	P_RES
J54_14	172.788	0.0014630	P_RES
J54_15	178.564	0.0010046	P_RES
J54_16	185.263	0.0012621	P_RES
J54_17	191.817	0.0011661	P_RES
J54_18	198.501	0.0012754	P_COM
J54_19	205.168	0.0010589	P_RES
J54_20	210.025	0.0017353	P_COM
J54_21	215.878	0.0021344	P_RES
J54_22	221.053	0.0013511	P_RES
J54_23	228.707	0.0017637	P_RES
J54_24	235.261	0.0018830	P_RES
J54_25	239.429	0.0011818	P_COM
J54_26	246.735	0.0021291	P_IND
J54_27	252.860	0.0013146	P_RES
J54_28	258.383	0.0009245	P_RES
J54_29	263.301	0.0013251	P_RES
J54_30	269.631	0.0033519	P_COM
J54_31	275.357	0.0020816	P_RES
J54_32	281.254	0.0011749	P_RES
J54_33	287.645	0.0006741	P_RES
J54_34	294.254	0.0007149	P_RES
J54_35	299.458	0.0010259	P_COM
J54_36	306.145	0.0010662	P_RES
J54_37	313.024	0.0013407	P_COM
J54_38	318.913	0.0016079	P_RES
J54_39	323.292	0.0009968	P_RES
J54_40	329.880	0.0015083	P_RES
J54_41	334.803	0.0014331	P_RES
J54_42	342.735	0.0021170	P_RES
J54_43	347.168	0.0027377	P_IND
J54_44	352.418	0.0007771	P_RES
J54_45	358.959	0.0027834	P_COM
J54_46	365.219	0.0011964	P_RES
J54_47	370.543	0.0018970	P_COM
J54_48	376.365	0.0014465	P_RES
J54_49	382.960	0.0015273	P_RES
J54_50	388.607	0.0026707	P_IND
J54_51	393.556	0.0022917	P_COM
J54_52	399.143	0.0015667	P_RES
J54_53	405.799	0.0052708	P_COM
J54_54	411.595	0.0022616	P_RES
J54_55	415.993	0.0014145	P_RES
J54_56	422.853	0.0049800	P_COM
J54_57	429.356	0.0011769	P_RES
J54_58	434.647	0.0011281	P_RES
J54_59	439.318	0.0006622	P_RES
J54_60	445.232	0.0015661	P_IND
J54_61	451.538	0.0022999	P_IND
J54_62	456.102	0.0040120	P_COM
J54_63	462.504	0.0010874	P_RES
J54_64	466.973	0.0019598	P_COM
J54_65	473.476	0.0010372	P_RES
J54_66	478.907	0.0023285	P_RES
J55_1	92.411	0.0014886	P_RES
J55_2	99.022	0.0013216	P_RES
J55_3	103.846	0.0015252	P_COM
J55_4	110.866	0.0030265	P_RES
J55_5	115.808	0.0015972	P_RES
J55_6	123.520	0.0011537	P_RES
J55_7	128.883	0.0013142	P_RES
J55_8	135.788	0.0020988	P_IND
J55_9	141.670	0.0009660	P_RES
J55_10	146.348	0.0037828	P_IND
J55_11	153.039	0.0012683	P_COM
J55_12	159.553	0.0012217	P_RES
J55_13	166.502	0.0021926	P_RES
J55_14	171.529	0.0008575	P_RES
J55_15	177.908	0.0012059	P_RES
J55_16	184.771	0.0019750	P_RES
J55_17	190.559	0.0020733	P_RES
J55_18	196.713	0.0011083	P_RES
J55_19	201.221	0.0016897	P_RES
J55_20	209.258	0.0013670	P_COM
J55_21	213.629	0.0034701	P_COM
J55_22	220.988	0.0023563	P_COM
J55_23	226.191	0.0023201	P_COM
J55_24	233.143	0.0019668	P_COM
J55_25	239.133	0.0020085	P_IND
J55_26	245.326	0.0013331	P_RES
J55_27	251.584	0.0010796	P_RES
J55_28	257.051	0.0010205	P_RES
J55_29	263.536	0.0012770	P_RES
J55_30	268.543	0.0012420	P_RES
J55_31	274.014	0.0013514	P_RES
J55_32	281.336	0.0012876	P_COM
J55_33	286.669	0.0013961	P_COM
J55_34	293.025	0.0015171	P_RES
J55_35	298.010	0.0036634	P_COM
J55_36	305.280	0.0007587	P_RES
J55_37	309.349	0.0011175	P_RES
J55_38	317.034	0.0028921	P_COM
J55_39	321.520	0.0004667	P_RES
J55_40	327.128	0.0011488	P_RES
J55_41	333.709	0.0023310	P_RES
J55_42	340.282	0.0010759	P_RES
J55_43	344.834	0.0011747	P_RES
J55_44	351.963	0.0015022	P_RES
J55_45	357.148	0.0026995	P_COM
J55_46	363.179	0.0012786	P_RES
J55_47	369.945	0.0016074	P_COM
J55_48	374.322	0.0010337	P_RES
J55_49	380.133	0.0007182	P_RES
J55_50	385.729	0.0013894	P_RES
J55_51	391.469	0.0013055	P_RES
J55_52	397.846	0.0022192	P_RES
J55_53	403.078	0.0014890	P_RES
J55_54	410.094	0.0010618	P_RES
J55_55	415.122	0.0015877	P_RES
J55_56	421.196	0.0009825	P_RES
J55_57	427.427	0.0017527	P_RES
J55_58	431.648	0.0024192	P_IND
J55_59	437.560	0.0006581	P_RES
J55_60	442.571	0.0011500	P_COM
J55_61	449.561	0.0011024	P_COM
J55_62	455.739	0.0019271	P_COM
J55_63	461.587	0.0011436	P_RES
J55_64	465.778	0.0014243	P_COM
J55_65	471.623	0.0007368	P_RES
J55_66	476.490	0.0026066	P_RES
J56_1	90.393	0.0032755	P_RES
J56_2	96.438	0.0020000	P_RES
J56_3	103.289	0.0009030	P_RES
J56_4	108.220	0.0012242	P_COM
J56_5	114.565	0.0019934	P_RES
J56_6	122.215	0.0025873	P_COM
J56_7	127.461	0.0011363	P_RES
J56_8	134.083	0.0007557	P_RES
J56_9	138.934	0.0009056	P_RES
J56_10	146.304	0.0015523	P_RES
J56_11	151.313	0.0028538	P_IND
J56_12	158.021	0.0008895	P_RES
J56_13	163.809	0.0023402	P_COM
J56_14	171.258	0.0016061	P_IND
J56_15	176.164	0.0010523	P_RES
J56_16	181.785	0.0019152	P_COM
J56_17	188.642	0.0010895	P_RES
J56_18	194.357	0.0016556	P_RES
J56_19	201.181	0.0025439	P_RES
J56_20	206.442	0.0081317	P_COM
J56_21	213.673	0.0008569	P_RES
J56_22	218.814	0.0023229	P_IND
J56_23	224.152	0.0020453	P_RES
J56_24	231.262	0.0009086	P_RES
J56_25	235.894	0.0017318	P_RES
J56_26	243.278	0.0024932	P_IND
J56_27	249.015	0.0011797	P_RES
J56_28	254.781	0.0021131	P_RES
J56_29	260.104	0.0010673	P_RES
J56_30	266.591	0.0007571	P_RES
J56_31	273.971	0.0006603	P_RES
J56_32	279.064	0.0021087	P_RES
J56_33	285.073	0.0035351	P_COM
J56_34	292.027	0.0011670	P_COM
J56_35	295.693	0.0017271	P_RES
J56_36	303.755	0.0024731	P_RES
J56_37	308.827	0.0009798	P_RES
J56_38	314.169	0.0012873	P_RES
J56_39	319.982	0.0010536	P_RES
J56_40	326.308	0.0022725	P_COM
J56_41	331.297	0.0049982	P_IND
J56_42	337.556	0.0036406	P_RES
J56_43	345.192	0.0004943	P_RES
J56_44	350.301	0.0011678	P_RES
J56_45	356.467	0.0027868	P_COM
J56_46	361.536	0.0047475	P_IND
J56_47	366.466	0.0013077	P_RES
J56_48	372.462	0.0006541	P_RES
J56_49	379.938	0.0010042	P_RES
J56_50	383.926	0.0008746	P_RES
J56_51	390.387	0.0012701	P_RES
J56_52	396.721	0.0016993	P_RES
J56_53	401.134	0.0028435	P_COM
J56_54	406.637	0.0016245	P_RES
J56_55	412.846	0.0013891	P_RES
J56_56	419.241	0.0017007	P_RES
J56_57	424.198	0.0025217	P_COM
J56_58	429.811	0.0012500	P_RES
J56_59	435.273	0.0012372	P_RES
J56_60	442.649	0.0020928	P_RES
J56_61	446.545	0.0042737	P_COM
J56_62	453.740	0.0022464	P_COM
J56_63	459.448	0.0052236	P_COM
J56_64	463.754	0.0012829	P_RES
J56_65	471.371	0.0014506	P_RES
J56_66	475.214	0.0020612	P_RES
J57_1	88.034	0.0013091	P_COM
J57_2	94.827	0.0010713	P_RES
J57_3	100.944	0.0028260	P_COM
J57_4	107.051	0.0010739	P_RES
J57_5	114.274	0.0020577	P_IND
J57_6	120.240	0.0015515	P_RES
J57_7	124.968	0.0007897	P_RES
J57_8	130.474	0.0010356	P_RES
J57_9	136.903	0.0020176	P_RES
J57_10	144.522	0.0025302	P_IND
J57_11	150.902	0.0030281	P_COM
J57_12	156.760	0.0007089	P_RES
J57_13	161.533	0.0025243	P_COM
J57_14	169.112	0.0008862	P_RES
J57_15	173.741	0.0024294	P_COM
J57_16	180.534	0.0009362	P_RES
J57_17	186.418	0.0012540	P_RES
J57_18	193.841	0.0009240	P_RES
J57_19	198.855	0.0025587	P_COM
J57_20	203.955	0.0029774	P_RES
J57_21	210.159	0.0018510	P_RES
J57_22	216.808	0.0014325	P_RES
J57_23	224.195	0.0024712	P_RES
J57_24	229.073	0.0021371	P_RES
J57_25	234.983	0.0016765	P_RES
J57_26	240.736	0.0014599	P_RES
J57_27	247.669	0.0008118	P_RES
J57_28	253.003	0.0006510	P_RES
J57_29	259.583	0.0017094	P_RES
J57_30	264.103	0.0008482	P_RES
J57_31	270.569	0.0010766	P_RES
J57_32	276.319	0.0008569	P_RES
J57_33	283.416	0.0025449	P_COM
J57_34	289.933	0.0017986	P_RES
J57_35	294.126	0.0036235	P_IND
J57_36	301.187	0.0016663	P_COM
J57_37	307.559	0.0014430	P_RES
J57_38	314.080	0.0011782	P_RES
J57_39	319.341	0.0014075	P_RES
J57_40	324.552	0.0010078	P_RES
J57_41	329.609	0.0019847	P_RES
J57_42	336.208	0.0012343	P_RES
J57_43	343.259	0.0016276	P_RES
J57_44	346.956	0.0018163	P_RES
J57_45	352.919	0.0028581	P_RES
J57_46	359.175	0.0037985	P_RES
J57_47	366.797	0.0007685	P_RES
J57_48	372.617	0.0014145	P_RES
J57_49	377.433	0.0009622	P_RES
J57_50	383.111	0.0013976	P_COM
J57_51	387.641	0.0044702	P_IND
J57_52	393.895	0.0021663	P_RES
J57_53	401.461	0.0014128	P_RES
J57_54	406.111	0.0016305	P_IND
J57_55	411.505	0.0031569	P_COM
J57_56	416.558	0.0010260	P_RES
J57_57	422.113	0.0065208	P_IND
J57_58	429.387	0.0011213	P_RES
J57_59	435.085	0.0015681	P_COM
J57_60	439.848	0.0038392	P_COM
J57_61	445.356	0.0019387	P_RES
J57_62	452.253	0.0009259	P_RES
J57_63	458.044	0.0029989	P_RES
J57_64	463.043	0.0025378	P_RES
J57_65	467.463	0.0026534	P_COM
J57_66	473.088	0.0039836	P_COM
J58_1	86.635	0.0018297	P_COM
J58_2	92.605	0.0016392	P_RES
J58_3	98.574	0.0004679	P_RES
J58_4	104.393	0.0036087	P_COM
J58_5	110.556	0.0008714	P_RES
J58_6	117.007	0.0014866	P_RES
J58_7	124.343	0.0005377	P_RES
J58_8	129.740	0.0011223	P_RES
J58_9	136.185	0.0014223	P_RES
J58_10	141.007	0.0009655	P_RES
J58_11	148.495	0.0010736	P_RES
J58_12	154.359	0.0022498	P_COM
J58_13	159.746	0.0019509	P_RES
J58_14	167.470	0.0017771	P_RES
J58_15	171.892	0.0021113	P_IND
J58_16	179.487	0.0013566	P_RES
J58_17	185.030	0.0022618	P_RES
J58_18	190.938	0.0008332	P_RES
J58_19	196.294	0.0008298	P_RES
J58_20	202.944	0.0059405	P_COM
J58_21	208.324	0.0008880	P_RES
J58_22	216.227	0.0017461	P_COM
J58_23	220.684	0.0008658	P_RES
J58_24	228.532	0.0018119	P_COM
J58_25	233.806	0.0015240	P_RES
J58_26	238.542	0.0013437	P_RES
J58_27	244.454	0.0015240	P_RES
J58_28	252.185	0.0008530	P_RES
J58_29	257.537	0.0013450	P_RES
J58_30	263.212	0.0021194	P_RES
J58_31	269.023	0.0021057	P_RES
J58_32	274.756	0.0039734	P_IND
J58_33	282.195	0.0008709	P_RES
J58_34	288.070	0.0014272	P_RES
J58_35	294.146	0.0023546	P_IND
J58_36	300.016	0.0017068	P_COM
J58_37	305.852	0.0008288	P_RES
J58_38	311.139	0.0028313	P_COM
J58_39	317.038	0.0007117	P_RES
J58_40	322.758	0.0008634	P_RES
J58_41	328.181	0.0008625	P_RES
J58_42	334.047	0.0005609	P_RES
J58_43	339.595	0.0027185	P_IND
J58_44	346.068	0.0012821	P_RES
J58_45	352.043	0.0019137	P_COM
J58_46	357.252	0.0019255	P_RES
J58_47	363.621	0.0017959	P_RES
J58_48	369.746	0.0016767	P_RES
J58_49	375.609	0.0031960	P_IND
J58_50	380.845	0.0020251	P_RES
J58_51	386.440	0.0025512	P_RES
J58_52	392.644	0.0031461	P_IND
J58_53	397.990	0.0009661	P_RES
J58_54	404.845	0.0009408	P_COM
J58_55	409.969	0.0009148	P_RES
J58_56	415.927	0.0009506	P_RES
J58_57	420.876	0.0012094	P_COM
J58_58	426.464	0.0011561	P_COM
J58_59	432.409	0.0016927	P_RES
J58_60	439.003	0.0037450	P_IND
J58_61	444.556	0.0010356	P_RES
J58_62	450.165	0.0007381	P_RES
J58_63	455.624	0.0017207	P_RES
J58_64	460.443	0.0007937	P_RES
J58_65	467.529	0.0008807	P_RES
J58_66	473.236	0.0017908	P_RES
J59_1	85.786	0.0029556	P_RES
J59_2	92.237	0.0010412	P_RES
J59_3	97.843	0.0018809	P_RES
J59_4	103.377	0.0031428	P_IND
J59_5	110.205	0.0007679	P_RES
J59_6	115.140	0.0005937	P_RES
J59_7	122.395	0.0038945	P_IND
J59_8	129.392	0.0010365	P_RES
J59_9	134.575	0.0033118	P_COM
J59_10	139.671	0.0019574	P_RES
J59_11	145.928	0.0010729	P_RES
J59_12	152.582	0.0012120	P_RES
J59_13	159.161	0.0034735	P_IND
J59_14	165.370	0.0009631	P_RES
J59_15	170.295	0.0016059	P_RES
J59_16	177.527	0.0009100	P_RES
J59_17	182.981	0.0043355	P_COM
J59_18	190.500	0.0021997	P_RES
J59_19	195.684	0.0013841	P_RES
J59_20	202.621	0.0015241	P_RES
J59_21	206.575	0.0031564	P_COM
J59_22	213.931	0.0015254	P_RES
J59_23	220.096	0.0010522	P_RES
J59_24	226.348	0.0010614	P_RES
J59_25	233.021	0.0039110	P_COM
J59_26	237.645	0.0011537	P_RES
J59_27	243.961	0.0016131	P_COM
J59_28	250.363	0.0009367	P_RES
J59_29	256.811	0.0033937	P_IND
J59_30	261.675	0.0016989	P_COM
J59_31	266.894	0.0010697	P_RES
J59_32	272.824	0.0017110	P_RES
J59_33	279.214	0.0011505	P_COM
J59_34	284.898	0.0011218	P_RES
J59_35	292.936	0.0012410	P_RES
J59_36	297.485	0.0019985	P_COM
J59_37	302.915	0.0016314	P_COM
J59_38	309.353	0.0011200	P_RES
J59_39	316.582	0.0036062	P_COM
J59_40	321.040	0.0022957	P_COM
J59_41	327.534	0.0011821	P_COM
J59_42	332.477	0.0011354	P_COM
J59_43	337.882	0.0011042	P_RES
J59_44	345.710	0.0025708	P_RES
J59_45	349.536	0.0058760	P_COM
J59_46	355.304	0.0031705	P_COM
J59_47	361.621	0.0007473	P_RES
J59_48	369.003	0.0028115	P_IND
J59_49	374.732	0.0015788	P_COM
J59_50	380.084	0.0008710	P_COM
J59_51	384.402	0.0028904	P_RES
J59_52	390.766	0.0029064	P_IND
J59_53	397.479	0.0012789	P_COM
J59_54	403.669	0.0021680	P_COM
J59_55	409.336	0.0013180	P_RES
J59_56	414.840	0.0006790	P_RES
J59_57	421.004	0.0010834	P_RES
J59_58	424.667	0.0008077	P_RES
J59_59	430.148	0.0037061	P_COM
J59_60	437.642	0.0015250	P_RES
J59_61	443.474	0.0012171	P_RES
J59_62	447.432	0.0019695	P_RES
J59_63	452.905	0.0009285	P_RES
J59_64	458.706	0.0006285	P_RES
J59_65	465.667	0.0023971	P_COM
J59_66	471.141	0.0014681	P_RES
J60_1	84.613	0.0020255	P_RES
J60_2	89.248	0.0015196	P_RES
J60_3	94.830	0.0016746	P_RES
J60_4	102.005	0.0008146	P_RES
J60_5	107.199	0.0011428	P_RES
J60_6	115.213	0.0012017	P_RES
J60_7	121.185	0.0020326	P_COM
J60_8	126.275	0.0025893	P_COM
J60_9	133.403	0.0013043	P_RES
J60_10	138.121	0.0019219	P_RES
J60_11	145.480	0.0010380	P_RES
J60_12	152.140	0.0022343	P_RES
J60_13	157.582	0.0058647	P_COM
J60_14	163.109	0.0010664	P_RES
J60_15	170.500	0.0046584	P_IND
J60_16	176.407	0.0013135	P_RES
J60_17	181.404	0.0012953	P_RES
J60_18	187.138	0.0027147	P_COM
J60_19	194.968	0.0019230	P_IND
J60_20	199.329	0.0018792	P_IND
J60_21	206.614	0.0011450	P_RES
J60_22	212.511	0.0026498	P_COM
J60_23	216.991	0.0029333	P_RES
J60_24	223.648	0.0011326	P_RES
J60_25	229.737	0.0018979	P_COM
J60_26	235.561	0.0016233	P_COM
J60_27	241.178	0.0009544	P_RES
J60_28	247.560	0.0008683	P_RES
J60_29	255.268	0.0018293	P_RES
J60_30	260.313	0.0017147	P_RES
J60_31	266.414	0.0029049	P_RES
J60_32	271.618	0.0007541	P_RES
J60_33	277.465	0.0024755	P_RES
J60_34	283.876	0.0025128	P_RES
J60_35	290.424	0.0010985	P_RES
J60_36	297.220	0.0011289	P_RES
J60_37	301.606	0.0009464	P_RES
J60_38	308.017	0.0018516	P_RES
J60_39	314.092	0.0029915	P_RES
J60_40	319.551	0.0013280	P_RES
J60_41	326.577	0.0009271	P_RES
J60_42	330.759	0.0013332	P_RES
J60_43	337.068	0.0030161	P_IND
J60_44	344.182	0.0019531	P_COM
J60_45	349.661	0.0006587	P_RES
J60_46	355.453	0.0016461	P_RES
J60_47	361.748	0.0014188	P_RES
J60_48	366.761	0.0043697	P_COM
J60_49	372.017	0.0014728	P_COM
J60_50	377.158	0.0023975	P_COM
J60_51	382.630	0.0009763	P_RES
J60_52	389.518	0.0016496	P_RES
J60_53	394.080	0.0039758	P_IND
J60_54	400.927	0.0028164	P_IND
J60_55	406.923	0.0008191	P_RES
J60_56	411.825	0.0015642	P_RES
J60_57	417.933	0.0006966	P_RES
J60_58	424.123	0.0013709	P_RES
J60_59	428.712	0.0034544	P_IND
J60_60	436.166	0.0015152	P_RES
J60_61	440.191	0.0023682	P_IND
J60_62	446.499	0.0025995	P_RES
J60_63	453.079	0.0040625	P_RES
J60_64	458.995	0.0016406	P_RES
J60_65	463.603	0.0041877	P_IND
J60_66	470.310	0.0008517	P_RES
J61_1	81.181	0.0015751	P_COM
J61_2	88.293	0.0005610	P_RES
J61_3	94.150	0.0031512	P_IND
J61_4	99.632	0.0011922	P_RES
J61_5	105.909	0.0026042	P_RES
J61_6	113.515	0.0011311	P_COM
J61_7	118.986	0.0019433	P_RES
J61_8	125.707	0.0033895	P_IND
J61_9	131.260	0.0021365	P_RES
J61_10	136.870	0.0012854	P_RES
J61_11	143.013	0.0024337	P_RES
J61_12	148.236	0.0011363	P_RES
J61_13	155.918	0.0016201	P_RES
J61_14	161.222	0.0010078	P_RES
J61_15	168.815	0.0025443	P_COM
J61_16	174.973	0.0039701	P_RES
J61_17	179.667	0.0007479	P_RES
J61_18	185.457	0.0009094	P_RES
J61_19	192.187	0.0047929	P_IND
J61_20	198.622	0.0023329	P_IND
J61_21	203.113	0.0022702	P_COM
J61_22	210.173	0.0012823	P_RES
J61_23	216.816	0.0010351	P_RES
J61_24	222.214	0.0011149	P_COM
J61_25	227.359	0.0013008	P_RES
J61_26	235.067	0.0009635	P_RES
J61_27	239.803	0.0010850	P_RES
J61_28	246.132	0.0010672	P_RES
J61_29	252.684	0.0029515	P_IND
J61_30	258.690	0.0019716	P_RES
J61_31	264.133	0.0019937	P_RES
J61_32	270.761	0.0008515	P_RES
J61_33	275.805	0.0022209	P_RES
J61_34	283.547	0.0032771	P_COM
J61_35	289.539	0.0017040	P_COM
J61_36	294.859	0.0009886	P_RES
J61_37	300.948	0.0011944	P_IND
J61_38	306.798	0.0029528	P_COM
J61_39	311.373	0.0023133	P_RES
J61_40	317.863	0.0011084	P_RES
J61_41	324.544	0.0015468	P_RES
J61_42	330.286	0.0019820	P_RES
J61_43	334.444	0.0035720	P_COM
J61_44	340.684	0.0007753	P_RES
J61_45	347.621	0.0020059	P_IND
J61_46	353.671	0.0038351	P_COM
J61_47	359.258	0.0016093	P_COM
J61_48	364.214	0.0030863	P_RES
J61_49	370.512	0.0012018	P_RES
J61_50	375.836	0.0027382	P_COM
J61_51	382.945	0.0012272	P_RES
J61_52	388.225	0.0014732	P_RES
J61_53	392.785	0.0024622	P_COM
J61_54	398.153	0.0017540	P_COM
J61_55	405.036	0.0019031	P_RES
J61_56	410.849	0.0007437	P_RES
J61_57	417.339	0.0008382	P_RES
J61_58	421.912	0.0021959	P_RES
J61_59	428.353	0.0016341	P_RES
J61_60	433.874	0.0020380	P_RES
J61_61	439.359	0.0007561	P_RES
J61_62	444.767	0.0007567	P_RES
J61_63	450.593	0.0046151	P_COM
J61_64	457.187	0.0016429	P_RES
J61_65	461.747	0.0009138	P_RES
J61_66	467.508	0.0030260	P_IND
J62_1	81.005	0.0033723	P_COM
J62_2	87.016	0.0012486	P_RES
J62_3	93.364	0.0019341	P_IND
J62_4	98.106	0.0020269	P_COM
J62_5	105.895	0.0013791	P_RES
J62_6	110.213	0.0008439	P_RES
J62_7	116.117	0.0034998	P_IND
J62_8	122.413	0.0010208	P_RES
J62_9	129.997	0.0018668	P_RES
J62_10	135.139	0.0022829	P_RES
J62_11	141.334	0.0041059	P_IND
J62_12	148.292	0.0007067	P_RES
J62_13	154.071	0.0014680	P_IND
J62_14	160.459	0.0080106	P_IND
J62_15	166.968	0.0015177	P_RES
J62_16	173.401	0.0008043	P_RES
J62_17	177.929	0.0008456	P_RES
J62_18	185.127	0.0030202	P_COM
J62_19	191.038	0.0014774	P_RES
J62_20	196.438	0.0005625	P_RES
J62_21	202.363	0.0019132	P_RES
J62_22	209.784	0.0038608	P_RES
J62_23	214.033	0.0020804	P_RES
J62_24	220.118	0.0016595	P_RES
J62_25	227.478	0.0035435	P_COM
J62_26	232.767	0.0014322	P_RES
J62_27	239.210	0.0010026	P_RES
J62_28	245.051	0.0010920	P_RES
J62_29	250.429	0.0025005	P_RES
J62_30	256.829	0.0003996	P_RES
J62_31	263.332	0.0011651	P_RES
J62_32	269.985	0.0019935	P_RES
J62_33	273.933	0.0046775	P_COM
J62_34	281.998	0.0023448	P_RES
J62_35	287.909	0.0044919	P_IND
J62_36	292.121	0.0009810	P_RES
J62_37	299.380	0.0061418	P_IND
J62_38	304.275	0.0014540	P_RES
J62_39	309.565	0.0008461	P_RES
J62_40	316.372	0.0009785	P_RES
J62_41	322.471	0.0010362	P_RES
J62_42	327.791	0.0024838	P_COM
J62_43	334.809	0.0027403	P_COM
J62_44	339.286	0.0027036	P_IND
J62_45	346.224	0.0015958	P_RES
J62_46	350.976	0.0023353	P_RES
J62_47	357.048	0.0017348	P_RES
J62_48	363.985	0.0026058	P_COM
J62_49	369.367	0.0018070	P_COM
J62_50	375.667	0.0021134	P_RES
J62_51	380.021	0.0009186	P_RES
J62_52	386.162	0.0014713	P_RES
J62_53	391.828	0.0009040	P_RES
J62_54	398.436	0.0021474	P_RES
J62_55	403.193	0.0003653	P_RES
J62_56	408.068	0.0013444	P_COM
J62_57	414.403	0.0021480	P_IND
J62_58	420.907	0.0009228	P_RES
J62_59	425.870	0.0007906	P_RES
J62_60	431.179	0.0018982	P_RES
J62_61	438.697	0.0012311	P_COM
J62_62	443.139	0.0014763	P_RES
J62_63	450.071	0.0023692	P_RES
J62_64	453.421	0.0020158	P_RES
J62_65	459.810	0.0015882	P_COM
J62_66	464.732	0.0029293	P_RES
J63_1	79.040	0.0021462	P_RES
J63_2	85.037	0.0011411	P_RES
J63_3	91.061	0.0012587	P_RES
J63_4	96.576	0.0008961	P_RES
J63_5	103.743	0.0009614	P_RES
J63_6	108.159	0.0011142	P_RES
J63_7	115.599	0.0017266	P_RES
J63_8	122.711	0.0022944	P_RES
J63_9	127.566	0.0016630	P_RES
J63_10	134.992	0.0033756	P_IND
J63_11	140.062	0.0014641	P_RES
J63_12	145.204	0.0029504	P_IND
J63_13	152.436	0.0008924	P_RES
J63_14	158.586	0.0018274	P_RES
J63_15	164.623	0.0028932	P_COM
J63_16	170.057	0.0022224	P_COM
J63_17	176.773	0.0022298	P_COM
J63_18	183.063	0.0012980	P_RES
J63_19	190.040	0.0011027	P_RES
J63_20	195.770	0.0013446	P_RES
J63_21	200.367	0.0023303	P_COM
J63_22	207.518	0.0017179	P_COM
J63_23	213.007	0.0013498	P_RES
J63_24	219.114	0.0007629	P_RES
J63_25	225.197	0.0018742	P_RES
J63_26	230.750	0.0011876	P_RES
J63_27	236.647	0.0016046	P_RES
J63_28	243.666	0.0019065	P_COM
J63_29	248.404	0.0009345	P_RES
J63_30	256.050	0.0020159	P_RES
J63_31	262.031	0.0018627	P_RES
J63_32	267.157	0.0015473	P_RES
J63_33	272.554	0.0005501	P_RES
J63_34	280.255	0.0013679	P_RES
J63_35	285.064	0.0012271	P_RES
J63_36	290.671	0.0040744	P_COM
J63_37	298.021	0.0026305	P_IND
J63_38	302.822	0.0016854	P_COM
J63_39	308.384	0.0008412	P_RES
J63_40	314.476	0.0035723	P_COM
J63_41	319.922	0.0010077	P_RES
J63_42	325.747	0.0013983	P_COM
J63_43	331.917	0.0008609	P_RES
J63_44	337.828	0.0020162	P_RES
J63_45	343.808	0.0008449	P_RES
J63_46	349.432	0.0025717	P_COM
J63_47	356.080	0.0010092	P_RES
J63_48	362.281	0.0015744	P_RES
J63_49	367.683	0.0017219	P_RES
J63_50	372.400	0.0010360	P_RES
J63_51	378.701	0.0017075	P_RES
J63_52	383.501	0.0005554	P_RES
J63_53	390.541	0.0016577	P_COM
J63_54	395.018	0.0015762	P_COM
J63_55	402.665	0.0022053	P_COM
J63_56	408.484	0.0009082	P_RES
J63_57	413.230	0.0009312	P_RES
J63_58	418.011	0.0034435	P_IND
J63_59	424.348	0.0020430	P_COM
J63_60	429.736	0.0038375	P_COM
J63_61	436.622	0.0013572	P_RES
J63_62	441.395	0.0028266	P_COM
J63_63	446.514	0.0018396	P_RES
J63_64	452.415	0.0029585	P_COM
J63_65	459.303	0.0026775	P_RES
J63_66	463.664	0.0014043	P_RES
J64_1	77.521	0.0056960	P_IND
J64_2	84.070	0.0015563	P_RES
J64_3	88.452	0.0022319	P_RES
J64_4	94.791	0.0022097	P_COM
J64_5	102.674	0.0020093	P_COM
J64_6	107.374	0.0021663	P_IND
J64_7	113.594	0.0023922	P_COM
J64_8	118.961	0.0021637	P_COM
J64_9	126.761	0.0020167	P_RES
J64_10	131.911	0.0023596	P_COM
J64_11	137.784	0.0038438	P_IND
J64_12	145.237	0.0019018	P_IND
J64_13	151.621	0.0014831	P_COM
J64_14	155.892	0.0012849	P_RES
J64_15	163.940	0.0012176	P_RES
J64_16	168.212	0.0011147	P_RES
J64_17	175.078	0.0010320	P_RES
J64_18	182.030	0.0021263	P_COM
J64_19	187.477	0.0010922	P_RES
J64_20	194.181	0.0022448	P_IND
J64_21	200.458	0.0015277	P_RES
J64_22	206.009	0.0014230	P_RES
J64_23	211.419	0.0012671	P_COM
J64_24	217.141	0.0007210	P_RES
J64_25	223.278	0.0025988	P_IND
J64_26	229.165	0.0014353	P_RES
J64_27	235.767	0.0009566	P_RES
J64_28	241.245	0.0019763	P_RES
J64_29	247.259	0.0010333	P_RES
J64_30	253.166	0.0009491	P_RES
J64_31	260.655	0.0020457	P_RES
J64_32	264.742	0.0024172	P_RES
J64_33	271.867	0.0023764	P_IND
J64_34	277.333	0.0044224	P_RES
J64_35	283.529	0.0022092	P_RES
J64_36	288.811	0.0019139	P_RES
J64_37	296.031	0.0008566	P_RES
J64_38	301.215	0.0016570	P_RES
J64_39	306.348	0.0027089	P_IND
J64_40	313.963	0.0015267	P_RES
J64_41	318.436	0.0013591	P_RES
J64_42	323.772	0.0026328	P_COM
J64_43	330.970	0.0012484	P_RES
J64_44	337.605	0.0016445	P_RES
J64_45	341.869	0.0030275	P_IND
J64_46	347.259	0.0011334	P_COM
J64_47	355.174	0.0041154	P_IND
J64_48	360.568	0.0049393	P_IND
J64_49	366.339	0.0008916	P_RES
J64_50	370.708	0.0022219	P_RES
J64_51	377.468	0.0023074	P_RES
J64_52	382.644	0.0032033	P_IND
J64_53	389.574	0.0021048	P_IND
J64_54	393.351	0.0005926	P_RES
J64_55	400.343	0.0042527	P_IND
J64_56	404.684	0.0047034	P_COM
J64_57	412.483	0.0021463	P_RES
J64_58	417.144	0.0009519	P_COM
J64_59	422.823	0.0025485	P_RES
J64_60	428.761	0.0023433	P_RES
J64_61	433.913	0.0008188	P_RES
J64_62	440.973	0.0021712	P_COM
J64_63	444.560	0.0011319	P_RES
J64_64	450.371	0.0015717	P_COM
J64_65	457.771	0.0009954	P_RES
J64_66	463.004	0.0025504	P_COM
J65_1	74.188	0.0026028	P_RES
J65_2	82.242	0.0005642	P_RES
J65_3	87.670	0.0016647	P_COM
J65_4	94.691	0.0010639	P_RES
J65_5	99.385	0.0028354	P_IND
J65_6	106.333	0.0019816	P_RES
J65_7	111.095	0.0023701	P_COM
J65_8	119.221	0.0014705	P_RES
J65_9	124.571	0.0012792	P_RES
J65_10	129.761	0.0043599	P_COM
J65_11	136.274	0.0002060	P_RES
J65_12	143.541	0.0016128	P_RES
J65_13	149.732	0.0006906	P_RES
J65_14	156.098	0.0019753	P_RES
J65_15	160.090	0.0020539	P_RES
J65_16	166.139	0.0032761	P_IND
J65_17	174.512	0.0019259	P_COM
J65_18	179.524	0.0011264	P_RES
J65_19	186.802	0.0010023	P_RES
J65_20	190.876	0.0014494	P_RES
J65_21	198.345	0.0010896	P_RES
J65_22	203.238	0.0014098	P_RES
J65_23	210.340	0.0015664	P_RES
J65_24	215.801	0.0029294	P_COM
J65_25	222.395	0.0009357	P_RES
J65_26	228.207	0.0022697	P_RES
J65_27	232.945	0.0010323	P_RES
J65_28	240.077	0.0014537	P_RES
J65_29	246.718	0.0016615	P_IND
J65_30	252.084	0.0016933	P_RES
J65_31	257.980	0.0022957	P_RES
J65_32	262.958	0.0009924	P_RES
J65_33	270.011	0.0009885	P_RES
J65_34	276.687	0.0053209	P_IND
J65_35	281.261	0.0011527	P_RES
J65_36	286.869	0.0020138	P_RES
J65_37	293.265	0.0037630	P_COM
J65_38	299.240	0.0020508	P_COM
J65_39	305.489	0.0013097	P_RES
J65_40	311.079	0.0004469	P_RES
J65_41	317.972	0.0027436	P_RES
J65_42	322.560	0.0007569	P_RES
J65_43	330.095	0.0025298	P_COM
J65_44	334.725	0.0018598	P_RES
J65_45	340.237	0.0031096	P_COM
J65_46	345.977	0.0016682	P_RES
J65_47	351.530	0.0018033	P_RES
J65_48	357.531	0.0011411	P_RES
J65_49	364.551	0.0008436	P_RES
J65_50	370.057	0.0013847	P_RES
J65_51	374.719	0.0014078	P_RES
J65_52	381.801	0.0015806	P_RES
J65_53	387.943	0.0022277	P_RES
J65_54	392.273	0.0041594	P_IND
J65_55	397.591	0.0018807	P_RES
J65_56	404.140	0.0027129	P_IND
J65_57	410.828	0.0018214	P_RES
J65_58	416.560	0.0008417	P_RES
J65_59	422.212	0.0010455	P_RES
J65_60	426.260	0.0012008	P_RES
J65_61	431.749	0.0027459	P_COM
J65_62	439.370	0.0020390	P_RES
J65_63	443.590	0.0010835	P_RES
J65_64	449.191	0.0034349	P_COM
J65_65	454.441	0.0023426	P_COM
J65_66	461.510	0.0013765	P_RES
J66_1	73.463	0.0015593	P_COM
J66_2	80.696	0.0027680	P_COM
J66_3	87.070	0.0014648	P_COM
J66_4	91.606	0.0025262	P_COM
J66_5	98.952	0.0027468	P_COM
J66_6	103.854	0.0025667	P_RES
J66_7	111.764	0.0020800	P_RES
J66_8	116.364	0.0011857	P_RES
J66_9	122.384	0.0039552	P_IND
J66_10	129.243	0.0018800	P_COM
J66_11	136.027	0.0012764	P_RES
J66_12	141.073	0.0014232	P_RES
J66_13	146.438	0.0022331	P_COM
J66_14	153.210	0.0017229	P_COM
J66_15	160.645	0.0023989	P_RES
J66_16	166.399	0.0025495	P_IND
J66_17	171.587	0.0017757	P_RES
J66_18	178.901	0.0026336	P_COM
J66_19	184.495	0.0016996	P_RES
J66_20	189.896	0.0031321	P_IND
J66_21	196.939	0.0014310	P_RES
J66_22	201.455	0.0015410	P_RES
J66_23	207.874	0.0014380	P_RES
J66_24	213.421	0.0020518	P_RES
J66_25	221.133	0.0009143	P_RES
J66_26	225.715	0.0018146	P_RES
J66_27	231.915	0.0014922	P_COM
J66_28	238.761	0.0012389	P_RES
J66_29	244.309	0.0046472	P_COM
J66_30	249.867	0.0025822	P_IND
J66_31	257.252	0.0017777	P_RES
J66_32	263.153	0.0010150	P_RES
J66_33	269.224	0.0015072	P_RES
J66_34	273.539	0.0010214	P_COM
J66_35	279.463	0.0008123	P_RES
J66_36	286.204	0.0012453	P_COM
J66_37	291.481	0.0010593	P_RES
J66_38	297.803	0.0015062	P_RES
J66_39	303.792	0.0030161	P_RES
J66_40	309.802	0.0015774	P_RES
J66_41	314.532	0.0012048	P_RES
J66_42	321.452	0.0011609	P_RES
J66_43	327.813	0.0011845	P_RES
J66_44	333.862	0.0013570	P_RES
J66_45	338.074	0.0024716	P_RES
J66_46	345.864	0.0009152	P_RES
J66_47	351.265	0.0038777	P_COM
J66_48	356.418	0.0010989	P_RES
J66_49	361.878	0.0021283	P_RES
J66_50	368.965	0.0020283	P_RES
J66_51	374.003	0.0022318	P_RES
J66_52	378.788	0.0010998	P_RES
J66_53	386.408	0.0014784	P_RES
J66_54	391.129	0.0013820	P_RES
J66_55	397.636	0.0008044	P_RES
J66_56	402.789	0.0012403	P_RES
J66_57	407.996	0.0019973	P_COM
J66_58	413.041	0.0046549	P_COM
J66_59	420.101	0.0028041	P_RES
J66_60	425.192	0.0013908	P_RES
J66_61	431.644	0.0026731	P_RES
J66_62	435.810	0.0010317	P_RES
J66_63	442.062	0.0035905	P_IND
J66_64	448.974	0.0022216	P_COM
J66_65	454.215	0.0022200	P_IND
J66_66	458.875	0.0006409	P_RES


[RESERVOIRS]
;ID	Head	Pattern
R1	240.000


[TANKS]
;ID	Elev	InitLevel	MinLevel	MaxLevel	Diameter	MinVol	VolCurve
T1	189.896	10.000	4.000	16.000	61.000	0.000
T2	295.635	10.000	4.000	16.000	67.000	0.000
T3	393.747	10.000	4.000	16.000	73.000	0.000
T4	495.032	10.000	4.000	16.000	79.000	0.000


[PIPES]
;ID	Node1	Node2	Length	Diameter	Roughness	MinorLoss	Status
P1	J1_1	J1_2	130.00	400.0	125.0	0.0351	Open
P2	J1_1	J2_1	130.00	450.0	120.0	0.0212	Open
P3	J1_2	J1_3	130.00	500.0	120.0	0.0472	Open
P4	J1_2	J2_2	130.00	500.0	125.0	0.0123	Open
P5	J1_3	J1_4	130.00	500.0	130.0	0.0191	Open
P6	J1_3	J2_3	130.00	300.0	125.0	0.0188	Open
P7	J1_4	J1_5	130.00	450.0	120.0	0.0105	Open
P8	J1_4	J2_4	130.00	450.0	120.0	0.0269	Open
P9	J1_5	J1_6	130.00	300.0	130.0	0.0046	Open
P10	J1_5	J2_5	130.00	600.0	125.0	0.0214	Open
P11	J1_6	J1_7	130.00	450.0	130.0	0.0040	Open
P12	J1_6	J2_6	130.00	450.0	120.0	0.0372	Open
P13	J1_7	J1_8	130.00	500.0	120.0	0.0372	Open
P14	J1_7	J2_7	130.00	400.0	120.0	0.0431	Open
P15	J1_8	J1_9	130.00	450.0	125.0	0.0139	Open
P16	J1_8	J2_8	130.00	300.0	120.0	0.0076	Open
P17	J1_9	J1_10	130.00	300.0	125.0	0.0366	Open
P18	J1_9	J2_9	130.00	450.0	120.0	0.0126	Open
P19	J1_10	J1_11	130.00	500.0	125.0	0.0252	Open
P20	J1_10	J2_10	130.00	450.0	125.0	0.0381	Open
P21	J1_11	J1_12	130.00	450.0	125.0	0.0383	Open
P22	J1_11	J2_11	130.00	450.0	125.0	0.0094	Open
P23	J1_12	J1_13	130.00	500.0	120.0	0.0459	Open
P24	J1_12	J2_12	130.00	450.0	125.0	0.0089	Open
P25	J1_13	J1_14	130.00	500.0	130.0	0.0226	Open
P26	J1_13	J2_13	130.00	350.0	130.0	0.0185	Open
P27	J1_14	J1_15	130.00	300.0	125.0	0.0027	Open
P28	J1_14	J2_14	130.00	400.0	130.0	0.0063	Open
P29	J1_15	J1_16	130.00	500.0	125.0	0.0498	Open
P30	J1_15	J2_15	130.00	350.0	120.0	0.0393	Open
P31	J1_16	J1_17	130.00	450.0	125.0	0.0309	Open
P32	J1_16	J2_16	130.00	500.0	125.0	0.0244	Open
P33	J1_17	J1_18	130.00	450.0	130.0	0.0263	Open
P34	J1_17	J2_17	130.00	500.0	120.0	0.0260	Open
P35	J1_18	J1_19	130.00	400.0	120.0	0.0433	Open
P36	J1_18	J2_18	130.00	350.0	125.0	0.0420	Open
P37	J1_19	J1_20	130.00	600.0	125.0	0.0431	Open
P38	J1_19	J2_19	130.00	450.0	130.0	0.0123	Open
P39	J1_20	J1_21	130.00	400.0	130.0	0.0024	Open
P40	J1_20	J2_20	130.00	500.0	125.0	0.0478	Open
P41	J1_21	J1_22	130.00	400.0	120.0	0.0233	Open
P42	J1_21	J2_21	130.00	600.0	125.0	0.0466	Open
P43	J1_22	J1_23	130.00	300.0	125.0	0.0174	Open
P44	J1_22	J2_22	130.00	350.0	120.0	0.0191	Open
P45	J1_23	J1_24	130.00	300.0	130.0	0.0231	Open
P46	J1_23	J2_23	130.00	600.0	130.0	0.0073	Open
P47	J1_24	J1_25	130.00	500.0	130.0	0.0009	Open
P48	J1_24	J2_24	130.00	300.0	120.0	0.0007	Open
P49	J1_25	J1_26	130.00	350.0	125.0	0.0046	Open
P50	J1_25	J2_25	130.00	450.0	125.0	0.0254	Open
P51	J1_26	J1_27	130.00	600.0	125.0	0.0456	Open
P52	J1_26	J2_26	130.00	350.0	125.0	0.0318	Open
P53	J1_27	J1_28	130.00	600.0	120.0	0.0368	Open
P54	J1_27	J2_27	130.00	400.0	120.0	0.0411	Open
P55	J1_28	J1_29	130.00	600.0	125.0	0.0020	Open
P56	J1_28	J2_28	130.00	500.0	125.0	0.0321	Open
P57	J1_29	J1_30	130.00	500.0	120.0	0.0397	Open
P58	J1_29	J2_29	130.00	300.0	120.0	0.0435	Open
P59	J1_30	J1_31	130.00	450.0	125.0	0.0143	Open
P60	J1_30	J2_30	130.00	300.0	120.0	0.0233	Open
P61	J1_31	J1_32	130.00	500.0	125.0	0.0112	Open
P62	J1_31	J2_31	130.00	600.0	130.0	0.0038	Open
P63	J1_32	J1_33	130.00	400.0	125.0	0.0006	Open
P64	J1_32	J2_32	130.00	600.0	120.0	0.0298	Open
P65	J1_33	J1_34	130.00	500.0	120.0	0.0216	Open
P66	J1_33	J2_33	130.00	400.0	130.0	0.0420	Open
P67	J1_34	J1_35	130.00	450.0	120.0	0.0327	Open
P68	J1_34	J2_34	130.00	300.0	125.0	0.0396	Open
P69	J1_35	J1_36	130.00	500.0	120.0	0.0188	Open
P70	J1_35	J2_35	130.00	350.0	130.0	0.0094	Open
P71	J1_36	J1_37	130.00	500.0	125.0	0.0239	Open
P72	J1_36	J2_36	130.00	600.0	130.0	0.0217	Open
P73	J1_37	J1_38	130.00	350.0	130.0	0.0213	Open
P74	J1_37	J2_37	130.00	450.0	120.0	0.0425	Open
P75	J1_38	J1_39	130.00	350.0	130.0	0.0054	Open
P76	J1_38	J2_38	130.00	600.0	120.0	0.0115	Open
P77	J1_39	J1_40	130.00	400.0	130.0	0.0169	Open
P78	J1_39	J2_39	130.00	350.0	125.0	0.0271	Open
P79	J1_40	J1_41	130.00	600.0	130.0	0.0409	Open
P80	J1_40	J2_40	130.00	450.0	120.0	0.0022	Open
P81	J1_41	J1_42	130.00	350.0	125.0	0.0155	Open
P82	J1_41	J2_41	130.00	300.0	125.0	0.0488	Open
P83	J1_42	J1_43	130.00	450.0	125.0	0.0417	Open
P84	J1_42	J2_42	130.00	400.0	120.0	0.0206	Open
P85	J1_43	J1_44	130.00	400.0	120.0	0.0184	Open
P86	J1_43	J2_43	130.00	500.0	120.0	0.0222	Open
P87	J1_44	J1_45	130.00	500.0	125.0	0.0113	Open
P88	J1_44	J2_44	130.00	350.0	130.0	0.0435	Open
P89	J1_45	J1_46	130.00	600.0	125.0	0.0115	Open
P90	J1_45	J2_45	130.00	600.0	120.0	0.0252	Open
P91	J1_46	J1_47	130.00	600.0	130.0	0.0077	Open
P92	J1_46	J2_46	130.00	500.0	125.0	0.0158	Open
P93	J1_47	J1_48	130.00	300.0	125.0	0.0385	Open
P94	J1_47	J2_47	130.00	350.0	125.0	0.0402	Open
P95	J1_48	J1_49	130.00	350.0	130.0	0.0096	Open
P96	J1_48	J2_48	130.00	600.0	130.0	0.0195	Open
P97	J1_49	J1_50	130.00	450.0	125.0	0.0080	Open
P98	J1_49	J2_49	130.00	600.0	120.0	0.0459	Open
P99	J1_50	J1_51	130.00	450.0	130.0	0.0228	Open
P100	J1_50	J2_50	130.00	600.0	125.0	0.0316	Open
P101	J1_51	J1_52	130.00	300.0	120.0	0.0293	Open
P102	J1_51	J2_51	130.00	300.0	120.0	0.0302	Open
P103	J1_52	J1_53	130.00	450.0	130.0	0.0221	Open
P104	J1_52	J2_52	130.00	500.0	125.0	0.0104	Open
P105	J1_53	J1_54	130.00	350.0	130.0	0.0057	Open
P106	J1_53	J2_53	130.00	400.0	125.0	0.0368	Open
P107	J1_54	J1_55	130.00	300.0	125.0	0.0207	Open
P108	J1_54	J2_54	130.00	350.0	120.0	0.0099	Open
P109	J1_55	J1_56	130.00	500.0	130.0	0.0398	Open
P110	J1_55	J2_55	130.00	300.0	125.0	0.0192	Open
P111	J1_56	J1_57	130.00	450.0	120.0	0.0122	Open
P112	J1_56	J2_56	130.00	600.0	125.0	0.0322	Open
P113	J1_57	J1_58	130.00	300.0	130.0	0.0370	Open
P114	J1_57	J2_57	130.00	400.0	130.0	0.0277	Open
P115	J1_58	J1_59	130.00	600.0	125.0	0.0209	Open
P116	J1_58	J2_58	130.00	400.0	120.0	0.0403	Open
P117	J1_59	J1_60	130.00	600.0	120.0	0.0256	Open
P118	J1_59	J2_59	130.00	450.0	130.0	0.0231	Open
P119	J1_60	J1_61	130.00	600.0	125.0	0.0086	Open
P120	J1_60	J2_60	130.00	400.0	130.0	0.0351	Open
P121	J1_61	J1_62	130.00	400.0	125.0	0.0314	Open
P122	J1_61	J2_61	130.00	400.0	125.0	0.0298	Open
P123	J1_62	J1_63	130.00	500.0	125.0	0.0203	Open
P124	J1_62	J2_62	130.00	600.0	130.0	0.0250	Open
P125	J1_63	J1_64	130.00	500.0	130.0	0.0333	Open
P126	J1_63	J2_63	130.00	450.0	125.0	0.0319	Open
P127	J1_64	J1_65	130.00	600.0	120.0	0.0469	Open
P128	J1_64	J2_64	130.00	600.0	120.0	0.0181	Open
P129	J1_65	J1_66	130.00	450.0	120.0	0.0349	Open
P130	J1_65	J2_65	130.00	600.0	120.0	0.0104	Open
P131	J1_66	J2_66	130.00	300.0	125.0	0.0087	Open
P132	J2_1	J2_2	130.00	400.0	130.0	0.0071	Open
P133	J2_1	J3_1	130.00	450.0	130.0	0.0262	Open
P134	J2_2	J2_3	130.00	250.0	140.0	0.0735	Open
P135	J2_2	J3_2	130.00	100.0	125.0	0.0278	Open
P136	J2_3	J2_4	130.00	100.0	135.0	0.1134	Open
P137	J2_3	J3_3	130.00	150.0	135.0	0.0131	Open
P138	J2_4	J2_5	130.00	200.0	130.0	0.0200	Open
P139	J2_4	J3_4	130.00	100.0	130.0	0.0744	Open
P140	J2_5	J2_6	130.00	100.0	125.0	0.0935	Open
P141	J2_5	J3_5	130.00	200.0	140.0	0.1045	Open
P142	J2_6	J2_7	130.00	100.0	130.0	0.1499	Open
P143	J2_6	J3_6	130.00	200.0	125.0	0.0723	Open
P144	J2_7	J2_8	130.00	150.0	125.0	0.0456	Open
P145	J2_7	J3_7	130.00	300.0	140.0	0.1214	Open
P146	J2_8	J2_9	130.00	250.0	135.0	0.1418	Open
P147	J2_8	J3_8	130.00	200.0	125.0	0.1049	Open
P148	J2_9	J2_10	130.00	600.0	120.0	0.0183	Open
P149	J2_9	J3_9	130.00	450.0	125.0	0.0074	Open
P150	J2_10	J2_11	130.00	250.0	140.0	0.0802	Open
P151	J2_10	J3_10	130.00	200.0	140.0	0.0258	Open
P152	J2_11	J2_12	130.00	300.0	140.0	0.0034	Open
P153	J2_11	J3_11	130.00	250.0	140.0	0.0915	Open
P154	J2_12	J2_13	130.00	300.0	135.0	0.0491	Open
P155	J2_12	J3_12	130.00	300.0	125.0	0.0857	Open
P156	J2_13	J2_14	130.00	300.0	140.0	0.1425	Open
P157	J2_13	J3_13	130.00	300.0	125.0	0.0931	Open
P158	J2_14	J2_15	130.00	200.0	130.0	0.0744	Open
P159	J2_14	J3_14	130.00	150.0	135.0	0.0432	Open
P160	J2_15	J2_16	130.00	250.0	135.0	0.0459	Open
P161	J2_15	J3_15	130.00	300.0	135.0	0.1440	Open
P162	J2_16	J2_17	130.00	250.0	140.0	0.0875	Open
P163	J2_16	J3_16	130.00	200.0	130.0	0.0873	Open
P164	J2_17	J2_18	130.00	400.0	120.0	0.0444	Open
P165	J2_17	J3_17	130.00	300.0	120.0	0.0149	Open
P166	J2_18	J2_19	130.00	200.0	125.0	0.0252	Open
P167	J2_18	J3_18	130.00	250.0	140.0	0.1088	Open
P168	J2_19	J2_20	130.00	200.0	125.0	0.0665	Open
P169	J2_19	J3_19	130.00	150.0	135.0	0.0193	Open
P170	J2_20	J2_21	130.00	100.0	140.0	0.0201	Open
P171	J2_20	J3_20	130.00	250.0	125.0	0.0989	Open
P172	J2_21	J2_22	130.00	250.0	130.0	0.0307	Open
P173	J2_21	J3_21	130.00	200.0	125.0	0.0747	Open
P174	J2_22	J2_23	130.00	150.0	140.0	0.0380	Open
P175	J2_22	J3_22	130.00	300.0	140.0	0.1231	Open
P176	J2_23	J2_24	130.00	250.0	125.0	0.1317	Open
P177	J2_23	J3_23	130.00	100.0	125.0	0.1418	Open
P178	J2_24	J2_25	130.00	100.0	130.0	0.0598	Open
P179	J2_24	J3_24	130.00	100.0	140.0	0.1176	Open
P180	J2_25	J2_26	130.00	500.0	130.0	0.0010	Open
P181	J2_25	J3_25	130.00	400.0	125.0	0.0469	Open
P182	J2_26	J2_27	130.00	200.0	135.0	0.0080	Open
P183	J2_26	J3_26	130.00	150.0	135.0	0.0020	Open
P184	J2_27	J2_28	130.00	300.0	140.0	0.0243	Open
P185	J2_27	J3_27	130.00	150.0	135.0	0.1002	Open
P186	J2_28	J2_29	130.00	150.0	140.0	0.0239	Open
P187	J2_28	J3_28	130.00	150.0	125.0	0.1160	Open
P188	J2_29	J2_30	130.00	250.0	125.0	0.0741	Open
P189	J2_29	J3_29	130.00	100.0	135.0	0.1321	Open
P190	J2_30	J2_31	130.00	150.0	130.0	0.0856	Open
P191	J2_30	J3_30	130.00	300.0	125.0	0.1090	Open
P192	J2_31	J2_32	130.00	150.0	130.0	0.1481	Open
P193	J2_31	J3_31	130.00	250.0	140.0	0.1285	Open
P194	J2_32	J2_33	130.00	150.0	140.0	0.0687	Open
P195	J2_32	J3_32	130.00	300.0	135.0	0.1247	Open
P196	J2_33	J2_34	130.00	350.0	130.0	0.0200	Open
P197	J2_33	J3_33	130.00	500.0	125.0	0.0435	Open
P198	J2_34	J2_35	130.00	100.0	130.0	0.0392	Open
P199	J2_34	J3_34	130.00	150.0	125.0	0.0559	Open
P200	J2_35	J2_36	130.00	200.0	140.0	0.0965	Open
P201	J2_35	J3_35	130.00	250.0	125.0	0.0090	Open
P202	J2_36	J2_37	130.00	200.0	130.0	0.0084	Open
P203	J2_36	J3_36	130.00	250.0	140.0	0.0205	Open
P204	J2_37	J2_38	130.00	100.0	130.0	0.0543	Open
P205	J2_37	J3_37	130.00	300.0	125.0	0.0310	Open
P206	J2_38	J2_39	130.00	200.0	125.0	0.0998	Open
P207	J2_38	J3_38	130.00	100.0	130.0	0.0710	Open
P208	J2_39	J2_40	130.00	250.0	140.0	0.0038	Open
P209	J2_39	J3_39	130.00	300.0	130.0	0.0916	Open
P210	J2_40	J2_41	130.00	250.0	125.0	0.0237	Open
P211	J2_40	J3_40	130.00	150.0	140.0	0.0059	Open
P212	J2_41	J2_42	130.00	500.0	125.0	0.0199	Open
P213	J2_41	J3_41	130.00	600.0	125.0	0.0337	Open
P214	J2_42	J2_43	130.00	250.0	135.0	0.0889	Open
P215	J2_42	J3_42	130.00	300.0	140.0	0.0142	Open
P216	J2_43	J2_44	130.00	150.0	130.0	0.1025	Open
P217	J2_43	J3_43	130.00	250.0	125.0	0.0004	Open
P218	J2_44	J2_45	130.00	100.0	130.0	0.0615	Open
P219	J2_44	J3_44	130.00	250.0	125.0	0.0583	Open
P220	J2_45	J2_46	130.00	100.0	130.0	0.1368	Open
P221	J2_45	J3_45	130.00	100.0	135.0	0.0988	Open
P222	J2_46	J2_47	130.00	150.0	130.0	0.0271	Open
P223	J2_46	J3_46	130.00	150.0	135.0	0.1232	Open
P224	J2_47	J2_48	130.00	300.0	130.0	0.0500	Open
P225	J2_47	J3_47	130.00	300.0	135.0	0.1032	Open
P226	J2_48	J2_49	130.00	100.0	130.0	0.0808	Open
P227	J2_48	J3_48	130.00	250.0	135.0	0.1316	Open
P228	J2_49	J2_50	130.00	400.0	120.0	0.0063	Open
P229	J2_49	J3_49	130.00	350.0	125.0	0.0395	Open
P230	J2_50	J2_51	130.00	200.0	130.0	0.0080	Open
P231	J2_50	J3_50	130.00	150.0	130.0	0.1409	Open
P232	J2_51	J2_52	130.00	300.0	125.0	0.0298	Open
P233	J2_51	J3_51	130.00	100.0	135.0	0.0682	Open
P234	J2_52	J2_53	130.00	250.0	130.0	0.0018	Open
P235	J2_52	J3_52	130.00	150.0	135.0	0.0036	Open
P236	J2_53	J2_54	130.00	200.0	125.0	0.1172	Open
P237	J2_53	J3_53	130.00	300.0	140.0	0.1006	Open
P238	J2_54	J2_55	130.00	250.0	135.0	0.0410	Open
P239	J2_54	J3_54	130.00	100.0	130.0	0.0843	Open
P240	J2_55	J2_56	130.00	300.0	125.0	0.1299	Open
P241	J2_55	J3_55	130.00	150.0	130.0	0.0313	Open
P242	J2_56	J2_57	130.00	100.0	125.0	0.0785	Open
P243	J2_56	J3_56	130.00	100.0	135.0	0.1158	Open
P244	J2_57	J2_58	130.00	350.0	120.0	0.0279	Open
P245	J2_57	J3_57	130.00	350.0	120.0	0.0091	Open
P246	J2_58	J2_59	130.00	250.0	135.0	0.0609	Open
P247	J2_58	J3_58	130.00	250.0	140.0	0.1098	Open
P248	J2_59	J2_60	130.00	100.0	135.0	0.1255	Open
P249	J2_59	J3_59	130.00	250.0	135.0	0.1230	Open
P250	J2_60	J2_61	130.00	250.0	125.0	0.0370	Open
P251	J2_60	J3_60	130.00	100.0	125.0	0.0975	Open
P252	J2_61	J2_62	130.00	300.0	135.0	0.1292	Open
P253	J2_61	J3_61	130.00	200.0	140.0	0.0948	Open
P254	J2_62	J2_63	130.00	300.0	140.0	0.1435	Open
P255	J2_62	J3_62	130.00	250.0	135.0	0.0583	Open
P256	J2_63	J2_64	130.00	100.0	140.0	0.0517	Open
P257	J2_63	J3_63	130.00	250.0	130.0	0.0473	Open
P258	J2_64	J2_65	130.00	200.0	130.0	0.1369	Open
P259	J2_64	J3_64	130.00	250.0	140.0	0.1413	Open
P260	J2_65	J2_66	130.00	600.0	125.0	0.0226	Open
P261	J2_65	J3_65	130.00	500.0	130.0	0.0382	Open
P262	J2_66	J3_66	130.00	100.0	130.0	0.1004	Open
P263	J3_1	J3_2	130.00	500.0	125.0	0.0205	Open
P264	J3_1	J4_1	130.00	300.0	120.0	0.0469	Open
P265	J3_2	J3_3	130.00	200.0	135.0	0.1381	Open
P266	J3_2	J4_2	130.00	300.0	140.0	0.0661	Open
P267	J3_3	J3_4	130.00	200.0	130.0	0.0054	Open
P268	J3_3	J4_3	130.00	100.0	135.0	0.1196	Open
P269	J3_4	J3_5	130.00	200.0	130.0	0.0494	Open
P270	J3_4	J4_4	130.00	250.0	140.0	0.1234	Open
P271	J3_5	J3_6	130.00	300.0	135.0	0.0176	Open
P272	J3_5	J4_5	130.00	250.0	140.0	0.1213	Open
P273	J3_6	J3_7	130.00	150.0	135.0	0.0126	Open
P274	J3_6	J4_6	130.00	200.0	135.0	0.0265	Open
P275	J3_7	J3_8	130.00	300.0	135.0	0.1496	Open
P276	J3_7	J4_7	130.00	300.0	125.0	0.1431	Open
P277	J3_8	J3_9	130.00	300.0	135.0	0.0440	Open
P278	J3_8	J4_8	130.00	250.0	135.0	0.0475	Open
P279	J3_9	J3_10	130.00	400.0	125.0	0.0347	Open
P280	J3_9	J4_9	130.00	300.0	120.0	0.0445	Open
P281	J3_10	J3_11	130.00	200.0	140.0	0.0936	Open
P282	J3_10	J4_10	130.00	200.0	125.0	0.0351	Open
P283	J3_11	J3_12	130.00	250.0	135.0	0.1072	Open
P284	J3_11	J4_11	130.00	150.0	125.0	0.0976	Open
P285	J3_12	J3_13	130.00	200.0	130.0	0.0549	Open
P286	J3_12	J4_12	130.00	300.0	125.0	0.0765	Open
P287	J3_13	J3_14	130.00	200.0	130.0	0.0755	Open
P288	J3_13	J4_13	130.00	300.0	130.0	0.0587	Open
P289	J3_14	J3_15	130.00	250.0	140.0	0.0012	Open
P290	J3_14	J4_14	130.00	150.0	140.0	0.0432	Open
P291	J3_15	J3_16	130.00	150.0	125.0	0.1360	Open
P292	J3_15	J4_15	130.00	300.0	140.0	0.0863	Open
P293	J3_16	J3_17	130.00	250.0	140.0	0.1076	Open
P294	J3_16	J4_16	130.00	300.0	130.0	0.0292	Open
P295	J3_17	J3_18	130.00	300.0	130.0	0.0007	Open
P296	J3_17	J4_17	130.00	400.0	130.0	0.0350	Open
P297	J3_18	J3_19	130.00	250.0	140.0	0.1222	Open
P298	J3_18	J4_18	130.00	200.0	135.0	0.1241	Open
P299	J3_19	J3_20	130.00	300.0	135.0	0.0595	Open
P300	J3_19	J4_19	130.00	150.0	135.0	0.0413	Open
P301	J3_20	J3_21	130.00	300.0	130.0	0.0593	Open
P302	J3_20	J4_20	130.00	300.0	125.0	0.0863	Open
P303	J3_21	J3_22	130.00	150.0	130.0	0.0729	Open
P304	J3_21	J4_21	130.00	150.0	130.0	0.0590	Open
P305	J3_22	J3_23	130.00	250.0	140.0	0.1045	Open
P306	J3_22	J4_22	130.00	250.0	140.0	0.0770	Open
P307	J3_23	J3_24	130.00	250.0	130.0	0.1379	Open
P308	J3_23	J4_23	130.00	300.0	125.0	0.1187	Open
P309	J3_24	J3_25	130.00	300.0	135.0	0.0835	Open
P310	J3_24	J4_24	130.00	200.0	125.0	0.0932	Open
P311	J3_25	J3_26	130.00	300.0	120.0	0.0042	Open
P312	J3_25	J4_25	130.00	350.0	125.0	0.0256	Open
P313	J3_26	J3_27	130.00	250.0	135.0	0.1292	Open
P314	J3_26	J4_26	130.00	200.0	125.0	0.0772	Open
P315	J3_27	J3_28	130.00	150.0	125.0	0.1498	Open
P316	J3_27	J4_27	130.00	200.0	140.0	0.1185	Open
P317	J3_28	J3_29	130.00	100.0	140.0	0.1373	Open
P318	J3_28	J4_28	130.00	100.0	135.0	0.1331	Open
P319	J3_29	J3_30	130.00	100.0	130.0	0.1074	Open
P320	J3_29	J4_29	130.00	300.0	125.0	0.1441	Open
P321	J3_30	J3_31	130.00	100.0	140.0	0.1222	Open
P322	J3_30	J4_30	130.00	200.0	135.0	0.1129	Open
P323	J3_31	J3_32	130.00	300.0	135.0	0.0274	Open
P324	J3_31	J4_31	130.00	200.0	125.0	0.0589	Open
P325	J3_32	J3_33	130.00	300.0	135.0	0.0987	Open
P326	J3_32	J4_32	130.00	300.0	130.0	0.0218	Open
P327	J3_33	J3_34	130.00	350.0	125.0	0.0249	Open
P328	J3_33	J4_33	130.00	600.0	130.0	0.0422	Open
P329	J3_34	J3_35	130.00	250.0	140.0	0.1183	Open
P330	J3_34	J4_34	130.00	150.0	130.0	0.1366	Open
P331	J3_35	J3_36	130.00	250.0	125.0	0.0127	Open
P332	J3_35	J4_35	130.00	100.0	135.0	0.0398	Open
P333	J3_36	J3_37	130.00	150.0	140.0	0.0069	Open
P334	J3_36	J4_36	130.00	300.0	140.0	0.0882	Open
P335	J3_37	J3_38	130.00	200.0	135.0	0.0163	Open
P336	J3_37	J4_37	130.00	250.0	140.0	0.0158	Open
P337	J3_38	J3_39	130.00	300.0	140.0	0.1140	Open
P338	J3_38	J4_38	130.00	300.0	125.0	0.0042	Open
P339	J3_39	J3_40	130.00	150.0	130.0	0.1024	Open
P340	J3_39	J4_39	130.00	250.0	130.0	0.0280	Open
P341	J3_40	J3_41	130.00	250.0	130.0	0.0746	Open
P342	J3_40	J4_40	130.00	300.0	135.0	0.0704	Open
P343	J3_41	J3_42	130.00	600.0	125.0	0.0393	Open
P344	J3_41	J4_41	130.00	300.0	125.0	0.0275	Open
P345	J3_42	J3_43	130.00	250.0	125.0	0.0595	Open
P346	J3_42	J4_42	130.00	100.0	140.0	0.0361	Open
P347	J3_43	J3_44	130.00	300.0	140.0	0.0794	Open
P348	J3_43	J4_43	130.00	200.0	130.0	0.0312	Open
P349	J3_44	J3_45	130.00	150.0	135.0	0.0948	Open
P350	J3_44	J4_44	130.00	150.0	140.0	0.0649	Open
P351	J3_45	J3_46	130.00	100.0	140.0	0.0801	Open
P352	J3_45	J4_45	130.00	250.0	130.0	0.0828	Open
P353	J3_46	J3_47	130.00	250.0	140.0	0.0914	Open
P354	J3_46	J4_46	130.00	100.0	135.0	0.1402	Open
P355	J3_47	J3_48	130.00	300.0	135.0	0.0649	Open
P356	J3_47	J4_47	130.00	300.0	135.0	0.0239	Open
P357	J3_48	J3_49	130.00	100.0	125.0	0.0638	Open
P358	J3_48	J4_48	130.00	150.0	125.0	0.0644	Open
P359	J3_49	J3_50	130.00	350.0	130.0	0.0199	Open
P360	J3_49	J4_49	130.00	450.0	130.0	0.0079	Open
P361	J3_50	J3_51	130.00	250.0	130.0	0.1388	Open
P362	J3_50	J4_50	130.00	250.0	140.0	0.0190	Open
P363	J3_51	J3_52	130.00	250.0	140.0	0.0112	Open
P364	J3_51	J4_51	130.00	250.0	135.0	0.0815	Open
P365	J3_52	J3_53	130.00	250.0	140.0	0.1407	Open
P366	J3_52	J4_52	130.00	100.0	130.0	0.1065	Open
P367	J3_53	J3_54	130.00	150.0	140.0	0.0789	Open
P368	J3_53	J4_53	130.00	250.0	130.0	0.0034	Open
P369	J3_54	J3_55	130.00	250.0	140.0	0.1081	Open
P370	J3_54	J4_54	130.00	250.0	125.0	0.0328	Open
P371	J3_55	J3_56	130.00	250.0	125.0	0.1107	Open
P372	J3_55	J4_55	130.00	300.0	125.0	0.1037	Open
P373	J3_56	J3_57	130.00	150.0	135.0	0.0616	Open
P374	J3_56	J4_56	130.00	300.0	140.0	0.1051	Open
P375	J3_57	J3_58	130.00	350.0	120.0	0.0139	Open
P376	J3_57	J4_57	130.00	300.0	130.0	0.0254	Open
P377	J3_58	J3_59	130.00	250.0	125.0	0.0057	Open
P378	J3_58	J4_58	130.00	150.0	140.0	0.0422	Open
P379	J3_59	J3_60	130.00	200.0	135.0	0.0961	Open
P380	J3_59	J4_59	130.00	100.0	130.0	0.1187	Open
P381	J3_60	J3_61	130.00	200.0	140.0	0.0399	Open
P382	J3_60	J4_60	130.00	200.0	135.0	0.0260	Open
P383	J3_61	J3_62	130.00	250.0	130.0	0.1185	Open
P384	J3_61	J4_61	130.00	300.0	130.0	0.0292	Open
P385	J3_62	J3_63	130.00	150.0	140.0	0.1462	Open
P386	J3_62	J4_62	130.00	200.0	135.0	0.0971	Open
P387	J3_63	J3_64	130.00	150.0	130.0	0.1065	Open
P388	J3_63	J4_63	130.00	150.0	135.0	0.0606	Open
P389	J3_64	J3_65	130.00	200.0	140.0	0.0607	Open
P390	J3_64	J4_64	130.00	100.0	125.0	0.0276	Open
P391	J3_65	J3_66	130.00	600.0	130.0	0.0203	Open
P392	J3_65	J4_65	130.00	500.0	130.0	0.0220	Open
P393	J3_66	J4_66	130.00	200.0	140.0	0.0741	Open
P394	J4_1	J4_2	130.00	350.0	130.0	0.0179	Open
P395	J4_1	J5_1	130.00	350.0	125.0	0.0306	Open
P396	J4_2	J4_3	130.00	200.0	130.0	0.0468	Open
P397	J4_2	J5_2	130.00	250.0	125.0	0.0207	Open
P398	J4_3	J4_4	130.00	200.0	135.0	0.0992	Open
P399	J4_3	J5_3	130.00	150.0	135.0	0.0835	Open
P400	J4_4	J4_5	130.00	200.0	125.0	0.0569	Open
P401	J4_4	J5_4	130.00	100.0	135.0	0.1419	Open
P402	J4_5	J4_6	130.00	300.0	135.0	0.1499	Open
P403	J4_5	J5_5	130.00	300.0	125.0	0.1097	Open
P404	J4_6	J4_7	130.00	150.0	135.0	0.0526	Open
P405	J4_6	J5_6	130.00	200.0	140.0	0.0269	Open
P406	J4_7	J4_8	130.00	300.0	125.0	0.0734	Open
P407	J4_7	J5_7	130.00	300.0	125.0	0.0164	Open
P408	J4_8	J4_9	130.00	150.0	135.0	0.1324	Open
P409	J4_8	J5_8	130.00	300.0	135.0	0.0370	Open
P410	J4_9	J4_10	130.00	600.0	120.0	0.0410	Open
P411	J4_9	J5_9	130.00	350.0	120.0	0.0228	Open
P412	J4_10	J4_11	130.00	300.0	130.0	0.0558	Open
P413	J4_10	J5_10	130.00	250.0	140.0	0.1271	Open
P414	J4_11	J4_12	130.00	250.0	130.0	0.0241	Open
P415	J4_11	J5_11	130.00	250.0	140.0	0.0222	Open
P416	J4_12	J4_13	130.00	250.0	130.0	0.0575	Open
P417	J4_12	J5_12	130.00	200.0	130.0	0.1170	Open
P418	J4_13	J4_14	130.00	250.0	130.0	0.0419	Open
P419	J4_13	J5_13	130.00	100.0	130.0	0.0677	Open
P420	J4_14	J4_15	130.00	150.0	125.0	0.0846	Open
P421	J4_14	J5_14	130.00	150.0	130.0	0.0438	Open
P422	J4_15	J4_16	130.00	200.0	130.0	0.0729	Open
P423	J4_15	J5_15	130.00	250.0	125.0	0.1411	Open
P424	J4_16	J4_17	130.00	300.0	125.0	0.0794	Open
P425	J4_16	J5_16	130.00	100.0	130.0	0.0484	Open
P426	J4_17	J4_18	130.00	450.0	125.0	0.0208	Open
P427	J4_17	J5_17	130.00	500.0	120.0	0.0217	Open
P428	J4_18	J4_19	130.00	150.0	125.0	0.1276	Open
P429	J4_18	J5_18	130.00	100.0	135.0	0.1335	Open
P430	J4_19	J4_20	130.00	150.0	130.0	0.0353	Open
P431	J4_19	J5_19	130.00	150.0	130.0	0.0585	Open
P432	J4_20	J4_21	130.00	100.0	125.0	0.0538	Open
P433	J4_20	J5_20	130.00	150.0	130.0	0.1108	Open
P434	J4_21	J4_22	130.00	200.0	135.0	0.1438	Open
P435	J4_21	J5_21	130.00	300.0	125.0	0.0278	Open
P436	J4_22	J4_23	130.00	300.0	135.0	0.0767	Open
P437	J4_22	J5_22	130.00	100.0	135.0	0.0712	Open
P438	J4_23	J4_24	130.00	150.0	130.0	0.0863	Open
P439	J4_23	J5_23	130.00	150.0	130.0	0.1368	Open
P440	J4_24	J4_25	130.00	150.0	125.0	0.0018	Open
P441	J4_24	J5_24	130.00	300.0	125.0	0.0843	Open
P442	J4_25	J4_26	130.00	350.0	130.0	0.0301	Open
P443	J4_25	J5_25	130.00	600.0	130.0	0.0449	Open
P444	J4_26	J4_27	130.00	100.0	130.0	0.0449	Open
P445	J4_26	J5_26	130.00	200.0	135.0	0.1035	Open
P446	J4_27	J4_28	130.00	300.0	135.0	0.0713	Open
P447	J4_27	J5_27	130.00	250.0	130.0	0.0928	Open
P448	J4_28	J4_29	130.00	300.0	125.0	0.0032	Open
P449	J4_28	J5_28	130.00	200.0	140.0	0.0200	Open
P450	J4_29	J4_30	130.00	250.0	130.0	0.0548	Open
P451	J4_29	J5_29	130.00	250.0	130.0	0.1289	Open
P452	J4_30	J4_31	130.00	250.0	125.0	0.0795	Open
P453	J4_30	J5_30	130.00	300.0	135.0	0.0631	Open
P454	J4_31	J4_32	130.00	150.0	125.0	0.1197	Open
P455	J4_31	J5_31	130.00	100.0	125.0	0.1160	Open
P456	J4_32	J4_33	130.00	300.0	135.0	0.0904	Open
P457	J4_32	J5_32	130.00	300.0	125.0	0.0073	Open
P458	J4_33	J4_34	130.00	450.0	120.0	0.0234	Open
P459	J4_33	J5_33	130.00	300.0	125.0	0.0219	Open
P460	J4_34	J4_35	130.00	250.0	130.0	0.0190	Open
P461	J4_34	J5_34	130.00	150.0	135.0	0.0700	Open
P462	J4_35	J4_36	130.00	100.0	140.0	0.0134	Open
P463	J4_35	J5_35	130.00	300.0	125.0	0.0643	Open
P464	J4_36	J4_37	130.00	250.0	125.0	0.1191	Open
P465	J4_36	J5_36	130.00	150.0	135.0	0.1183	Open
P466	J4_37	J4_38	130.00	150.0	135.0	0.1078	Open
P467	J4_37	J5_37	130.00	200.0	135.0	0.1223	Open
P468	J4_38	J4_39	130.00	200.0	135.0	0.0649	Open
P469	J4_38	J5_38	130.00	100.0	125.0	0.1485	Open
P470	J4_39	J4_40	130.00	200.0	125.0	0.1339	Open
P471	J4_39	J5_39	130.00	200.0	130.0	0.0157	Open
P472	J4_40	J4_41	130.00	250.0	130.0	0.0260	Open
P473	J4_40	J5_40	130.00	100.0	125.0	0.0215	Open
P474	J4_41	J4_42	130.00	400.0	130.0	0.0490	Open
P475	J4_41	J5_41	130.00	600.0	120.0	0.0053	Open
P476	J4_42	J4_43	130.00	200.0	140.0	0.0437	Open
P477	J4_42	J5_42	130.00	250.0	125.0	0.0840	Open
P478	J4_43	J4_44	130.00	100.0	130.0	0.0787	Open
P479	J4_43	J5_43	130.00	250.0	125.0	0.1102	Open
P480	J4_44	J4_45	130.00	300.0	135.0	0.0708	Open
P481	J4_44	J5_44	130.00	100.0	130.0	0.0775	Open
P482	J4_45	J4_46	130.00	100.0	135.0	0.1224	Open
P483	J4_45	J5_45	130.00	100.0	125.0	0.1276	Open
P484	J4_46	J4_47	130.00	200.0	135.0	0.0972	Open
P485	J4_46	J5_46	130.00	100.0	140.0	0.1320	Open
P486	J4_47	J4_48	130.00	250.0	140.0	0.1007	Open
P487	J4_47	J5_47	130.00	250.0	135.0	0.0769	Open
P488	J4_48	J4_49	130.00	200.0	135.0	0.1166	Open
P489	J4_48	J5_48	130.00	250.0	125.0	0.0504	Open
P490	J4_49	J4_50	130.00	400.0	120.0	0.0360	Open
P491	J4_49	J5_49	130.00	400.0	120.0	0.0394	Open
P492	J4_50	J4_51	130.00	150.0	125.0	0.0862	Open
P493	J4_50	J5_50	130.00	200.0	140.0	0.0479	Open
P494	J4_51	J4_52	130.00	200.0	135.0	0.0732	Open
P495	J4_51	J5_51	130.00	200.0	135.0	0.0388	Open
P496	J4_52	J4_53	130.00	100.0	135.0	0.0037	Open
P497	J4_52	J5_52	130.00	150.0	125.0	0.0721	Open
P498	J4_53	J4_54	130.00	150.0	125.0	0.0306	Open
P499	J4_53	J5_53	130.00	100.0	130.0	0.0895	Open
P500	J4_54	J4_55	130.00	250.0	140.0	0.0752	Open
P501	J4_54	J5_54	130.00	200.0	130.0	0.0235	Open
P502	J4_55	J4_56	130.00	100.0	125.0	0.0020	Open
P503	J4_55	J5_55	130.00	300.0	125.0	0.0166	Open
P504	J4_56	J4_57	130.00	300.0	140.0	0.1110	Open
P505	J4_56	J5_56	130.00	300.0	125.0	0.1040	Open
P506	J4_57	J4_58	130.00	350.0	125.0	0.0254	Open
P507	J4_57	J5_57	130.00	450.0	130.0	0.0261	Open
P508	J4_58	J4_59	130.00	200.0	135.0	0.0353	Open
P509	J4_58	J5_58	130.00	250.0	135.0	0.0292	Open
P510	J4_59	J4_60	130.00	300.0	140.0	0.0416	Open
P511	J4_59	J5_59	130.00	250.0	130.0	0.0417	Open
P512	J4_60	J4_61	130.00	250.0	140.0	0.0196	Open
P513	J4_60	J5_60	130.00	100.0	135.0	0.0541	Open
P514	J4_61	J4_62	130.00	300.0	140.0	0.1356	Open
P515	J4_61	J5_61	130.00	300.0	130.0	0.0395	Open
P516	J4_62	J4_63	130.00	300.0	130.0	0.0571	Open
P517	J4_62	J5_62	130.00	300.0	140.0	0.1244	Open
P518	J4_63	J4_64	130.00	100.0	130.0	0.0030	Open
P519	J4_63	J5_63	130.00	250.0	135.0	0.0536	Open
P520	J4_64	J4_65	130.00	250.0	125.0	0.0118	Open
P521	J4_64	J5_64	130.00	100.0	135.0	0.0720	Open
P522	J4_65	J4_66	130.00	500.0	120.0	0.0212	Open
P523	J4_65	J5_65	130.00	350.0	130.0	0.0056	Open
P524	J4_66	J5_66	130.00	100.0	135.0	0.0618	Open
P525	J5_1	J5_2	130.00	450.0	120.0	0.0128	Open
P526	J5_1	J6_1	130.00	350.0	120.0	0.0455	Open
P527	J5_2	J5_3	130.00	250.0	140.0	0.0505	Open
P528	J5_2	J6_2	130.00	200.0	135.0	0.0682	Open
P529	J5_3	J5_4	130.00	200.0	125.0	0.0430	Open
P530	J5_3	J6_3	130.00	200.0	135.0	0.0068	Open
P531	J5_4	J5_5	130.00	150.0	140.0	0.0848	Open
P532	J5_4	J6_4	130.00	150.0	130.0	0.1169	Open
P533	J5_5	J5_6	130.00	250.0	135.0	0.0688	Open
P534	J5_5	J6_5	130.00	150.0	130.0	0.1471	Open
P535	J5_6	J5_7	130.00	300.0	125.0	0.0788	Open
P536	J5_6	J6_6	130.00	200.0	140.0	0.0155	Open
P537	J5_7	J5_8	130.00	300.0	125.0	0.0934	Open
P538	J5_7	J6_7	130.00	150.0	140.0	0.0862	Open
P539	J5_8	J5_9	130.00	300.0	140.0	0.0972	Open
P540	J5_8	J6_8	130.00	250.0	140.0	0.1256	Open
P541	J5_9	J5_10	130.00	500.0	125.0	0.0335	Open
P542	J5_9	J6_9	130.00	500.0	125.0	0.0366	Open
P543	J5_10	J5_11	130.00	150.0	130.0	0.0472	Open
P544	J5_10	J6_10	130.00	150.0	130.0	0.1319	Open
P545	J5_11	J5_12	130.00	250.0	130.0	0.0667	Open
P546	J5_11	J6_11	130.00	250.0	135.0	0.0643	Open
P547	J5_12	J5_13	130.00	150.0	125.0	0.0811	Open
P548	J5_12	J6_12	130.00	300.0	135.0	0.1018	Open
P549	J5_13	J5_14	130.00	250.0	125.0	0.1131	Open
P550	J5_13	J6_13	130.00	100.0	140.0	0.0724	Open
P551	J5_14	J5_15	130.00	200.0	130.0	0.1275	Open
P552	J5_14	J6_14	130.00	250.0	135.0	0.0630	Open
P553	J5_15	J5_16	130.00	250.0	130.0	0.0862	Open
P554	J5_15	J6_15	130.00	150.0	135.0	0.0147	Open
P555	J5_16	J5_17	130.00	150.0	135.0	0.0938	Open
P556	J5_16	J6_16	130.00	200.0	135.0	0.1060	Open
P557	J5_17	J5_18	130.00	450.0	125.0	0.0416	Open
P558	J5_17	J6_17	130.00	350.0	120.0	0.0275	Open
P559	J5_18	J5_19	130.00	250.0	125.0	0.0167	Open
P560	J5_18	J6_18	130.00	250.0	130.0	0.1323	Open
P561	J5_19	J5_20	130.00	150.0	140.0	0.0632	Open
P562	J5_19	J6_19	130.00	200.0	130.0	0.0668	Open
P563	J5_20	J5_21	130.00	250.0	135.0	0.0425	Open
P564	J5_20	J6_20	130.00	200.0	125.0	0.1423	Open
P565	J5_21	J5_22	130.00	100.0	135.0	0.1078	Open
P566	J5_21	J6_21	130.00	300.0	135.0	0.0817	Open
P567	J5_22	J5_23	130.00	150.0	125.0	0.0003	Open
P568	J5_22	J6_22	130.00	300.0	140.0	0.0116	Open
P569	J5_23	J5_24	130.00	300.0	125.0	0.1265	Open
P570	J5_23	J6_23	130.00	200.0	140.0	0.0763	Open
P571	J5_24	J5_25	130.00	200.0	135.0	0.0971	Open
P572	J5_24	J6_24	130.00	100.0	130.0	0.0307	Open
P573	J5_25	J5_26	130.00	500.0	120.0	0.0417	Open
P574	J5_25	J6_25	130.00	450.0	120.0	0.0402	Open
P575	J5_26	J5_27	130.00	200.0	140.0	0.1201	Open
P576	J5_26	J6_26	130.00	250.0	130.0	0.0239	Open
P577	J5_27	J5_28	130.00	150.0	130.0	0.0438	Open
P578	J5_27	J6_27	130.00	150.0	125.0	0.0035	Open
P579	J5_28	J5_29	130.00	150.0	135.0	0.0921	Open
P580	J5_28	J6_28	130.00	150.0	125.0	0.0257	Open
P581	J5_29	J5_30	130.00	250.0	140.0	0.1440	Open
P582	J5_29	J6_29	130.00	100.0	140.0	0.1276	Open
P583	J5_30	J5_31	130.00	200.0	130.0	0.0659	Open
P584	J5_30	J6_30	130.00	150.0	130.0	0.1094	Open
P585	J5_31	J5_32	130.00	100.0	125.0	0.0673	Open
P586	J5_31	J6_31	130.00	300.0	135.0	0.0111	Open
P587	J5_32	J5_33	130.00	150.0	140.0	0.1369	Open
P588	J5_32	J6_32	130.00	150.0	125.0	0.0480	Open
P589	J5_33	J5_34	130.00	450.0	125.0	0.0445	Open
P590	J5_33	J6_33	130.00	300.0	130.0	0.0200	Open
P591	J5_34	J5_35	130.00	100.0	130.0	0.0634	Open
P592	J5_34	J6_34	130.00	250.0	130.0	0.1185	Open
P593	J5_35	J5_36	130.00	200.0	125.0	0.0272	Open
P594	J5_35	J6_35	130.00	300.0	125.0	0.1176	Open
P595	J5_36	J5_37	130.00	300.0	130.0	0.0682	Open
P596	J5_36	J6_36	130.00	300.0	140.0	0.1441	Open
P597	J5_37	J5_38	130.00	200.0	135.0	0.1359	Open
P598	J5_37	J6_37	130.00	250.0	135.0	0.0182	Open
P599	J5_38	J5_39	130.00	200.0	130.0	0.1083	Open
P600	J5_38	J6_38	130.00	300.0	130.0	0.1268	Open
P601	J5_39	J5_40	130.00	150.0	140.0	0.1282	Open
P602	J5_39	J6_39	130.00	250.0	130.0	0.1117	Open
P603	J5_40	J5_41	130.00	100.0	140.0	0.1168	Open
P604	J5_40	J6_40	130.00	250.0	125.0	0.1108	Open
P605	J5_41	J5_42	130.00	300.0	120.0	0.0192	Open
P606	J5_41	J6_41	130.00	400.0	130.0	0.0413	Open
P607	J5_42	J5_43	130.00	250.0	125.0	0.0031	Open
P608	J5_42	J6_42	130.00	250.0	130.0	0.0903	Open
P609	J5_43	J5_44	130.00	100.0	140.0	0.0115	Open
P610	J5_43	J6_43	130.00	100.0	135.0	0.0602	Open
P611	J5_44	J5_45	130.00	250.0	135.0	0.0361	Open
P612	J5_44	J6_44	130.00	300.0	135.0	0.1478	Open
P613	J5_45	J5_46	130.00	250.0	140.0	0.0444	Open
P614	J5_45	J6_45	130.00	250.0	140.0	0.0383	Open
P615	J5_46	J5_47	130.00	150.0	130.0	0.0056	Open
P616	J5_46	J6_46	130.00	100.0	135.0	0.0157	Open
P617	J5_47	J5_48	130.00	100.0	130.0	0.0179	Open
P618	J5_47	J6_47	130.00	150.0	125.0	0.0866	Open
P619	J5_48	J5_49	130.00	100.0	130.0	0.0854	Open
P620	J5_48	J6_48	130.00	150.0	135.0	0.0988	Open
P621	J5_49	J5_50	130.00	300.0	125.0	0.0300	Open
P622	J5_49	J6_49	130.00	450.0	125.0	0.0011	Open
P623	J5_50	J5_51	130.00	100.0	130.0	0.0344	Open
P624	J5_50	J6_50	130.00	300.0	135.0	0.0991	Open
P625	J5_51	J5_52	130.00	300.0	125.0	0.0742	Open
P626	J5_51	J6_51	130.00	150.0	140.0	0.0917	Open
P627	J5_52	J5_53	130.00	200.0	135.0	0.0340	Open
P628	J5_52	J6_52	130.00	100.0	125.0	0.0284	Open
P629	J5_53	J5_54	130.00	150.0	140.0	0.1322	Open
P630	J5_53	J6_53	130.00	200.0	130.0	0.0324	Open
P631	J5_54	J5_55	130.00	100.0	125.0	0.1327	Open
P632	J5_54	J6_54	130.00	200.0	130.0	0.0940	Open
P633	J5_55	J5_56	130.00	250.0	140.0	0.0916	Open
P634	J5_55	J6_55	130.00	250.0	135.0	0.1461	Open
P635	J5_56	J5_57	130.00	100.0	125.0	0.1454	Open
P636	J5_56	J6_56	130.00	200.0	135.0	0.0263	Open
P637	J5_57	J5_58	130.00	600.0	120.0	0.0164	Open
P638	J5_57	J6_57	130.00	450.0	125.0	0.0313	Open
P639	J5_58	J5_59	130.00	200.0	135.0	0.0616	Open
P640	J5_58	J6_58	130.00	150.0	135.0	0.0631	Open
P641	J5_59	J5_60	130.00	100.0	130.0	0.1051	Open
P642	J5_59	J6_59	130.00	250.0	125.0	0.0712	Open
P643	J5_60	J5_61	130.00	300.0	125.0	0.1461	Open
P644	J5_60	J6_60	130.00	200.0	140.0	0.0536	Open
P645	J5_61	J5_62	130.00	250.0	125.0	0.1141	Open
P646	J5_61	J6_61	130.00	100.0	130.0	0.1301	Open
P647	J5_62	J5_63	130.00	300.0	130.0	0.0718	Open
P648	J5_62	J6_62	130.00	250.0	140.0	0.0760	Open
P649	J5_63	J5_64	130.00	150.0	125.0	0.0765	Open
P650	J5_63	J6_63	130.00	100.0	125.0	0.0729	Open
P651	J5_64	J5_65	130.00	150.0	130.0	0.0157	Open
P652	J5_64	J6_64	130.00	300.0	130.0	0.0327	Open
P653	J5_65	J5_66	130.00	450.0	120.0	0.0232	Open
P654	J5_65	J6_65	130.00	450.0	125.0	0.0198	Open
P655	J5_66	J6_66	130.00	150.0	125.0	0.0722	Open
P656	J6_1	J6_2	130.00	450.0	120.0	0.0080	Open
P657	J6_1	J7_1	130.00	500.0	125.0	0.0206	Open
P658	J6_2	J6_3	130.00	100.0	140.0	0.0777	Open
P659	J6_2	J7_2	130.00	200.0	140.0	0.0862	Open
P660	J6_3	J6_4	130.00	200.0	130.0	0.1162	Open
P661	J6_3	J7_3	130.00	200.0	140.0	0.0011	Open
P662	J6_4	J6_5	130.00	250.0	140.0	0.1322	Open
P663	J6_4	J7_4	130.00	300.0	130.0	0.0104	Open
P664	J6_5	J6_6	130.00	150.0	130.0	0.0485	Open
P665	J6_5	J7_5	130.00	100.0	140.0	0.0343	Open
P666	J6_6	J6_7	130.00	250.0	140.0	0.1295	Open
P667	J6_6	J7_6	130.00	300.0	125.0	0.1013	Open
P668	J6_7	J6_8	130.00	200.0	140.0	0.0251	Open
P669	J6_7	J7_7	130.00	200.0	140.0	0.0670	Open
P670	J6_8	J6_9	130.00	200.0	125.0	0.1300	Open
P671	J6_8	J7_8	130.00	150.0	140.0	0.0239	Open
P672	J6_9	J6_10	130.00	450.0	120.0	0.0164	Open
P673	J6_9	J7_9	130.00	500.0	120.0	0.0478	Open
P674	J6_10	J6_11	130.00	100.0	130.0	0.1186	Open
P675	J6_10	J7_10	130.00	250.0	140.0	0.0352	Open
P676	J6_11	J6_12	130.00	150.0	140.0	0.0435	Open
P677	J6_11	J7_11	130.00	100.0	125.0	0.0307	Open
P678	J6_12	J6_13	130.00	100.0	125.0	0.0938	Open
P679	J6_12	J7_12	130.00	250.0	135.0	0.0949	Open
P680	J6_13	J6_14	130.00	300.0	140.0	0.0385	Open
P681	J6_13	J7_13	130.00	200.0	130.0	0.1151	Open
P682	J6_14	J6_15	130.00	100.0	125.0	0.0406	Open
P683	J6_14	J7_14	130.00	150.0	135.0	0.0833	Open
P684	J6_15	J6_16	130.00	200.0	125.0	0.0135	Open
P685	J6_15	J7_15	130.00	300.0	140.0	0.0719	Open
P686	J6_16	J6_17	130.00	300.0	130.0	0.0119	Open
P687	J6_16	J7_16	130.00	300.0	125.0	0.1467	Open
P688	J6_17	J6_18	130.00	500.0	130.0	0.0014	Open
P689	J6_17	J7_17	130.00	300.0	120.0	0.0067	Open
P690	J6_18	J6_19	130.00	100.0	125.0	0.0547	Open
P691	J6_18	J7_18	130.00	100.0	130.0	0.0678	Open
P692	J6_19	J6_20	130.00	300.0	130.0	0.0408	Open
P693	J6_19	J7_19	130.00	300.0	130.0	0.0156	Open
P694	J6_20	J6_21	130.00	200.0	140.0	0.1056	Open
P695	J6_20	J7_20	130.00	150.0	125.0	0.0197	Open
P696	J6_21	J6_22	130.00	100.0	140.0	0.0323	Open
P697	J6_21	J7_21	130.00	250.0	140.0	0.0936	Open
P698	J6_22	J6_23	130.00	300.0	140.0	0.1386	Open
P699	J6_22	J7_22	130.00	100.0	135.0	0.0148	Open
P700	J6_23	J6_24	130.00	100.0	125.0	0.1407	Open
P701	J6_23	J7_23	130.00	200.0	130.0	0.0654	Open
P702	J6_24	J6_25	130.00	250.0	125.0	0.0195	Open
P703	J6_24	J7_24	130.00	150.0	140.0	0.0922	Open
P704	J6_25	J6_26	130.00	500.0	130.0	0.0347	Open
P705	J6_25	J7_25	130.00	400.0	130.0	0.0161	Open
P706	J6_26	J6_27	130.00	250.0	130.0	0.1245	Open
P707	J6_26	J7_26	130.00	200.0	135.0	0.0121	Open
P708	J6_27	J6_28	130.00	300.0	140.0	0.0008	Open
P709	J6_27	J7_27	130.00	100.0	140.0	0.0877	Open
P710	J6_28	J6_29	130.00	100.0	130.0	0.0011	Open
P711	J6_28	J7_28	130.00	250.0	140.0	0.0147	Open
P712	J6_29	J6_30	130.00	200.0	125.0	0.0024	Open
P713	J6_29	J7_29	130.00	100.0	135.0	0.0396	Open
P714	J6_30	J6_31	130.00	250.0	135.0	0.0259	Open
P715	J6_30	J7_30	130.00	200.0	130.0	0.1152	Open
P716	J6_31	J6_32	130.00	100.0	140.0	0.0010	Open
P717	J6_31	J7_31	130.00	150.0	135.0	0.1014	Open
P718	J6_32	J6_33	130.00	250.0	125.0	0.1049	Open
P719	J6_32	J7_32	130.00	200.0	135.0	0.0946	Open
P720	J6_33	J6_34	130.00	600.0	120.0	0.0429	Open
P721	J6_33	J7_33	130.00	300.0	130.0	0.0187	Open
P722	J6_34	J6_35	130.00	250.0	125.0	0.0636	Open
P723	J6_34	J7_34	130.00	300.0	130.0	0.0240	Open
P724	J6_35	J6_36	130.00	200.0	140.0	0.0759	Open
P725	J6_35	J7_35	130.00	150.0	130.0	0.0710	Open
P726	J6_36	J6_37	130.00	100.0	125.0	0.0111	Open
P727	J6_36	J7_36	130.00	200.0	125.0	0.0143	Open
P728	J6_37	J6_38	130.00	100.0	130.0	0.0593	Open
P729	J6_37	J7_37	130.00	150.0	140.0	0.0636	Open
P730	J6_38	J6_39	130.00	250.0	140.0	0.0980	Open
P731	J6_38	J7_38	130.00	300.0	125.0	0.0225	Open
P732	J6_39	J6_40	130.00	300.0	125.0	0.0489	Open
P733	J6_39	J7_39	130.00	250.0	135.0	0.0447	Open
P734	J6_40	J6_41	130.00	300.0	140.0	0.0406	Open
P735	J6_40	J7_40	130.00	300.0	130.0	0.0221	Open
P736	J6_41	J6_42	130.00	400.0	120.0	0.0231	Open
P737	J6_41	J7_41	130.00	350.0	120.0	0.0145	Open
P738	J6_42	J6_43	130.00	300.0	140.0	0.0918	Open
P739	J6_42	J7_42	130.00	150.0	130.0	0.0630	Open
P740	J6_43	J6_44	130.00	300.0	140.0	0.1313	Open
P741	J6_43	J7_43	130.00	200.0	130.0	0.1089	Open
P742	J6_44	J6_45	130.00	250.0	125.0	0.0057	Open
P743	J6_44	J7_44	130.00	150.0	130.0	0.1253	Open
P744	J6_45	J6_46	130.00	200.0	125.0	0.1355	Open
P745	J6_45	J7_45	130.00	200.0	130.0	0.1132	Open
P746	J6_46	J6_47	130.00	150.0	125.0	0.1388	Open
P747	J6_46	J7_46	130.00	200.0	135.0	0.0923	Open
P748	J6_47	J6_48	130.00	100.0	125.0	0.1442	Open
P749	J6_47	J7_47	130.00	100.0	135.0	0.0396	Open
P750	J6_48	J6_49	130.00	150.0	140.0	0.1172	Open
P751	J6_48	J7_48	130.00	300.0	135.0	0.0059	Open
P752	J6_49	J6_50	130.00	500.0	130.0	0.0144	Open
P753	J6_49	J7_49	130.00	500.0	120.0	0.0484	Open
P754	J6_50	J6_51	130.00	150.0	125.0	0.0179	Open
P755	J6_50	J7_50	130.00	100.0	125.0	0.0393	Open
P756	J6_51	J6_52	130.00	200.0	135.0	0.1179	Open
P757	J6_51	J7_51	130.00	100.0	135.0	0.0887	Open
P758	J6_52	J6_53	130.00	100.0	130.0	0.1377	Open
P759	J6_52	J7_52	130.00	150.0	135.0	0.0636	Open
P760	J6_53	J6_54	130.00	150.0	135.0	0.0151	Open
P761	J6_53	J7_53	130.00	100.0	135.0	0.0200	Open
P762	J6_54	J6_55	130.00	100.0	125.0	0.0276	Open
P763	J6_54	J7_54	130.00	250.0	125.0	0.1410	Open
P764	J6_55	J6_56	130.00	300.0	135.0	0.1033	Open
P765	J6_55	J7_55	130.00	250.0	135.0	0.1281	Open
P766	J6_56	J6_57	130.00	250.0	130.0	0.0882	Open
P767	J6_56	J7_56	130.00	250.0	135.0	0.1186	Open
P768	J6_57	J6_58	130.00	350.0	120.0	0.0389	Open
P769	J6_57	J7_57	130.00	500.0	125.0	0.0328	Open
P770	J6_58	J6_59	130.00	300.0	125.0	0.1154	Open
P771	J6_58	J7_58	130.00	250.0	140.0	0.0707	Open
P772	J6_59	J6_60	130.00	150.0	135.0	0.1180	Open
P773	J6_59	J7_59	130.00	150.0	140.0	0.0807	Open
P774	J6_60	J6_61	130.00	150.0	135.0	0.0946	Open
P775	J6_60	J7_60	130.00	150.0	135.0	0.1393	Open
P776	J6_61	J6_62	130.00	100.0	135.0	0.1287	Open
P777	J6_61	J7_61	130.00	200.0	135.0	0.0785	Open
P778	J6_62	J6_63	130.00	300.0	130.0	0.0298	Open
P779	J6_62	J7_62	130.00	250.0	125.0	0.0900	Open
P780	J6_63	J6_64	130.00	100.0	125.0	0.0042	Open
P781	J6_63	J7_63	130.00	100.0	135.0	0.1281	Open
P782	J6_64	J6_65	130.00	100.0	125.0	0.0655	Open
P783	J6_64	J7_64	130.00	150.0	130.0	0.1261	Open
P784	J6_65	J6_66	130.00	450.0	125.0	0.0066	Open
P785	J6_65	J7_65	130.00	500.0	120.0	0.0196	Open
P786	J6_66	J7_66	130.00	100.0	135.0	0.0929	Open
P787	J7_1	J7_2	130.00	450.0	130.0	0.0278	Open
P788	J7_1	J8_1	130.00	600.0	130.0	0.0361	Open
P789	J7_2	J7_3	130.00	100.0	125.0	0.0420	Open
P790	J7_2	J8_2	130.00	200.0	125.0	0.0709	Open
P791	J7_3	J7_4	130.00	150.0	135.0	0.1060	Open
P792	J7_3	J8_3	130.00	300.0	125.0	0.0388	Open
P793	J7_4	J7_5	130.00	150.0	125.0	0.0023	Open
P794	J7_4	J8_4	130.00	300.0	130.0	0.0998	Open
P795	J7_5	J7_6	130.00	150.0	135.0	0.0212	Open
P796	J7_5	J8_5	130.00	250.0	135.0	0.0651	Open
P797	J7_6	J7_7	130.00	100.0	130.0	0.0348	Open
P798	J7_6	J8_6	130.00	100.0	125.0	0.1221	Open
P799	J7_7	J7_8	130.00	150.0	140.0	0.0254	Open
P800	J7_7	J8_7	130.00	200.0	140.0	0.1261	Open
P801	J7_8	J7_9	130.00	200.0	130.0	0.1415	Open
P802	J7_8	J8_8	130.00	250.0	135.0	0.1397	Open
P803	J7_9	J7_10	130.00	500.0	120.0	0.0166	Open
P804	J7_9	J8_9	130.00	300.0	125.0	0.0059	Open
P805	J7_10	J7_11	130.00	100.0	125.0	0.0444	Open
P806	J7_10	J8_10	130.00	100.0	135.0	0.1438	Open
P807	J7_11	J7_12	130.00	150.0	125.0	0.0390	Open
P808	J7_11	J8_11	130.00	200.0	135.0	0.1464	Open
P809	J7_12	J7_13	130.00	150.0	140.0	0.0250	Open
P810	J7_12	J8_12	130.00	150.0	135.0	0.1159	Open
P811	J7_13	J7_14	130.00	250.0	125.0	0.0663	Open
P812	J7_13	J8_13	130.00	200.0	125.0	0.0722	Open
P813	J7_14	J7_15	130.00	250.0	135.0	0.0228	Open
P814	J7_14	J8_14	130.00	200.0	140.0	0.1459	Open
P815	J7_15	J7_16	130.00	150.0	125.0	0.0684	Open
P816	J7_15	J8_15	130.00	100.0	135.0	0.1185	Open
P817	J7_16	J7_17	130.00	100.0	135.0	0.0396	Open
P818	J7_16	J8_16	130.00	250.0	125.0	0.1156	Open
P819	J7_17	J7_18	130.00	350.0	120.0	0.0301	Open
P820	J7_17	J8_17	130.00	300.0	130.0	0.0086	Open
P821	J7_18	J7_19	130.00	250.0	140.0	0.0893	Open
P822	J7_18	J8_18	130.00	300.0	140.0	0.1131	Open
P823	J7_19	J7_20	130.00	100.0	135.0	0.1449	Open
P824	J7_19	J8_19	130.00	150.0	125.0	0.1392	Open
P825	J7_20	J7_21	130.00	100.0	130.0	0.0510	Open
P826	J7_20	J8_20	130.00	300.0	130.0	0.1066	Open
P827	J7_21	J7_22	130.00	100.0	125.0	0.0310	Open
P828	J7_21	J8_21	130.00	300.0	130.0	0.0355	Open
P829	J7_22	J7_23	130.00	200.0	130.0	0.1476	Open
P830	J7_22	J8_22	130.00	300.0	130.0	0.0940	Open
P831	J7_23	J7_24	130.00	150.0	135.0	0.0294	Open
P832	J7_23	J8_23	130.00	150.0	125.0	0.0206	Open
P833	J7_24	J7_25	130.00	300.0	130.0	0.0052	Open
P834	J7_24	J8_24	130.00	300.0	125.0	0.1043	Open
P835	J7_25	J7_26	130.00	400.0	130.0	0.0399	Open
P836	J7_25	J8_25	130.00	400.0	130.0	0.0291	Open
P837	J7_26	J7_27	130.00	150.0	125.0	0.0994	Open
P838	J7_26	J8_26	130.00	150.0	125.0	0.0402	Open
P839	J7_27	J7_28	130.00	200.0	135.0	0.0833	Open
P840	J7_27	J8_27	130.00	250.0	140.0	0.0848	Open
P841	J7_28	J7_29	130.00	200.0	130.0	0.0023	Open
P842	J7_28	J8_28	130.00	300.0	125.0	0.1162	Open
P843	J7_29	J7_30	130.00	100.0	125.0	0.0491	Open
P844	J7_29	J8_29	130.00	200.0	140.0	0.1375	Open
P845	J7_30	J7_31	130.00	300.0	140.0	0.1268	Open
P846	J7_30	J8_30	130.00	150.0	130.0	0.0481	Open
P847	J7_31	J7_32	130.00	100.0	130.0	0.0783	Open
P848	J7_31	J8_31	130.00	200.0	125.0	0.1091	Open
P849	J7_32	J7_33	130.00	300.0	135.0	0.0654	Open
P850	J7_32	J8_32	130.00	300.0	135.0	0.0486	Open
P851	J7_33	J7_34	130.00	500.0	130.0	0.0080	Open
P852	J7_33	J8_33	130.00	300.0	120.0	0.0159	Open
P853	J7_34	J7_35	130.00	200.0	140.0	0.0279	Open
P854	J7_34	J8_34	130.00	300.0	135.0	0.0102	Open
P855	J7_35	J7_36	130.00	250.0	130.0	0.0161	Open
P856	J7_35	J8_35	130.00	150.0	125.0	0.1195	Open
P857	J7_36	J7_37	130.00	300.0	140.0	0.0630	Open
P858	J7_36	J8_36	130.00	100.0	135.0	0.0732	Open
P859	J7_37	J7_38	130.00	300.0	130.0	0.0273	Open
P860	J7_37	J8_37	130.00	150.0	140.0	0.0467	Open
P861	J7_38	J7_39	130.00	250.0	125.0	0.1165	Open
P862	J7_38	J8_38	130.00	100.0	130.0	0.1213	Open
P863	J7_39	J7_40	130.00	100.0	130.0	0.0957	Open
P864	J7_39	J8_39	130.00	250.0	130.0	0.1068	Open
P865	J7_40	J7_41	130.00	300.0	130.0	0.1099	Open
P866	J7_40	J8_40	130.00	200.0	135.0	0.1026	Open
P867	J7_41	J7_42	130.00	500.0	125.0	0.0432	Open
P868	J7_41	J8_41	130.00	350.0	125.0	0.0136	Open
P869	J7_42	J7_43	130.00	100.0	130.0	0.0489	Open
P870	J7_42	J8_42	130.00	100.0	140.0	0.0863	Open
P871	J7_43	J7_44	130.00	250.0	135.0	0.0118	Open
P872	J7_43	J8_43	130.00	250.0	125.0	0.1014	Open
P873	J7_44	J7_45	130.00	150.0	140.0	0.0811	Open
P874	J7_44	J8_44	130.00	250.0	140.0	0.0599	Open
P875	J7_45	J7_46	130.00	250.0	140.0	0.0736	Open
P876	J7_45	J8_45	130.00	250.0	130.0	0.0090	Open
P877	J7_46	J7_47	130.00	150.0	125.0	0.0375	Open
P878	J7_46	J8_46	130.00	150.0	130.0	0.0212	Open
P879	J7_47	J7_48	130.00	250.0	130.0	0.1265	Open
P880	J7_47	J8_47	130.00	200.0	125.0	0.0933	Open
P881	J7_48	J7_49	130.00	250.0	125.0	0.1108	Open
P882	J7_48	J8_48	130.00	300.0	130.0	0.1496	Open
P883	J7_49	J7_50	130.00	300.0	125.0	0.0499	Open
P884	J7_49	J8_49	130.00	350.0	125.0	0.0279	Open
P885	J7_50	J7_51	130.00	300.0	125.0	0.0783	Open
P886	J7_50	J8_50	130.00	250.0	125.0	0.0681	Open
P887	J7_51	J7_52	130.00	100.0	140.0	0.0399	Open
P888	J7_51	J8_51	130.00	150.0	135.0	0.0974	Open
P889	J7_52	J7_53	130.00	150.0	130.0	0.1092	Open
P890	J7_52	J8_52	130.00	100.0	125.0	0.0151	Open
P891	J7_53	J7_54	130.00	150.0	135.0	0.0890	Open
P892	J7_53	J8_53	130.00	250.0	125.0	0.1149	Open
P893	J7_54	J7_55	130.00	100.0	135.0	0.0102	Open
P894	J7_54	J8_54	130.00	100.0	125.0	0.1104	Open
P895	J7_55	J7_56	130.00	250.0	140.0	0.0369	Open
P896	J7_55	J8_55	130.00	250.0	140.0	0.0210	Open
P897	J7_56	J7_57	130.00	300.0	135.0	0.0392	Open
P898	J7_56	J8_56	130.00	200.0	135.0	0.0538	Open
P899	J7_57	J7_58	130.00	600.0	120.0	0.0354	Open
P900	J7_57	J8_57	130.00	400.0	120.0	0.0319	Open
P901	J7_58	J7_59	130.00	250.0	125.0	0.0266	Open
P902	J7_58	J8_58	130.00	100.0	125.0	0.0266	Open
P903	J7_59	J7_60	130.00	150.0	130.0	0.0231	Open
P904	J7_59	J8_59	130.00	200.0	140.0	0.0338	Open
P905	J7_60	J7_61	130.00	150.0	125.0	0.0938	Open
P906	J7_60	J8_60	130.00	200.0	125.0	0.1051	Open
P907	J7_61	J7_62	130.00	200.0	130.0	0.1235	Open
P908	J7_61	J8_61	130.00	150.0	140.0	0.0015	Open
P909	J7_62	J7_63	130.00	200.0	140.0	0.0271	Open
P910	J7_62	J8_62	130.00	250.0	135.0	0.0305	Open
P911	J7_63	J7_64	130.00	250.0	140.0	0.0028	Open
P912	J7_63	J8_63	130.00	300.0	140.0	0.0154	Open
P913	J7_64	J7_65	130.00	300.0	125.0	0.1155	Open
P914	J7_64	J8_64	130.00	250.0	135.0	0.1247	Open
P915	J7_65	J7_66	130.00	350.0	130.0	0.0043	Open
P916	J7_65	J8_65	130.00	400.0	125.0	0.0216	Open
P917	J7_66	J8_66	130.00	250.0	140.0	0.0644	Open
P918	J8_1	J8_2	130.00	600.0	130.0	0.0499	Open
P919	J8_1	J9_1	130.00	500.0	120.0	0.0144	Open
P920	J8_2	J8_3	130.00	150.0	130.0	0.1369	Open
P921	J8_2	J9_2	130.00	250.0	135.0	0.0677	Open
P922	J8_3	J8_4	130.00	250.0	140.0	0.0921	Open
P923	J8_3	J9_3	130.00	200.0	130.0	0.1030	Open
P924	J8_4	J8_5	130.00	300.0	135.0	0.0488	Open
P925	J8_4	J9_4	130.00	100.0	135.0	0.0054	Open
P926	J8_5	J8_6	130.00	300.0	130.0	0.1060	Open
P927	J8_5	J9_5	130.00	200.0	125.0	0.0367	Open
P928	J8_6	J8_7	130.00	300.0	125.0	0.0441	Open
P929	J8_6	J9_6	130.00	100.0	130.0	0.0981	Open
P930	J8_7	J8_8	130.00	300.0	135.0	0.0955	Open
P931	J8_7	J9_7	130.00	300.0	125.0	0.1047	Open
P932	J8_8	J8_9	130.00	250.0	130.0	0.0309	Open
P933	J8_8	J9_8	130.00	300.0	140.0	0.0016	Open
P934	J8_9	J8_10	130.00	400.0	120.0	0.0422	Open
P935	J8_9	J9_9	130.00	600.0	130.0	0.0182	Open
P936	J8_10	J8_11	130.00	150.0	140.0	0.0183	Open
P937	J8_10	J9_10	130.00	200.0	130.0	0.0121	Open
P938	J8_11	J8_12	130.00	100.0	130.0	0.0670	Open
P939	J8_11	J9_11	130.00	100.0	140.0	0.0789	Open
P940	J8_12	J8_13	130.00	100.0	130.0	0.0824	Open
P941	J8_12	J9_12	130.00	250.0	135.0	0.0640	Open
P942	J8_13	J8_14	130.00	200.0	125.0	0.0912	Open
P943	J8_13	J9_13	130.00	150.0	125.0	0.0719	Open
P944	J8_14	J8_15	130.00	300.0	135.0	0.0808	Open
P945	J8_14	J9_14	130.00	100.0	125.0	0.0167	Open
P946	J8_15	J8_16	130.00	100.0	125.0	0.1346	Open
P947	J8_15	J9_15	130.00	100.0	125.0	0.0979	Open
P948	J8_16	J8_17	130.00	250.0	135.0	0.0660	Open
P949	J8_16	J9_16	130.00	250.0	130.0	0.0729	Open
P950	J8_17	J8_18	130.00	300.0	120.0	0.0451	Open
P951	J8_17	J9_17	130.00	500.0	130.0	0.0104	Open
P952	J8_18	J8_19	130.00	300.0	135.0	0.0974	Open
P953	J8_18	J9_18	130.00	150.0	125.0	0.1480	Open
P954	J8_19	J8_20	130.00	200.0	125.0	0.1285	Open
P955	J8_19	J9_19	130.00	200.0	140.0	0.0696	Open
P956	J8_20	J8_21	130.00	200.0	125.0	0.1216	Open
P957	J8_20	J9_20	130.00	150.0	125.0	0.0179	Open
P958	J8_21	J8_22	130.00	250.0	130.0	0.0149	Open
P959	J8_21	J9_21	130.00	200.0	135.0	0.0163	Open
P960	J8_22	J8_23	130.00	300.0	135.0	0.1085	Open
P961	J8_22	J9_22	130.00	250.0	135.0	0.1095	Open
P962	J8_23	J8_24	130.00	150.0	125.0	0.0102	Open
P963	J8_23	J9_23	130.00	150.0	140.0	0.1353	Open
P964	J8_24	J8_25	130.00	300.0	125.0	0.1354	Open
P965	J8_24	J9_24	130.00	100.0	125.0	0.1319	Open
P966	J8_25	J8_26	130.00	350.0	125.0	0.0383	Open
P967	J8_25	J9_25	130.00	350.0	120.0	0.0368	Open
P968	J8_26	J8_27	130.00	150.0	125.0	0.0600	Open
P969	J8_26	J9_26	130.00	100.0	140.0	0.1004	Open
P970	J8_27	J8_28	130.00	300.0	140.0	0.0359	Open
P971	J8_27	J9_27	130.00	300.0	135.0	0.1281	Open
P972	J8_28	J8_29	130.00	100.0	135.0	0.1476	Open
P973	J8_28	J9_28	130.00	300.0	135.0	0.0465	Open
P974	J8_29	J8_30	130.00	250.0	135.0	0.0765	Open
P975	J8_29	J9_29	130.00	300.0	140.0	0.1445	Open
P976	J8_30	J8_31	130.00	150.0	135.0	0.1030	Open
P977	J8_30	J9_30	130.00	250.0	125.0	0.1136	Open
P978	J8_31	J8_32	130.00	150.0	130.0	0.0991	Open
P979	J8_31	J9_31	130.00	250.0	140.0	0.1094	Open
P980	J8_32	J8_33	130.00	200.0	135.0	0.0849	Open
P981	J8_32	J9_32	130.00	250.0	125.0	0.0085	Open
P982	J8_33	J8_34	130.00	350.0	120.0	0.0182	Open
P983	J8_33	J9_33	130.00	300.0	120.0	0.0422	Open
P984	J8_34	J8_35	130.00	100.0	135.0	0.0987	Open
P985	J8_34	J9_34	130.00	200.0	125.0	0.1159	Open
P986	J8_35	J8_36	130.00	300.0	135.0	0.0960	Open
P987	J8_35	J9_35	130.00	300.0	125.0	0.1411	Open
P988	J8_36	J8_37	130.00	250.0	135.0	0.1152	Open
P989	J8_36	J9_36	130.00	300.0	135.0	0.0739	Open
P990	J8_37	J8_38	130.00	100.0	130.0	0.1019	Open
P991	J8_37	J9_37	130.00	150.0	135.0	0.0587	Open
P992	J8_38	J8_39	130.00	150.0	140.0	0.0880	Open
P993	J8_38	J9_38	130.00	300.0	140.0	0.0035	Open
P994	J8_39	J8_40	130.00	100.0	125.0	0.0280	Open
P995	J8_39	J9_39	130.00	300.0	140.0	0.0020	Open
P996	J8_40	J8_41	130.00	300.0	125.0	0.1250	Open
P997	J8_40	J9_40	130.00	200.0	135.0	0.0514	Open
P998	J8_41	J8_42	130.00	400.0	120.0	0.0025	Open
P999	J8_41	J9_41	130.00	400.0	120.0	0.0396	Open
P1000	J8_42	J8_43	130.00	300.0	130.0	0.0564	Open
P1001	J8_42	J9_42	130.00	200.0	135.0	0.0096	Open
P1002	J8_43	J8_44	130.00	200.0	135.0	0.0502	Open
P1003	J8_43	J9_43	130.00	100.0	125.0	0.0194	Open
P1004	J8_44	J8_45	130.00	100.0	130.0	0.0289	Open
P1005	J8_44	J9_44	130.00	150.0	125.0	0.0721	Open
P1006	J8_45	J8_46	130.00	300.0	140.0	0.0053	Open
P1007	J8_45	J9_45	130.00	300.0	125.0	0.0483	Open
P1008	J8_46	J8_47	130.00	250.0	140.0	0.0895	Open
P1009	J8_46	J9_46	130.00	150.0	125.0	0.0862	Open
P1010	J8_47	J8_48	130.00	300.0	130.0	0.0487	Open
P1011	J8_47	J9_47	130.00	250.0	125.0	0.0994	Open
P1012	J8_48	J8_49	130.00	250.0	140.0	0.0779	Open
P1013	J8_48	J9_48	130.00	200.0	135.0	0.0390	Open
P1014	J8_49	J8_50	130.00	500.0	125.0	0.0012	Open
P1015	J8_49	J9_49	130.00	300.0	130.0	0.0357	Open
P1016	J8_50	J8_51	130.00	250.0	140.0	0.1332	Open
P1017	J8_50	J9_50	130.00	100.0	135.0	0.1043	Open
P1018	J8_51	J8_52	130.00	200.0	125.0	0.0264	Open
P1019	J8_51	J9_51	130.00	150.0	140.0	0.0406	Open
P1020	J8_52	J8_53	130.00	100.0	140.0	0.0901	Open
P1021	J8_52	J9_52	130.00	200.0	125.0	0.1258	Open
P1022	J8_53	J8_54	130.00	250.0	130.0	0.1284	Open
P1023	J8_53	J9_53	130.00	150.0	125.0	0.0049	Open
P1024	J8_54	J8_55	130.00	100.0	140.0	0.1131	Open
P1025	J8_54	J9_54	130.00	300.0	130.0	0.0006	Open
P1026	J8_55	J8_56	130.00	250.0	125.0	0.1121	Open
P1027	J8_55	J9_55	130.00	300.0	135.0	0.0838	Open
P1028	J8_56	J8_57	130.00	300.0	125.0	0.0072	Open
P1029	J8_56	J9_56	130.00	200.0	135.0	0.0493	Open
P1030	J8_57	J8_58	130.00	400.0	120.0	0.0216	Open
P1031	J8_57	J9_57	130.00	350.0	125.0	0.0215	Open
P1032	J8_58	J8_59	130.00	300.0	125.0	0.0583	Open
P1033	J8_58	J9_58	130.00	150.0	130.0	0.1227	Open
P1034	J8_59	J8_60	130.00	200.0	130.0	0.0225	Open
P1035	J8_59	J9_59	130.00	100.0	140.0	0.1071	Open
P1036	J8_60	J8_61	130.00	200.0	135.0	0.0184	Open
P1037	J8_60	J9_60	130.00	300.0	130.0	0.0692	Open
P1038	J8_61	J8_62	130.00	250.0	125.0	0.1463	Open
P1039	J8_61	J9_61	130.00	150.0	130.0	0.0448	Open
P1040	J8_62	J8_63	130.00	300.0	125.0	0.0503	Open
P1041	J8_62	J9_62	130.00	300.0	130.0	0.1366	Open
P1042	J8_63	J8_64	130.00	200.0	135.0	0.1364	Open
P1043	J8_63	J9_63	130.00	100.0	140.0	0.0117	Open
P1044	J8_64	J8_65	130.00	300.0	140.0	0.0144	Open
P1045	J8_64	J9_64	130.00	100.0	140.0	0.1411	Open
P1046	J8_65	J8_66	130.00	500.0	130.0	0.0431	Open
P1047	J8_65	J9_65	130.00	600.0	130.0	0.0376	Open
P1048	J8_66	J9_66	130.00	250.0	140.0	0.0619	Open
P1049	J9_1	J9_2	130.00	350.0	120.0	0.0097	Open
P1050	J9_1	J10_1	130.00	450.0	125.0	0.0262	Open
P1051	J9_2	J9_3	130.00	300.0	120.0	0.0155	Open
P1052	J9_2	J10_2	130.00	450.0	125.0	0.0471	Open
P1053	J9_3	J9_4	130.00	350.0	120.0	0.0245	Open
P1054	J9_3	J10_3	130.00	600.0	120.0	0.0483	Open
P1055	J9_4	J9_5	130.00	450.0	125.0	0.0261	Open
P1056	J9_4	J10_4	130.00	600.0	130.0	0.0129	Open
P1057	J9_5	J9_6	130.00	500.0	130.0	0.0350	Open
P1058	J9_5	J10_5	130.00	350.0	130.0	0.0407	Open
P1059	J9_6	J9_7	130.00	350.0	120.0	0.0199	Open
P1060	J9_6	J10_6	130.00	350.0	130.0	0.0012	Open
P1061	J9_7	J9_8	130.00	500.0	125.0	0.0099	Open
P1062	J9_7	J10_7	130.00	400.0	125.0	0.0435	Open
P1063	J9_8	J9_9	130.00	300.0	120.0	0.0267	Open
P1064	J9_8	J10_8	130.00	400.0	130.0	0.0372	Open
P1065	J9_9	J9_10	130.00	500.0	120.0	0.0241	Open
P1066	J9_9	J10_9	130.00	350.0	130.0	0.0023	Open
P1067	J9_10	J9_11	130.00	300.0	125.0	0.0311	Open
P1068	J9_10	J10_10	130.00	300.0	130.0	0.0069	Open
P1069	J9_11	J9_12	130.00	500.0	125.0	0.0447	Open
P1070	J9_11	J10_11	130.00	500.0	125.0	0.0032	Open
P1071	J9_12	J9_13	130.00	350.0	120.0	0.0316	Open
P1072	J9_12	J10_12	130.00	350.0	125.0	0.0341	Open
P1073	J9_13	J9_14	130.00	400.0	125.0	0.0173	Open
P1074	J9_13	J10_13	130.00	300.0	125.0	0.0322	Open
P1075	J9_14	J9_15	130.00	500.0	125.0	0.0476	Open
P1076	J9_14	J10_14	130.00	400.0	120.0	0.0481	Open
P1077	J9_15	J9_16	130.00	500.0	130.0	0.0384	Open
P1078	J9_15	J10_15	130.00	500.0	125.0	0.0400	Open
P1079	J9_16	J9_17	130.00	600.0	130.0	0.0190	Open
P1080	J9_16	J10_16	130.00	350.0	125.0	0.0057	Open
P1081	J9_17	J9_18	130.00	500.0	125.0	0.0170	Open
P1082	J9_17	J10_17	130.00	400.0	125.0	0.0163	Open
P1083	J9_18	J9_19	130.00	600.0	130.0	0.0290	Open
P1084	J9_18	J10_18	130.00	600.0	120.0	0.0036	Open
P1085	J9_19	J9_20	130.00	500.0	130.0	0.0467	Open
P1086	J9_19	J10_19	130.00	350.0	120.0	0.0293	Open
P1087	J9_20	J9_21	130.00	300.0	130.0	0.0070	Open
P1088	J9_20	J10_20	130.00	400.0	125.0	0.0241	Open
P1089	J9_21	J9_22	130.00	600.0	130.0	0.0303	Open
P1090	J9_21	J10_21	130.00	400.0	120.0	0.0290	Open
P1091	J9_22	J9_23	130.00	500.0	120.0	0.0290	Open
P1092	J9_22	J10_22	130.00	300.0	130.0	0.0109	Open
P1093	J9_23	J9_24	130.00	600.0	120.0	0.0390	Open
P1094	J9_23	J10_23	130.00	400.0	130.0	0.0258	Open
P1095	J9_24	J9_25	130.00	500.0	125.0	0.0201	Open
P1096	J9_24	J10_24	130.00	600.0	130.0	0.0247	Open
P1097	J9_25	J9_26	130.00	600.0	120.0	0.0424	Open
P1098	J9_25	J10_25	130.00	450.0	130.0	0.0032	Open
P1099	J9_26	J9_27	130.00	600.0	120.0	0.0183	Open
P1100	J9_26	J10_26	130.00	350.0	130.0	0.0170	Open
P1101	J9_27	J9_28	130.00	350.0	120.0	0.0180	Open
P1102	J9_27	J10_27	130.00	450.0	125.0	0.0255	Open
P1103	J9_28	J9_29	130.00	450.0	125.0	0.0484	Open
P1104	J9_28	J10_28	130.00	450.0	125.0	0.0025	Open
P1105	J9_29	J9_30	130.00	400.0	125.0	0.0366	Open
P1106	J9_29	J10_29	130.00	500.0	130.0	0.0359	Open
P1107	J9_30	J9_31	130.00	350.0	130.0	0.0006	Open
P1108	J9_30	J10_30	130.00	600.0	130.0	0.0030	Open
P1109	J9_31	J9_32	130.00	400.0	120.0	0.0424	Open
P1110	J9_31	J10_31	130.00	400.0	120.0	0.0337	Open
P1111	J9_32	J9_33	130.00	400.0	120.0	0.0051	Open
P1112	J9_32	J10_32	130.00	600.0	125.0	0.0434	Open
P1113	J9_33	J9_34	130.00	600.0	120.0	0.0153	Open
P1114	J9_33	J10_33	130.00	450.0	125.0	0.0242	Open
P1115	J9_34	J9_35	130.00	450.0	130.0	0.0167	Open
P1116	J9_34	J10_34	130.00	600.0	120.0	0.0215	Open
P1117	J9_35	J9_36	130.00	350.0	130.0	0.0349	Open
P1118	J9_35	J10_35	130.00	500.0	125.0	0.0327	Open
P1119	J9_36	J9_37	130.00	450.0	130.0	0.0328	Open
P1120	J9_36	J10_36	130.00	600.0	130.0	0.0251	Open
P1121	J9_37	J9_38	130.00	400.0	130.0	0.0317	Open
P1122	J9_37	J10_37	130.00	350.0	130.0	0.0213	Open
P1123	J9_38	J9_39	130.00	450.0	120.0	0.0488	Open
P1124	J9_38	J10_38	130.00	400.0	125.0	0.0061	Open
P1125	J9_39	J9_40	130.00	450.0	120.0	0.0263	Open
P1126	J9_39	J10_39	130.00	300.0	125.0	0.0302	Open
P1127	J9_40	J9_41	130.00	500.0	120.0	0.0242	Open
P1128	J9_40	J10_40	130.00	600.0	120.0	0.0389	Open
P1129	J9_41	J9_42	130.00	350.0	130.0	0.0424	Open
P1130	J9_41	J10_41	130.00	400.0	120.0	0.0304	Open
P1131	J9_42	J9_43	130.00	500.0	120.0	0.0147	Open
P1132	J9_42	J10_42	130.00	300.0	130.0	0.0302	Open
P1133	J9_43	J9_44	130.00	300.0	125.0	0.0137	Open
P1134	J9_43	J10_43	130.00	500.0	120.0	0.0157	Open
P1135	J9_44	J9_45	130.00	300.0	125.0	0.0225	Open
P1136	J9_44	J10_44	130.00	300.0	120.0	0.0387	Open
P1137	J9_45	J9_46	130.00	300.0	130.0	0.0001	Open
P1138	J9_45	J10_45	130.00	500.0	125.0	0.0489	Open
P1139	J9_46	J9_47	130.00	600.0	120.0	0.0155	Open
P1140	J9_46	J10_46	130.00	600.0	130.0	0.0283	Open
P1141	J9_47	J9_48	130.00	450.0	130.0	0.0010	Open
P1142	J9_47	J10_47	130.00	450.0	125.0	0.0219	Open
P1143	J9_48	J9_49	130.00	350.0	125.0	0.0370	Open
P1144	J9_48	J10_48	130.00	300.0	120.0	0.0083	Open
P1145	J9_49	J9_50	130.00	600.0	125.0	0.0273	Open
P1146	J9_49	J10_49	130.00	300.0	125.0	0.0069	Open
P1147	J9_50	J9_51	130.00	300.0	130.0	0.0492	Open
P1148	J9_50	J10_50	130.00	450.0	120.0	0.0223	Open
P1149	J9_51	J9_52	130.00	350.0	120.0	0.0087	Open
P1150	J9_51	J10_51	130.00	300.0	130.0	0.0128	Open
P1151	J9_52	J9_53	130.00	600.0	130.0	0.0188	Open
P1152	J9_52	J10_52	130.00	350.0	130.0	0.0302	Open
P1153	J9_53	J9_54	130.00	450.0	125.0	0.0492	Open
P1154	J9_53	J10_53	130.00	450.0	130.0	0.0337	Open
P1155	J9_54	J9_55	130.00	600.0	120.0	0.0175	Open
P1156	J9_54	J10_54	130.00	450.0	120.0	0.0007	Open
P1157	J9_55	J9_56	130.00	350.0	120.0	0.0405	Open
P1158	J9_55	J10_55	130.00	500.0	125.0	0.0007	Open
P1159	J9_56	J9_57	130.00	350.0	125.0	0.0201	Open
P1160	J9_56	J10_56	130.00	500.0	130.0	0.0272	Open
P1161	J9_57	J9_58	130.00	400.0	120.0	0.0131	Open
P1162	J9_57	J10_57	130.00	450.0	120.0	0.0293	Open
P1163	J9_58	J9_59	130.00	300.0	130.0	0.0279	Open
P1164	J9_58	J10_58	130.00	450.0	120.0	0.0032	Open
P1165	J9_59	J9_60	130.00	500.0	125.0	0.0007	Open
P1166	J9_59	J10_59	130.00	400.0	125.0	0.0046	Open
P1167	J9_60	J9_61	130.00	350.0	125.0	0.0312	Open
P1168	J9_60	J10_60	130.00	600.0	125.0	0.0008	Open
P1169	J9_61	J9_62	130.00	600.0	125.0	0.0077	Open
P1170	J9_61	J10_61	130.00	350.0	130.0	0.0089	Open
P1171	J9_62	J9_63	130.00	500.0	130.0	0.0104	Open
P1172	J9_62	J10_62	130.00	450.0	120.0	0.0061	Open
P1173	J9_63	J9_64	130.00	300.0	120.0	0.0263	Open
P1174	J9_63	J10_63	130.00	350.0	130.0	0.0191	Open
P1175	J9_64	J9_65	130.00	600.0	130.0	0.0005	Open
P1176	J9_64	J10_64	130.00	400.0	130.0	0.0257	Open
P1177	J9_65	J9_66	130.00	400.0	130.0	0.0332	Open
P1178	J9_65	J10_65	130.00	400.0	130.0	0.0184	Open
P1179	J9_66	J10_66	130.00	350.0	120.0	0.0390	Open
P1180	J10_1	J10_2	130.00	400.0	125.0	0.0455	Open
P1181	J10_1	J11_1	130.00	450.0	125.0	0.0406	Open
P1182	J10_2	J10_3	130.00	250.0	125.0	0.0525	Open
P1183	J10_2	J11_2	130.00	150.0	125.0	0.1220	Open
P1184	J10_3	J10_4	130.00	200.0	135.0	0.0486	Open
P1185	J10_3	J11_3	130.00	100.0	135.0	0.0779	Open
P1186	J10_4	J10_5	130.00	200.0	125.0	0.1288	Open
P1187	J10_4	J11_4	130.00	200.0	135.0	0.1325	Open
P1188	J10_5	J10_6	130.00	150.0	140.0	0.0340	Open
P1189	J10_5	J11_5	130.00	250.0	135.0	0.1347	Open
P1190	J10_6	J10_7	130.00	300.0	135.0	0.1455	Open
P1191	J10_6	J11_6	130.00	300.0	135.0	0.0589	Open
P1192	J10_7	J10_8	130.00	200.0	130.0	0.0139	Open
P1193	J10_7	J11_7	130.00	250.0	130.0	0.0651	Open
P1194	J10_8	J10_9	130.00	150.0	135.0	0.0286	Open
P1195	J10_8	J11_8	130.00	300.0	130.0	0.1240	Open
P1196	J10_9	J10_10	130.00	500.0	120.0	0.0266	Open
P1197	J10_9	J11_9	130.00	500.0	120.0	0.0483	Open
P1198	J10_10	J10_11	130.00	150.0	135.0	0.0699	Open
P1199	J10_10	J11_10	130.00	150.0	140.0	0.1186	Open
P1200	J10_11	J10_12	130.00	300.0	140.0	0.1167	Open
P1201	J10_11	J11_11	130.00	100.0	140.0	0.1182	Open
P1202	J10_12	J10_13	130.00	250.0	125.0	0.1071	Open
P1203	J10_12	J11_12	130.00	100.0	130.0	0.1355	Open
P1204	J10_13	J10_14	130.00	100.0	130.0	0.0603	Open
P1205	J10_13	J11_13	130.00	100.0	140.0	0.1338	Open
P1206	J10_14	J10_15	130.00	300.0	135.0	0.1290	Open
P1207	J10_14	J11_14	130.00	100.0	125.0	0.0819	Open
P1208	J10_15	J10_16	130.00	150.0	130.0	0.0507	Open
P1209	J10_15	J11_15	130.00	100.0	125.0	0.0127	Open
P1210	J10_16	J10_17	130.00	150.0	140.0	0.0690	Open
P1211	J10_16	J11_16	130.00	100.0	140.0	0.0808	Open
P1212	J10_17	J10_18	130.00	600.0	125.0	0.0218	Open
P1213	J10_17	J11_17	130.00	500.0	120.0	0.0216	Open
P1214	J10_18	J10_19	130.00	100.0	140.0	0.0450	Open
P1215	J10_18	J11_18	130.00	150.0	135.0	0.0081	Open
P1216	J10_19	J10_20	130.00	100.0	130.0	0.0479	Open
P1217	J10_19	J11_19	130.00	200.0	130.0	0.0981	Open
P1218	J10_20	J10_21	130.00	200.0	140.0	0.1164	Open
P1219	J10_20	J11_20	130.00	200.0	130.0	0.0957	Open
P1220	J10_21	J10_22	130.00	100.0	140.0	0.0703	Open
P1221	J10_21	J11_21	130.00	250.0	140.0	0.0193	Open
P1222	J10_22	J10_23	130.00	200.0	130.0	0.0500	Open
P1223	J10_22	J11_22	130.00	250.0	125.0	0.0855	Open
P1224	J10_23	J10_24	130.00	150.0	125.0	0.0338	Open
P1225	J10_23	J11_23	130.00	100.0	125.0	0.0921	Open
P1226	J10_24	J10_25	130.00	300.0	135.0	0.1256	Open
P1227	J10_24	J11_24	130.00	300.0	125.0	0.0381	Open
P1228	J10_25	J10_26	130.00	400.0	120.0	0.0323	Open
P1229	J10_25	J11_25	130.00	350.0	130.0	0.0212	Open
P1230	J10_26	J10_27	130.00	200.0	135.0	0.0820	Open
P1231	J10_26	J11_26	130.00	250.0	130.0	0.0922	Open
P1232	J10_27	J10_28	130.00	300.0	130.0	0.0873	Open
P1233	J10_27	J11_27	130.00	100.0	130.0	0.0040	Open
P1234	J10_28	J10_29	130.00	150.0	125.0	0.0820	Open
P1235	J10_28	J11_28	130.00	150.0	130.0	0.0436	Open
P1236	J10_29	J10_30	130.00	200.0	135.0	0.0647	Open
P1237	J10_29	J11_29	130.00	150.0	130.0	0.1121	Open
P1238	J10_30	J10_31	130.00	300.0	140.0	0.1102	Open
P1239	J10_30	J11_30	130.00	100.0	125.0	0.1241	Open
P1240	J10_31	J10_32	130.00	300.0	130.0	0.0901	Open
P1241	J10_31	J11_31	130.00	200.0	135.0	0.0232	Open
P1242	J10_32	J10_33	130.00	250.0	140.0	0.1212	Open
P1243	J10_32	J11_32	130.00	200.0	125.0	0.0291	Open
P1244	J10_33	J10_34	130.00	600.0	130.0	0.0344	Open
P1245	J10_33	J11_33	130.00	600.0	125.0	0.0490	Open
P1246	J10_34	J10_35	130.00	100.0	140.0	0.1407	Open
P1247	J10_34	J11_34	130.00	300.0	135.0	0.0869	Open
P1248	J10_35	J10_36	130.00	250.0	135.0	0.0969	Open
P1249	J10_35	J11_35	130.00	200.0	130.0	0.0331	Open
P1250	J10_36	J10_37	130.00	300.0	125.0	0.0151	Open
P1251	J10_36	J11_36	130.00	200.0	130.0	0.0146	Open
P1252	J10_37	J10_38	130.00	150.0	125.0	0.0402	Open
P1253	J10_37	J11_37	130.00	150.0	140.0	0.0507	Open
P1254	J10_38	J10_39	130.00	200.0	130.0	0.0936	Open
P1255	J10_38	J11_38	130.00	300.0	125.0	0.0748	Open
P1256	J10_39	J10_40	130.00	250.0	125.0	0.0976	Open
P1257	J10_39	J11_39	130.00	250.0	140.0	0.0535	Open
P1258	J10_40	J10_41	130.00	200.0	135.0	0.0146	Open
P1259	J10_40	J11_40	130.00	150.0	130.0	0.0770	Open
P1260	J10_41	J10_42	130.00	350.0	130.0	0.0345	Open
P1261	J10_41	J11_41	130.00	600.0	120.0	0.0011	Open
P1262	J10_42	J10_43	130.00	150.0	125.0	0.1364	Open
P1263	J10_42	J11_42	130.00	250.0	130.0	0.1366	Open
P1264	J10_43	J10_44	130.00	300.0	140.0	0.0371	Open
P1265	J10_43	J11_43	130.00	100.0	140.0	0.0670	Open
P1266	J10_44	J10_45	130.00	100.0	125.0	0.0441	Open
P1267	J10_44	J11_44	130.00	150.0	140.0	0.0761	Open
P1268	J10_45	J10_46	130.00	150.0	140.0	0.0984	Open
P1269	J10_45	J11_45	130.00	300.0	140.0	0.0383	Open
P1270	J10_46	J10_47	130.00	150.0	135.0	0.0786	Open
P1271	J10_46	J11_46	130.00	100.0	125.0	0.0268	Open
P1272	J10_47	J10_48	130.00	200.0	135.0	0.0676	Open
P1273	J10_47	J11_47	130.00	300.0	130.0	0.0316	Open
P1274	J10_48	J10_49	130.00	100.0	130.0	0.0157	Open
P1275	J10_48	J11_48	130.00	250.0	140.0	0.0057	Open
P1276	J10_49	J10_50	130.00	400.0	120.0	0.0055	Open
P1277	J10_49	J11_49	130.00	350.0	125.0	0.0152	Open
P1278	J10_50	J10_51	130.00	250.0	130.0	0.0776	Open
P1279	J10_50	J11_50	130.00	250.0	135.0	0.0975	Open
P1280	J10_51	J10_52	130.00	100.0	130.0	0.0116	Open
P1281	J10_51	J11_51	130.00	300.0	125.0	0.0154	Open
P1282	J10_52	J10_53	130.00	200.0	135.0	0.0498	Open
P1283	J10_52	J11_52	130.00	150.0	125.0	0.0030	Open
P1284	J10_53	J10_54	130.00	250.0	140.0	0.1329	Open
P1285	J10_53	J11_53	130.00	150.0	140.0	0.1022	Open
P1286	J10_54	J10_55	130.00	100.0	140.0	0.0074	Open
P1287	J10_54	J11_54	130.00	250.0	140.0	0.0798	Open
P1288	J10_55	J10_56	130.00	200.0	135.0	0.0878	Open
P1289	J10_55	J11_55	130.00	300.0	130.0	0.0784	Open
P1290	J10_56	J10_57	130.00	100.0	130.0	0.0489	Open
P1291	J10_56	J11_56	130.00	100.0	140.0	0.0952	Open
P1292	J10_57	J10_58	130.00	300.0	130.0	0.0264	Open
P1293	J10_57	J11_57	130.00	500.0	125.0	0.0129	Open
P1294	J10_58	J10_59	130.00	200.0	140.0	0.0207	Open
P1295	J10_58	J11_58	130.00	300.0	135.0	0.1297	Open
P1296	J10_59	J10_60	130.00	150.0	135.0	0.0506	Open
P1297	J10_59	J11_59	130.00	200.0	130.0	0.1228	Open
P1298	J10_60	J10_61	130.00	100.0	140.0	0.0226	Open
P1299	J10_60	J11_60	130.00	100.0	130.0	0.0598	Open
P1300	J10_61	J10_62	130.00	250.0	135.0	0.0169	Open
P1301	J10_61	J11_61	130.00	100.0	140.0	0.1164	Open
P1302	J10_62	J10_63	130.00	300.0	125.0	0.0389	Open
P1303	J10_62	J11_62	130.00	250.0	140.0	0.1265	Open
P1304	J10_63	J10_64	130.00	150.0	135.0	0.0505	Open
P1305	J10_63	J11_63	130.00	250.0	135.0	0.0738	Open
P1306	J10_64	J10_65	130.00	100.0	125.0	0.0427	Open
P1307	J10_64	J11_64	130.00	150.0	135.0	0.0670	Open
P1308	J10_65	J10_66	130.00	500.0	120.0	0.0199	Open
P1309	J10_65	J11_65	130.00	500.0	130.0	0.0399	Open
P1310	J10_66	J11_66	130.00	250.0	135.0	0.0187	Open
P1311	J11_1	J11_2	130.00	400.0	130.0	0.0253	Open
P1312	J11_1	J12_1	130.00	450.0	120.0	0.0422	Open
P1313	J11_2	J11_3	130.00	150.0	130.0	0.0006	Open
P1314	J11_2	J12_2	130.00	200.0	125.0	0.0777	Open
P1315	J11_3	J11_4	130.00	250.0	125.0	0.1009	Open
P1316	J11_3	J12_3	130.00	200.0	140.0	0.0385	Open
P1317	J11_4	J11_5	130.00	300.0	135.0	0.0143	Open
P1318	J11_4	J12_4	130.00	150.0	135.0	0.1457	Open
P1319	J11_5	J11_6	130.00	100.0	125.0	0.0756	Open
P1320	J11_5	J12_5	130.00	150.0	130.0	0.1033	Open
P1321	J11_6	J11_7	130.00	100.0	140.0	0.0877	Open
P1322	J11_6	J12_6	130.00	200.0	135.0	0.0733	Open
P1323	J11_7	J11_8	130.00	100.0	135.0	0.0275	Open
P1324	J11_7	J12_7	130.00	100.0	130.0	0.1237	Open
P1325	J11_8	J11_9	130.00	250.0	140.0	0.1482	Open
P1326	J11_8	J12_8	130.00	300.0	125.0	0.0984	Open
P1327	J11_9	J11_10	130.00	500.0	120.0	0.0098	Open
P1328	J11_9	J12_9	130.00	600.0	130.0	0.0228	Open
P1329	J11_10	J11_11	130.00	250.0	130.0	0.0192	Open
P1330	J11_10	J12_10	130.00	200.0	135.0	0.0651	Open
P1331	J11_11	J11_12	130.00	100.0	140.0	0.1091	Open
P1332	J11_11	J12_11	130.00	150.0	140.0	0.0737	Open
P1333	J11_12	J11_13	130.00	250.0	125.0	0.1163	Open
P1334	J11_12	J12_12	130.00	100.0	130.0	0.1160	Open
P1335	J11_13	J11_14	130.00	250.0	130.0	0.0790	Open
P1336	J11_13	J12_13	130.00	100.0	125.0	0.1349	Open
P1337	J11_14	J11_15	130.00	200.0	135.0	0.1203	Open
P1338	J11_14	J12_14	130.00	150.0	140.0	0.1479	Open
P1339	J11_15	J11_16	130.00	200.0	125.0	0.1473	Open
P1340	J11_15	J12_15	130.00	150.0	140.0	0.1159	Open
P1341	J11_16	J11_17	130.00	250.0	140.0	0.0865	Open
P1342	J11_16	J12_16	130.00	300.0	125.0	0.0589	Open
P1343	J11_17	J11_18	130.00	600.0	125.0	0.0284	Open
P1344	J11_17	J12_17	130.00	350.0	120.0	0.0006	Open
P1345	J11_18	J11_19	130.00	300.0	125.0	0.0999	Open
P1346	J11_18	J12_18	130.00	100.0	125.0	0.0843	Open
P1347	J11_19	J11_20	130.00	150.0	135.0	0.1064	Open
P1348	J11_19	J12_19	130.00	300.0	140.0	0.0188	Open
P1349	J11_20	J11_21	130.00	250.0	130.0	0.0433	Open
P1350	J11_20	J12_20	130.00	100.0	130.0	0.0058	Open
P1351	J11_21	J11_22	130.00	200.0	135.0	0.0042	Open
P1352	J11_21	J12_21	130.00	300.0	130.0	0.1450	Open
P1353	J11_22	J11_23	130.00	200.0	135.0	0.0771	Open
P1354	J11_22	J12_22	130.00	100.0	135.0	0.0748	Open
P1355	J11_23	J11_24	130.00	250.0	140.0	0.0381	Open
P1356	J11_23	J12_23	130.00	200.0	125.0	0.0286	Open
P1357	J11_24	J11_25	130.00	150.0	135.0	0.0625	Open
P1358	J11_24	J12_24	130.00	150.0	130.0	0.1042	Open
P1359	J11_25	J11_26	130.00	500.0	130.0	0.0396	Open
P1360	J11_25	J12_25	130.00	400.0	125.0	0.0076	Open
P1361	J11_26	J11_27	130.00	150.0	140.0	0.0247	Open
P1362	J11_26	J12_26	130.00	250.0	135.0	0.0396	Open
P1363	J11_27	J11_28	130.00	150.0	125.0	0.0407	Open
P1364	J11_27	J12_27	130.00	250.0	140.0	0.0956	Open
P1365	J11_28	J11_29	130.00	250.0	140.0	0.0712	Open
P1366	J11_28	J12_28	130.00	300.0	130.0	0.0226	Open
P1367	J11_29	J11_30	130.00	100.0	140.0	0.0036	Open
P1368	J11_29	J12_29	130.00	100.0	140.0	0.0066	Open
P1369	J11_30	J11_31	130.00	100.0	125.0	0.0798	Open
P1370	J11_30	J12_30	130.00	250.0	130.0	0.1375	Open
P1371	J11_31	J11_32	130.00	100.0	130.0	0.1428	Open
P1372	J11_31	J12_31	130.00	250.0	140.0	0.0280	Open
P1373	J11_32	J11_33	130.00	200.0	125.0	0.0144	Open
P1374	J11_32	J12_32	130.00	100.0	135.0	0.0226	Open
P1375	J11_33	J11_34	130.00	450.0	125.0	0.0085	Open
P1376	J11_33	J12_33	130.00	350.0	130.0	0.0362	Open
P1377	J11_34	J11_35	130.00	100.0	135.0	0.1049	Open
P1378	J11_34	J12_34	130.00	200.0	135.0	0.0102	Open
P1379	J11_35	J11_36	130.00	250.0	125.0	0.1263	Open
P1380	J11_35	J12_35	130.00	100.0	135.0	0.0635	Open
P1381	J11_36	J11_37	130.00	200.0	130.0	0.1188	Open
P1382	J11_36	J12_36	130.00	100.0	135.0	0.1138	Open
P1383	J11_37	J11_38	130.00	200.0	140.0	0.1075	Open
P1384	J11_37	J12_37	130.00	100.0	135.0	0.0182	Open
P1385	J11_38	J11_39	130.00	100.0	135.0	0.0728	Open
P1386	J11_38	J12_38	130.00	200.0	140.0	0.0329	Open
P1387	J11_39	J11_40	130.00	100.0	130.0	0.0344	Open
P1388	J11_39	J12_39	130.00	300.0	140.0	0.0435	Open
P1389	J11_40	J11_41	130.00	150.0	135.0	0.0423	Open
P1390	J11_40	J12_40	130.00	300.0	140.0	0.0525	Open
P1391	J11_41	J11_42	130.00	450.0	120.0	0.0083	Open
P1392	J11_41	J12_41	130.00	350.0	120.0	0.0026	Open
P1393	J11_42	J11_43	130.00	200.0	135.0	0.0392	Open
P1394	J11_42	J12_42	130.00	150.0	130.0	0.0582	Open
P1395	J11_43	J11_44	130.00	300.0	135.0	0.0455	Open
P1396	J11_43	J12_43	130.00	250.0	140.0	0.0874	Open
P1397	J11_44	J11_45	130.00	300.0	140.0	0.1179	Open
P1398	J11_44	J12_44	130.00	200.0	140.0	0.0661	Open
P1399	J11_45	J11_46	130.00	300.0	130.0	0.0175	Open
P1400	J11_45	J12_45	130.00	250.0	130.0	0.1428	Open
P1401	J11_46	J11_47	130.00	300.0	130.0	0.1003	Open
P1402	J11_46	J12_46	130.00	300.0	130.0	0.0893	Open
P1403	J11_47	J11_48	130.00	300.0	130.0	0.0481	Open
P1404	J11_47	J12_47	130.00	250.0	130.0	0.1233	Open
P1405	J11_48	J11_49	130.00	250.0	140.0	0.0282	Open
P1406	J11_48	J12_48	130.00	250.0	125.0	0.0128	Open
P1407	J11_49	J11_50	130.00	400.0	130.0	0.0069	Open
P1408	J11_49	J12_49	130.00	400.0	120.0	0.0497	Open
P1409	J11_50	J11_51	130.00	200.0	130.0	0.0350	Open
P1410	J11_50	J12_50	130.00	200.0	135.0	0.0853	Open
P1411	J11_51	J11_52	130.00	150.0	135.0	0.0991	Open
P1412	J11_51	J12_51	130.00	250.0	125.0	0.0887	Open
P1413	J11_52	J11_53	130.00	100.0	125.0	0.1152	Open
P1414	J11_52	J12_52	130.00	150.0	125.0	0.0411	Open
P1415	J11_53	J11_54	130.00	100.0	135.0	0.1317	Open
P1416	J11_53	J12_53	130.00	100.0	130.0	0.1171	Open
P1417	J11_54	J11_55	130.00	150.0	135.0	0.0146	Open
P1418	J11_54	J12_54	130.00	250.0	140.0	0.1188	Open
P1419	J11_55	J11_56	130.00	200.0	135.0	0.0735	Open
P1420	J11_55	J12_55	130.00	250.0	125.0	0.1392	Open
P1421	J11_56	J11_57	130.00	250.0	130.0	0.0877	Open
P1422	J11_56	J12_56	130.00	300.0	135.0	0.0646	Open
P1423	J11_57	J11_58	130.00	400.0	120.0	0.0164	Open
P1424	J11_57	J12_57	130.00	350.0	130.0	0.0279	Open
P1425	J11_58	J11_59	130.00	150.0	135.0	0.0981	Open
P1426	J11_58	J12_58	130.00	100.0	140.0	0.0146	Open
P1427	J11_59	J11_60	130.00	100.0	135.0	0.0888	Open
P1428	J11_59	J12_59	130.00	300.0	130.0	0.0094	Open
P1429	J11_60	J11_61	130.00	250.0	140.0	0.1238	Open
P1430	J11_60	J12_60	130.00	300.0	135.0	0.0366	Open
P1431	J11_61	J11_62	130.00	250.0	125.0	0.0010	Open
P1432	J11_61	J12_61	130.00	200.0	130.0	0.1054	Open
P1433	J11_62	J11_63	130.00	150.0	125.0	0.0453	Open
P1434	J11_62	J12_62	130.00	250.0	130.0	0.0518	Open
P1435	J11_63	J11_64	130.00	150.0	130.0	0.0998	Open
P1436	J11_63	J12_63	130.00	200.0	140.0	0.1055	Open
P1437	J11_64	J11_65	130.00	250.0	130.0	0.0988	Open
P1438	J11_64	J12_64	130.00	300.0	140.0	0.1158	Open
P1439	J11_65	J11_66	130.00	400.0	130.0	0.0303	Open
P1440	J11_65	J12_65	130.00	450.0	125.0	0.0273	Open
P1441	J11_66	J12_66	130.00	300.0	125.0	0.0027	Open
P1442	J12_1	J12_2	130.00	350.0	120.0	0.0253	Open
P1443	J12_1	J13_1	130.00	500.0	125.0	0.0095	Open
P1444	J12_2	J12_3	130.00	300.0	130.0	0.0067	Open
P1445	J12_2	J13_2	130.00	300.0	130.0	0.0296	Open
P1446	J12_3	J12_4	130.00	100.0	125.0	0.1229	Open
P1447	J12_3	J13_3	130.00	100.0	135.0	0.0811	Open
P1448	J12_4	J12_5	130.00	150.0	140.0	0.0027	Open
P1449	J12_4	J13_4	130.00	250.0	130.0	0.0884	Open
P1450	J12_5	J12_6	130.00	150.0	125.0	0.1472	Open
P1451	J12_5	J13_5	130.00	250.0	125.0	0.0099	Open
P1452	J12_6	J12_7	130.00	300.0	140.0	0.0214	Open
P1453	J12_6	J13_6	130.00	200.0	130.0	0.0839	Open
P1454	J12_7	J12_8	130.00	250.0	140.0	0.0175	Open
P1455	J12_7	J13_7	130.00	200.0	125.0	0.0663	Open
P1456	J12_8	J12_9	130.00	300.0	140.0	0.0623	Open
P1457	J12_8	J13_8	130.00	250.0	125.0	0.0483	Open
P1458	J12_9	J12_10	130.00	350.0	130.0	0.0155	Open
P1459	J12_9	J13_9	130.00	450.0	120.0	0.0431	Open
P1460	J12_10	J12_11	130.00	100.0	125.0	0.1237	Open
P1461	J12_10	J13_10	130.00	200.0	135.0	0.1308	Open
P1462	J12_11	J12_12	130.00	200.0	130.0	0.1048	Open
P1463	J12_11	J13_11	130.00	300.0	125.0	0.0423	Open
P1464	J12_12	J12_13	130.00	100.0	130.0	0.0510	Open
P1465	J12_12	J13_12	130.00	250.0	125.0	0.1244	Open
P1466	J12_13	J12_14	130.00	250.0	130.0	0.1098	Open
P1467	J12_13	J13_13	130.00	200.0	140.0	0.0249	Open
P1468	J12_14	J12_15	130.00	250.0	130.0	0.1106	Open
P1469	J12_14	J13_14	130.00	300.0	130.0	0.1284	Open
P1470	J12_15	J12_16	130.00	100.0	140.0	0.0061	Open
P1471	J12_15	J13_15	130.00	300.0	125.0	0.0316	Open
P1472	J12_16	J12_17	130.00	200.0	130.0	0.1436	Open
P1473	J12_16	J13_16	130.00	100.0	140.0	0.0667	Open
P1474	J12_17	J12_18	130.00	350.0	120.0	0.0352	Open
P1475	J12_17	J13_17	130.00	400.0	125.0	0.0027	Open
P1476	J12_18	J12_19	130.00	100.0	140.0	0.1432	Open
P1477	J12_18	J13_18	130.00	300.0	130.0	0.0319	Open
P1478	J12_19	J12_20	130.00	100.0	140.0	0.1209	Open
P1479	J12_19	J13_19	130.00	250.0	140.0	0.1432	Open
P1480	J12_20	J12_21	130.00	300.0	140.0	0.0388	Open
P1481	J12_20	J13_20	130.00	100.0	135.0	0.0049	Open
P1482	J12_21	J12_22	130.00	150.0	125.0	0.0520	Open
P1483	J12_21	J13_21	130.00	250.0	125.0	0.0749	Open
P1484	J12_22	J12_23	130.00	200.0	135.0	0.1320	Open
P1485	J12_22	J13_22	130.00	250.0	130.0	0.0386	Open
P1486	J12_23	J12_24	130.00	250.0	125.0	0.1169	Open
P1487	J12_23	J13_23	130.00	300.0	135.0	0.0621	Open
P1488	J12_24	J12_25	130.00	300.0	140.0	0.0418	Open
P1489	J12_24	J13_24	130.00	250.0	125.0	0.0058	Open
P1490	J12_25	J12_26	130.00	500.0	125.0	0.0085	Open
P1491	J12_25	J13_25	130.00	450.0	125.0	0.0214	Open
P1492	J12_26	J12_27	130.00	300.0	140.0	0.1468	Open
P1493	J12_26	J13_26	130.00	100.0	135.0	0.0063	Open
P1494	J12_27	J12_28	130.00	300.0	135.0	0.0014	Open
P1495	J12_27	J13_27	130.00	100.0	130.0	0.0694	Open
P1496	J12_28	J12_29	130.00	150.0	125.0	0.0205	Open
P1497	J12_28	J13_28	130.00	150.0	125.0	0.0251	Open
P1498	J12_29	J12_30	130.00	100.0	130.0	0.0540	Open
P1499	J12_29	J13_29	130.00	100.0	140.0	0.0730	Open
P1500	J12_30	J12_31	130.00	200.0	140.0	0.0606	Open
P1501	J12_30	J13_30	130.00	300.0	135.0	0.0874	Open
P1502	J12_31	J12_32	130.00	100.0	140.0	0.0182	Open
P1503	J12_31	J13_31	130.00	150.0	135.0	0.1313	Open
P1504	J12_32	J12_33	130.00	250.0	140.0	0.0671	Open
P1505	J12_32	J13_32	130.00	150.0	125.0	0.0154	Open
P1506	J12_33	J12_34	130.00	400.0	120.0	0.0392	Open
P1507	J12_33	J13_33	130.00	450.0	125.0	0.0034	Open
P1508	J12_34	J12_35	130.00	200.0	135.0	0.1141	Open
P1509	J12_34	J13_34	130.00	250.0	125.0	0.0738	Open
P1510	J12_35	J12_36	130.00	300.0	135.0	0.0417	Open
P1511	J12_35	J13_35	130.00	150.0	140.0	0.0773	Open
P1512	J12_36	J12_37	130.00	200.0	125.0	0.0372	Open
P1513	J12_36	J13_36	130.00	100.0	140.0	0.1448	Open
P1514	J12_37	J12_38	130.00	150.0	135.0	0.0133	Open
P1515	J12_37	J13_37	130.00	300.0	130.0	0.1195	Open
P1516	J12_38	J12_39	130.00	300.0	130.0	0.0610	Open
P1517	J12_38	J13_38	130.00	150.0	140.0	0.0194	Open
P1518	J12_39	J12_40	130.00	200.0	135.0	0.1080	Open
P1519	J12_39	J13_39	130.00	300.0	130.0	0.1310	Open
P1520	J12_40	J12_41	130.00	100.0	135.0	0.1323	Open
P1521	J12_40	J13_40	130.00	250.0	130.0	0.1134	Open
P1522	J12_41	J12_42	130.00	300.0	120.0	0.0179	Open
P1523	J12_41	J13_41	130.00	350.0	130.0	0.0375	Open
P1524	J12_42	J12_43	130.00	300.0	135.0	0.0366	Open
P1525	J12_42	J13_42	130.00	150.0	130.0	0.0288	Open
P1526	J12_43	J12_44	130.00	300.0	125.0	0.0434	Open
P1527	J12_43	J13_43	130.00	100.0	135.0	0.0436	Open
P1528	J12_44	J12_45	130.00	100.0	125.0	0.0668	Open
P1529	J12_44	J13_44	130.00	200.0	140.0	0.0485	Open
P1530	J12_45	J12_46	130.00	100.0	140.0	0.1127	Open
P1531	J12_45	J13_45	130.00	150.0	125.0	0.0917	Open
P1532	J12_46	J12_47	130.00	200.0	140.0	0.1155	Open
P1533	J12_46	J13_46	130.00	200.0	140.0	0.0451	Open
P1534	J12_47	J12_48	130.00	300.0	140.0	0.0285	Open
P1535	J12_47	J13_47	130.00	250.0	130.0	0.0847	Open
P1536	J12_48	J12_49	130.00	100.0	130.0	0.0271	Open
P1537	J12_48	J13_48	130.00	250.0	130.0	0.0924	Open
P1538	J12_49	J12_50	130.00	350.0	120.0	0.0022	Open
P1539	J12_49	J13_49	130.00	350.0	125.0	0.0058	Open
P1540	J12_50	J12_51	130.00	100.0	125.0	0.1088	Open
P1541	J12_50	J13_50	130.00	300.0	125.0	0.0496	Open
P1542	J12_51	J12_52	130.00	150.0	130.0	0.0931	Open
P1543	J12_51	J13_51	130.00	200.0	125.0	0.0157	Open
P1544	J12_52	J12_53	130.00	100.0	135.0	0.0304	Open
P1545	J12_52	J13_52	130.00	250.0	125.0	0.0238	Open
P1546	J12_53	J12_54	130.00	300.0	140.0	0.1278	Open
P1547	J12_53	J13_53	130.00	100.0	140.0	0.1279	Open
P1548	J12_54	J12_55	130.00	100.0	140.0	0.0037	Open
P1549	J12_54	J13_54	130.00	200.0	135.0	0.0331	Open
P1550	J12_55	J12_56	130.00	150.0	140.0	0.0021	Open
P1551	J12_55	J13_55	130.00	100.0	135.0	0.1297	Open
P1552	J12_56	J12_57	130.00	250.0	135.0	0.1451	Open
P1553	J12_56	J13_56	130.00	200.0	140.0	0.0647	Open
P1554	J12_57	J12_58	130.00	300.0	120.0	0.0285	Open
P1555	J12_57	J13_57	130.00	500.0	125.0	0.0293	Open
P1556	J12_58	J12_59	130.00	250.0	135.0	0.0611	Open
P1557	J12_58	J13_58	130.00	100.0	125.0	0.0488	Open
P1558	J12_59	J12_60	130.00	300.0	125.0	0.0187	Open
P1559	J12_59	J13_59	130.00	300.0	135.0	0.0235	Open
P1560	J12_60	J12_61	130.00	250.0	125.0	0.0157	Open
P1561	J12_60	J13_60	130.00	150.0	125.0	0.0026	Open
P1562	J12_61	J12_62	130.00	150.0	140.0	0.0405	Open
P1563	J12_61	J13_61	130.00	250.0	125.0	0.0077	Open
P1564	J12_62	J12_63	130.00	250.0	135.0	0.0512	Open
P1565	J12_62	J13_62	130.00	200.0	130.0	0.0707	Open
P1566	J12_63	J12_64	130.00	100.0	140.0	0.0312	Open
P1567	J12_63	J13_63	130.00	100.0	135.0	0.1357	Open
P1568	J12_64	J12_65	130.00	300.0	135.0	0.1059	Open
P1569	J12_64	J13_64	130.00	200.0	140.0	0.1304	Open
P1570	J12_65	J12_66	130.00	300.0	130.0	0.0082	Open
P1571	J12_65	J13_65	130.00	350.0	125.0	0.0309	Open
P1572	J12_66	J13_66	130.00	100.0	135.0	0.1195	Open
P1573	J13_1	J13_2	130.00	350.0	125.0	0.0443	Open
P1574	J13_1	J14_1	130.00	400.0	125.0	0.0207	Open
P1575	J13_2	J13_3	130.00	150.0	130.0	0.0558	Open
P1576	J13_2	J14_2	130.00	300.0	135.0	0.0115	Open
P1577	J13_3	J13_4	130.00	100.0	135.0	0.0028	Open
P1578	J13_3	J14_3	130.00	200.0	140.0	0.1238	Open
P1579	J13_4	J13_5	130.00	150.0	140.0	0.0940	Open
P1580	J13_4	J14_4	130.00	100.0	140.0	0.1479	Open
P1581	J13_5	J13_6	130.00	200.0	140.0	0.1303	Open
P1582	J13_5	J14_5	130.00	150.0	130.0	0.1459	Open
P1583	J13_6	J13_7	130.00	300.0	125.0	0.1205	Open
P1584	J13_6	J14_6	130.00	150.0	135.0	0.0607	Open
P1585	J13_7	J13_8	130.00	100.0	135.0	0.0061	Open
P1586	J13_7	J14_7	130.00	100.0	130.0	0.1268	Open
P1587	J13_8	J13_9	130.00	150.0	125.0	0.0874	Open
P1588	J13_8	J14_8	130.00	300.0	125.0	0.0162	Open
P1589	J13_9	J13_10	130.00	600.0	130.0	0.0175	Open
P1590	J13_9	J14_9	130.00	350.0	125.0	0.0384	Open
P1591	J13_10	J13_11	130.00	150.0	135.0	0.0580	Open
P1592	J13_10	J14_10	130.00	250.0	135.0	0.1387	Open
P1593	J13_11	J13_12	130.00	300.0	140.0	0.1227	Open
P1594	J13_11	J14_11	130.00	100.0	130.0	0.0038	Open
P1595	J13_12	J13_13	130.00	200.0	125.0	0.0055	Open
P1596	J13_12	J14_12	130.00	250.0	140.0	0.0721	Open
P1597	J13_13	J13_14	130.00	250.0	140.0	0.1486	Open
P1598	J13_13	J14_13	130.00	250.0	125.0	0.0558	Open
P1599	J13_14	J13_15	130.00	200.0	140.0	0.1297	Open
P1600	J13_14	J14_14	130.00	250.0	135.0	0.0458	Open
P1601	J13_15	J13_16	130.00	150.0	140.0	0.0390	Open
P1602	J13_15	J14_15	130.00	200.0	130.0	0.0573	Open
P1603	J13_16	J13_17	130.00	200.0	125.0	0.1173	Open
P1604	J13_16	J14_16	130.00	100.0	140.0	0.1183	Open
P1605	J13_17	J13_18	130.00	500.0	120.0	0.0286	Open
P1606	J13_17	J14_17	130.00	600.0	130.0	0.0342	Open
P1607	J13_18	J13_19	130.00	250.0	140.0	0.0253	Open
P1608	J13_18	J14_18	130.00	150.0	135.0	0.0794	Open
P1609	J13_19	J13_20	130.00	100.0	125.0	0.0949	Open
P1610	J13_19	J14_19	130.00	250.0	130.0	0.0155	Open
P1611	J13_20	J13_21	130.00	100.0	135.0	0.0374	Open
P1612	J13_20	J14_20	130.00	200.0	130.0	0.0861	Open
P1613	J13_21	J13_22	130.00	300.0	125.0	0.0488	Open
P1614	J13_21	J14_21	130.00	150.0	125.0	0.0342	Open
P1615	J13_22	J13_23	130.00	300.0	135.0	0.1356	Open
P1616	J13_22	J14_22	130.00	150.0	135.0	0.0210	Open
P1617	J13_23	J13_24	130.00	100.0	135.0	0.0526	Open
P1618	J13_23	J14_23	130.00	200.0	140.0	0.1483	Open
P1619	J13_24	J13_25	130.00	200.0	140.0	0.1431	Open
P1620	J13_24	J14_24	130.00	200.0	135.0	0.0063	Open
P1621	J13_25	J13_26	130.00	300.0	130.0	0.0499	Open
P1622	J13_25	J14_25	130.00	400.0	120.0	0.0255	Open
P1623	J13_26	J13_27	130.00	300.0	140.0	0.1365	Open
P1624	J13_26	J14_26	130.00	100.0	125.0	0.0472	Open
P1625	J13_27	J13_28	130.00	100.0	130.0	0.1009	Open
P1626	J13_27	J14_27	130.00	150.0	140.0	0.0723	Open
P1627	J13_28	J13_29	130.00	150.0	130.0	0.0708	Open
P1628	J13_28	J14_28	130.00	250.0	130.0	0.0204	Open
P1629	J13_29	J13_30	130.00	250.0	130.0	0.1387	Open
P1630	J13_29	J14_29	130.00	300.0	125.0	0.0798	Open
P1631	J13_30	J13_31	130.00	300.0	130.0	0.1396	Open
P1632	J13_30	J14_30	130.00	100.0	135.0	0.0470	Open
P1633	J13_31	J13_32	130.00	300.0	135.0	0.0165	Open
P1634	J13_31	J14_31	130.00	250.0	135.0	0.0998	Open
P1635	J13_32	J13_33	130.00	250.0	140.0	0.0266	Open
P1636	J13_32	J14_32	130.00	250.0	140.0	0.0962	Open
P1637	J13_33	J13_34	130.00	500.0	120.0	0.0281	Open
P1638	J13_33	J14_33	130.00	400.0	120.0	0.0374	Open
P1639	J13_34	J13_35	130.00	150.0	130.0	0.1220	Open
P1640	J13_34	J14_34	130.00	100.0	135.0	0.0428	Open
P1641	J13_35	J13_36	130.00	300.0	130.0	0.1148	Open
P1642	J13_35	J14_35	130.00	150.0	130.0	0.0669	Open
P1643	J13_36	J13_37	130.00	200.0	130.0	0.1436	Open
P1644	J13_36	J14_36	130.00	100.0	140.0	0.1361	Open
P1645	J13_37	J13_38	130.00	200.0	140.0	0.1373	Open
P1646	J13_37	J14_37	130.00	300.0	125.0	0.1120	Open
P1647	J13_38	J13_39	130.00	250.0	130.0	0.0887	Open
P1648	J13_38	J14_38	130.00	300.0	130.0	0.0758	Open
P1649	J13_39	J13_40	130.00	150.0	140.0	0.0902	Open
P1650	J13_39	J14_39	130.00	150.0	130.0	0.0844	Open
P1651	J13_40	J13_41	130.00	150.0	130.0	0.1090	Open
P1652	J13_40	J14_40	130.00	100.0	130.0	0.0558	Open
P1653	J13_41	J13_42	130.00	600.0	120.0	0.0459	Open
P1654	J13_41	J14_41	130.00	350.0	120.0	0.0386	Open
P1655	J13_42	J13_43	130.00	100.0	135.0	0.0257	Open
P1656	J13_42	J14_42	130.00	250.0	130.0	0.0770	Open
P1657	J13_43	J13_44	130.00	200.0	135.0	0.0079	Open
P1658	J13_43	J14_43	130.00	300.0	130.0	0.0973	Open
P1659	J13_44	J13_45	130.00	100.0	125.0	0.0439	Open
P1660	J13_44	J14_44	130.00	250.0	130.0	0.1131	Open
P1661	J13_45	J13_46	130.00	200.0	140.0	0.0362	Open
P1662	J13_45	J14_45	130.00	100.0	130.0	0.1061	Open
P1663	J13_46	J13_47	130.00	200.0	130.0	0.1163	Open
P1664	J13_46	J14_46	130.00	250.0	125.0	0.1388	Open
P1665	J13_47	J13_48	130.00	250.0	135.0	0.0058	Open
P1666	J13_47	J14_47	130.00	150.0	135.0	0.1374	Open
P1667	J13_48	J13_49	130.00	200.0	125.0	0.0161	Open
P1668	J13_48	J14_48	130.00	200.0	135.0	0.0267	Open
P1669	J13_49	J13_50	130.00	450.0	130.0	0.0206	Open
P1670	J13_49	J14_49	130.00	450.0	125.0	0.0476	Open
P1671	J13_50	J13_51	130.00	150.0	125.0	0.0440	Open
P1672	J13_50	J14_50	130.00	200.0	140.0	0.0618	Open
P1673	J13_51	J13_52	130.00	200.0	140.0	0.1321	Open
P1674	J13_51	J14_51	130.00	150.0	125.0	0.0012	Open
P1675	J13_52	J13_53	130.00	200.0	135.0	0.1475	Open
P1676	J13_52	J14_52	130.00	250.0	140.0	0.0580	Open
P1677	J13_53	J13_54	130.00	250.0	130.0	0.1395	Open
P1678	J13_53	J14_53	130.00	200.0	140.0	0.1303	Open
P1679	J13_54	J13_55	130.00	300.0	130.0	0.0405	Open
P1680	J13_54	J14_54	130.00	200.0	125.0	0.0583	Open
P1681	J13_55	J13_56	130.00	150.0	130.0	0.0186	Open
P1682	J13_55	J14_55	130.00	250.0	135.0	0.1307	Open
P1683	J13_56	J13_57	130.00	150.0	130.0	0.0775	Open
P1684	J13_56	J14_56	130.00	100.0	135.0	0.0193	Open
P1685	J13_57	J13_58	130.00	400.0	120.0	0.0077	Open
P1686	J13_57	J14_57	130.00	450.0	125.0	0.0301	Open
P1687	J13_58	J13_59	130.00	300.0	130.0	0.0274	Open
P1688	J13_58	J14_58	130.00	250.0	135.0	0.0342	Open
P1689	J13_59	J13_60	130.00	200.0	140.0	0.0880	Open
P1690	J13_59	J14_59	130.00	200.0	125.0	0.1367	Open
P1691	J13_60	J13_61	130.00	300.0	140.0	0.0080	Open
P1692	J13_60	J14_60	130.00	150.0	135.0	0.0276	Open
P1693	J13_61	J13_62	130.00	300.0	130.0	0.0713	Open
P1694	J13_61	J14_61	130.00	150.0	130.0	0.1361	Open
P1695	J13_62	J13_63	130.00	300.0	135.0	0.1488	Open
P1696	J13_62	J14_62	130.00	300.0	125.0	0.0260	Open
P1697	J13_63	J13_64	130.00	100.0	135.0	0.0528	Open
P1698	J13_63	J14_63	130.00	300.0	140.0	0.0930	Open
P1699	J13_64	J13_65	130.00	300.0	135.0	0.1368	Open
P1700	J13_64	J14_64	130.00	200.0	130.0	0.0916	Open
P1701	J13_65	J13_66	130.00	400.0	130.0	0.0004	Open
P1702	J13_65	J14_65	130.00	350.0	130.0	0.0381	Open
P1703	J13_66	J14_66	130.00	150.0	130.0	0.0955	Open
P1704	J14_1	J14_2	130.00	400.0	120.0	0.0023	Open
P1705	J14_1	J15_1	130.00	450.0	120.0	0.0336	Open
P1706	J14_2	J14_3	130.00	200.0	140.0	0.1018	Open
P1707	J14_2	J15_2	130.00	100.0	135.0	0.0924	Open
P1708	J14_3	J14_4	130.00	200.0	140.0	0.1476	Open
P1709	J14_3	J15_3	130.00	150.0	140.0	0.0461	Open
P1710	J14_4	J14_5	130.00	250.0	130.0	0.0303	Open
P1711	J14_4	J15_4	130.00	100.0	140.0	0.0221	Open
P1712	J14_5	J14_6	130.00	100.0	130.0	0.1456	Open
P1713	J14_5	J15_5	130.00	100.0	140.0	0.0772	Open
P1714	J14_6	J14_7	130.00	100.0	140.0	0.1065	Open
P1715	J14_6	J15_6	130.00	150.0	140.0	0.0833	Open
P1716	J14_7	J14_8	130.00	200.0	135.0	0.1407	Open
P1717	J14_7	J15_7	130.00	100.0	140.0	0.1349	Open
P1718	J14_8	J14_9	130.00	250.0	135.0	0.0423	Open
P1719	J14_8	J15_8	130.00	200.0	140.0	0.0351	Open
P1720	J14_9	J14_10	130.00	300.0	125.0	0.0305	Open
P1721	J14_9	J15_9	130.00	600.0	120.0	0.0277	Open
P1722	J14_10	J14_11	130.00	100.0	130.0	0.0651	Open
P1723	J14_10	J15_10	130.00	300.0	125.0	0.0668	Open
P1724	J14_11	J14_12	130.00	150.0	125.0	0.0217	Open
P1725	J14_11	J15_11	130.00	150.0	130.0	0.0466	Open
P1726	J14_12	J14_13	130.00	100.0	135.0	0.0263	Open
P1727	J14_12	J15_12	130.00	100.0	135.0	0.0504	Open
P1728	J14_13	J14_14	130.00	100.0	135.0	0.0372	Open
P1729	J14_13	J15_13	130.00	300.0	130.0	0.0415	Open
P1730	J14_14	J14_15	130.00	200.0	130.0	0.1025	Open
P1731	J14_14	J15_14	130.00	250.0	125.0	0.1140	Open
P1732	J14_15	J14_16	130.00	300.0	130.0	0.0505	Open
P1733	J14_15	J15_15	130.00	300.0	130.0	0.0804	Open
P1734	J14_16	J14_17	130.00	300.0	135.0	0.0393	Open
P1735	J14_16	J15_16	130.00	100.0	130.0	0.0928	Open
P1736	J14_17	J14_18	130.00	600.0	130.0	0.0095	Open
P1737	J14_17	J15_17	130.00	450.0	125.0	0.0182	Open
P1738	J14_18	J14_19	130.00	300.0	130.0	0.0295	Open
P1739	J14_18	J15_18	130.00	200.0	130.0	0.0823	Open
P1740	J14_19	J14_20	130.00	100.0	130.0	0.0036	Open
P1741	J14_19	J15_19	130.00	250.0	140.0	0.0718	Open
P1742	J14_20	J14_21	130.00	300.0	130.0	0.0061	Open
P1743	J14_20	J15_20	130.00	100.0	140.0	0.1115	Open
P1744	J14_21	J14_22	130.00	250.0	125.0	0.0927	Open
P1745	J14_21	J15_21	130.00	250.0	130.0	0.0702	Open
P1746	J14_22	J14_23	130.00	100.0	125.0	0.0822	Open
P1747	J14_22	J15_22	130.00	300.0	130.0	0.1220	Open
P1748	J14_23	J14_24	130.00	150.0	140.0	0.0705	Open
P1749	J14_23	J15_23	130.00	100.0	125.0	0.0900	Open
P1750	J14_24	J14_25	130.00	200.0	125.0	0.0491	Open
P1751	J14_24	J15_24	130.00	250.0	140.0	0.0938	Open
P1752	J14_25	J14_26	130.00	450.0	130.0	0.0196	Open
P1753	J14_25	J15_25	130.00	500.0	125.0	0.0056	Open
P1754	J14_26	J14_27	130.00	200.0	125.0	0.0053	Open
P1755	J14_26	J15_26	130.00	300.0	140.0	0.0730	Open
P1756	J14_27	J14_28	130.00	100.0	125.0	0.0546	Open
P1757	J14_27	J15_27	130.00	100.0	140.0	0.1174	Open
P1758	J14_28	J14_29	130.00	100.0	130.0	0.1402	Open
P1759	J14_28	J15_28	130.00	200.0	130.0	0.0334	Open
P1760	J14_29	J14_30	130.00	100.0	125.0	0.0875	Open
P1761	J14_29	J15_29	130.00	200.0	130.0	0.0832	Open
P1762	J14_30	J14_31	130.00	150.0	125.0	0.0157	Open
P1763	J14_30	J15_30	130.00	300.0	125.0	0.0864	Open
P1764	J14_31	J14_32	130.00	300.0	125.0	0.0559	Open
P1765	J14_31	J15_31	130.00	300.0	125.0	0.1046	Open
P1766	J14_32	J14_33	130.00	150.0	140.0	0.0872	Open
P1767	J14_32	J15_32	130.00	100.0	135.0	0.0050	Open
P1768	J14_33	J14_34	130.00	300.0	130.0	0.0366	Open
P1769	J14_33	J15_33	130.00	600.0	120.0	0.0067	Open
P1770	J14_34	J14_35	130.00	150.0	130.0	0.0287	Open
P1771	J14_34	J15_34	130.00	250.0	135.0	0.0107	Open
P1772	J14_35	J14_36	130.00	100.0	135.0	0.0440	Open
P1773	J14_35	J15_35	130.00	200.0	130.0	0.0746	Open
P1774	J14_36	J14_37	130.00	100.0	140.0	0.0553	Open
P1775	J14_36	J15_36	130.00	100.0	140.0	0.0722	Open
P1776	J14_37	J14_38	130.00	200.0	140.0	0.0130	Open
P1777	J14_37	J15_37	130.00	250.0	130.0	0.0043	Open
P1778	J14_38	J14_39	130.00	200.0	140.0	0.0037	Open
P1779	J14_38	J15_38	130.00	100.0	125.0	0.0120	Open
P1780	J14_39	J14_40	130.00	150.0	130.0	0.1061	Open
P1781	J14_39	J15_39	130.00	250.0	125.0	0.0704	Open
P1782	J14_40	J14_41	130.00	100.0	135.0	0.0312	Open
P1783	J14_40	J15_40	130.00	150.0	140.0	0.1361	Open
P1784	J14_41	J14_42	130.00	400.0	120.0	0.0394	Open
P1785	J14_41	J15_41	130.00	400.0	120.0	0.0210	Open
P1786	J14_42	J14_43	130.00	100.0	125.0	0.0796	Open
P1787	J14_42	J15_42	130.00	250.0	125.0	0.1025	Open
P1788	J14_43	J14_44	130.00	250.0	135.0	0.1071	Open
P1789	J14_43	J15_43	130.00	150.0	135.0	0.0794	Open
P1790	J14_44	J14_45	130.00	250.0	140.0	0.0199	Open
P1791	J14_44	J15_44	130.00	250.0	140.0	0.0858	Open
P1792	J14_45	J14_46	130.00	300.0	140.0	0.1322	Open
P1793	J14_45	J15_45	130.00	200.0	135.0	0.0860	Open
P1794	J14_46	J14_47	130.00	100.0	135.0	0.1439	Open
P1795	J14_46	J15_46	130.00	100.0	130.0	0.0515	Open
P1796	J14_47	J14_48	130.00	300.0	130.0	0.0679	Open
P1797	J14_47	J15_47	130.00	250.0	125.0	0.0968	Open
P1798	J14_48	J14_49	130.00	300.0	140.0	0.0609	Open
P1799	J14_48	J15_48	130.00	100.0	135.0	0.1266	Open
P1800	J14_49	J14_50	130.00	600.0	130.0	0.0271	Open
P1801	J14_49	J15_49	130.00	600.0	130.0	0.0030	Open
P1802	J14_50	J14_51	130.00	100.0	125.0	0.1453	Open
P1803	J14_50	J15_50	130.00	200.0	130.0	0.1343	Open
P1804	J14_51	J14_52	130.00	150.0	140.0	0.0228	Open
P1805	J14_51	J15_51	130.00	100.0	135.0	0.0795	Open
P1806	J14_52	J14_53	130.00	250.0	130.0	0.0672	Open
P1807	J14_52	J15_52	130.00	200.0	130.0	0.0617	Open
P1808	J14_53	J14_54	130.00	150.0	140.0	0.1080	Open
P1809	J14_53	J15_53	130.00	150.0	135.0	0.0589	Open
P1810	J14_54	J14_55	130.00	300.0	125.0	0.0320	Open
P1811	J14_54	J15_54	130.00	250.0	140.0	0.0733	Open
P1812	J14_55	J14_56	130.00	300.0	140.0	0.0697	Open
P1813	J14_55	J15_55	130.00	100.0	135.0	0.0569	Open
P1814	J14_56	J14_57	130.00	300.0	140.0	0.0958	Open
P1815	J14_56	J15_56	130.00	200.0	135.0	0.0309	Open
P1816	J14_57	J14_58	130.00	600.0	120.0	0.0025	Open
P1817	J14_57	J15_57	130.00	400.0	125.0	0.0095	Open
P1818	J14_58	J14_59	130.00	300.0	130.0	0.0676	Open
P1819	J14_58	J15_58	130.00	200.0	140.0	0.0965	Open
P1820	J14_59	J14_60	130.00	100.0	125.0	0.0798	Open
P1821	J14_59	J15_59	130.00	200.0	135.0	0.0194	Open
P1822	J14_60	J14_61	130.00	250.0	130.0	0.0729	Open
P1823	J14_60	J15_60	130.00	250.0	125.0	0.0152	Open
P1824	J14_61	J14_62	130.00	250.0	125.0	0.1100	Open
P1825	J14_61	J15_61	130.00	250.0	135.0	0.1278	Open
P1826	J14_62	J14_63	130.00	100.0	135.0	0.1434	Open
P1827	J14_62	J15_62	130.00	200.0	130.0	0.1470	Open
P1828	J14_63	J14_64	130.00	100.0	125.0	0.1371	Open
P1829	J14_63	J15_63	130.00	250.0	130.0	0.0372	Open
P1830	J14_64	J14_65	130.00	100.0	140.0	0.0466	Open
P1831	J14_64	J15_64	130.00	100.0	130.0	0.0365	Open
P1832	J14_65	J14_66	130.00	600.0	130.0	0.0063	Open
P1833	J14_65	J15_65	130.00	350.0	125.0	0.0190	Open
P1834	J14_66	J15_66	130.00	300.0	125.0	0.0664	Open
P1835	J15_1	J15_2	130.00	600.0	130.0	0.0159	Open
P1836	J15_1	J16_1	130.00	600.0	120.0	0.0067	Open
P1837	J15_2	J15_3	130.00	300.0	130.0	0.0933	Open
P1838	J15_2	J16_2	130.00	100.0	135.0	0.1471	Open
P1839	J15_3	J15_4	130.00	150.0	135.0	0.1017	Open
P1840	J15_3	J16_3	130.00	100.0	125.0	0.0465	Open
P1841	J15_4	J15_5	130.00	250.0	125.0	0.0395	Open
P1842	J15_4	J16_4	130.00	100.0	125.0	0.0868	Open
P1843	J15_5	J15_6	130.00	300.0	125.0	0.1365	Open
P1844	J15_5	J16_5	130.00	150.0	140.0	0.1013	Open
P1845	J15_6	J15_7	130.00	100.0	140.0	0.1000	Open
P1846	J15_6	J16_6	130.00	100.0	125.0	0.1049	Open
P1847	J15_7	J15_8	130.00	300.0	135.0	0.0482	Open
P1848	J15_7	J16_7	130.00	200.0	140.0	0.0982	Open
P1849	J15_8	J15_9	130.00	300.0	130.0	0.0519	Open
P1850	J15_8	J16_8	130.00	300.0	135.0	0.1001	Open
P1851	J15_9	J15_10	130.00	400.0	125.0	0.0329	Open
P1852	J15_9	J16_9	130.00	600.0	130.0	0.0339	Open
P1853	J15_10	J15_11	130.00	100.0	130.0	0.0624	Open
P1854	J15_10	J16_10	130.00	100.0	125.0	0.0771	Open
P1855	J15_11	J15_12	130.00	200.0	140.0	0.0890	Open
P1856	J15_11	J16_11	130.00	150.0	125.0	0.0441	Open
P1857	J15_12	J15_13	130.00	100.0	140.0	0.1027	Open
P1858	J15_12	J16_12	130.00	100.0	140.0	0.0552	Open
P1859	J15_13	J15_14	130.00	300.0	125.0	0.0736	Open
P1860	J15_13	J16_13	130.00	100.0	135.0	0.1130	Open
P1861	J15_14	J15_15	130.00	250.0	125.0	0.0331	Open
P1862	J15_14	J16_14	130.00	300.0	130.0	0.0831	Open
P1863	J15_15	J15_16	130.00	300.0	140.0	0.1323	Open
P1864	J15_15	J16_15	130.00	250.0	135.0	0.0731	Open
P1865	J15_16	J15_17	130.00	250.0	130.0	0.1338	Open
P1866	J15_16	J16_16	130.00	150.0	125.0	0.1185	Open
P1867	J15_17	J15_18	130.00	350.0	125.0	0.0212	Open
P1868	J15_17	J16_17	130.00	400.0	125.0	0.0078	Open
P1869	J15_18	J15_19	130.00	250.0	135.0	0.1005	Open
P1870	J15_18	J16_18	130.00	100.0	125.0	0.1009	Open
P1871	J15_19	J15_20	130.00	150.0	135.0	0.0489	Open
P1872	J15_19	J16_19	130.00	300.0	130.0	0.1132	Open
P1873	J15_20	J15_21	130.00	250.0	130.0	0.0194	Open
P1874	J15_20	J16_20	130.00	250.0	135.0	0.0768	Open
P1875	J15_21	J15_22	130.00	150.0	130.0	0.0662	Open
P1876	J15_21	J16_21	130.00	150.0	130.0	0.1206	Open
P1877	J15_22	J15_23	130.00	300.0	135.0	0.0416	Open
P1878	J15_22	J16_22	130.00	250.0	125.0	0.0472	Open
P1879	J15_23	J15_24	130.00	300.0	135.0	0.0040	Open
P1880	J15_23	J16_23	130.00	250.0	130.0	0.1102	Open
P1881	J15_24	J15_25	130.00	200.0	130.0	0.0283	Open
P1882	J15_24	J16_24	130.00	200.0	130.0	0.1320	Open
P1883	J15_25	J15_26	130.00	300.0	125.0	0.0271	Open
P1884	J15_25	J16_25	130.00	450.0	125.0	0.0112	Open
P1885	J15_26	J15_27	130.00	200.0	130.0	0.1331	Open
P1886	J15_26	J16_26	130.00	250.0	125.0	0.1306	Open
P1887	J15_27	J15_28	130.00	200.0	125.0	0.0935	Open
P1888	J15_27	J16_27	130.00	250.0	125.0	0.0189	Open
P1889	J15_28	J15_29	130.00	200.0	130.0	0.1085	Open
P1890	J15_28	J16_28	130.00	200.0	130.0	0.0870	Open
P1891	J15_29	J15_30	130.00	300.0	125.0	0.0728	Open
P1892	J15_29	J16_29	130.00	200.0	135.0	0.0567	Open
P1893	J15_30	J15_31	130.00	150.0	135.0	0.0972	Open
P1894	J15_30	J16_30	130.00	150.0	135.0	0.1290	Open
P1895	J15_31	J15_32	130.00	150.0	140.0	0.0278	Open
P1896	J15_31	J16_31	130.00	100.0	125.0	0.0319	Open
P1897	J15_32	J15_33	130.00	100.0	140.0	0.0418	Open
P1898	J15_32	J16_32	130.00	250.0	140.0	0.0260	Open
P1899	J15_33	J15_34	130.00	300.0	120.0	0.0273	Open
P1900	J15_33	J16_33	130.00	500.0	125.0	0.0462	Open
P1901	J15_34	J15_35	130.00	300.0	125.0	0.0472	Open
P1902	J15_34	J16_34	130.00	300.0	135.0	0.1075	Open
P1903	J15_35	J15_36	130.00	300.0	135.0	0.0715	Open
P1904	J15_35	J16_35	130.00	250.0	130.0	0.0770	Open
P1905	J15_36	J15_37	130.00	100.0	130.0	0.0573	Open
P1906	J15_36	J16_36	130.00	250.0	130.0	0.0253	Open
P1907	J15_37	J15_38	130.00	100.0	130.0	0.0125	Open
P1908	J15_37	J16_37	130.00	100.0	130.0	0.0850	Open
P1909	J15_38	J15_39	130.00	100.0	130.0	0.0323	Open
P1910	J15_38	J16_38	130.00	100.0	130.0	0.0300	Open
P1911	J15_39	J15_40	130.00	200.0	130.0	0.1142	Open
P1912	J15_39	J16_39	130.00	300.0	125.0	0.1313	Open
P1913	J15_40	J15_41	130.00	300.0	135.0	0.0910	Open
P1914	J15_40	J16_40	130.00	300.0	130.0	0.0720	Open
P1915	J15_41	J15_42	130.00	400.0	130.0	0.0032	Open
P1916	J15_41	J16_41	130.00	400.0	130.0	0.0433	Open
P1917	J15_42	J15_43	130.00	150.0	130.0	0.1355	Open
P1918	J15_42	J16_42	130.00	250.0	140.0	0.1062	Open
P1919	J15_43	J15_44	130.00	250.0	140.0	0.0453	Open
P1920	J15_43	J16_43	130.00	150.0	135.0	0.0217	Open
P1921	J15_44	J15_45	130.00	300.0	135.0	0.1326	Open
P1922	J15_44	J16_44	130.00	250.0	125.0	0.1358	Open
P1923	J15_45	J15_46	130.00	200.0	140.0	0.0377	Open
P1924	J15_45	J16_45	130.00	150.0	140.0	0.1049	Open
P1925	J15_46	J15_47	130.00	200.0	140.0	0.0967	Open
P1926	J15_46	J16_46	130.00	100.0	130.0	0.0335	Open
P1927	J15_47	J15_48	130.00	250.0	140.0	0.1254	Open
P1928	J15_47	J16_47	130.00	150.0	135.0	0.0009	Open
P1929	J15_48	J15_49	130.00	200.0	140.0	0.0074	Open
P1930	J15_48	J16_48	130.00	300.0	140.0	0.0446	Open
P1931	J15_49	J15_50	130.00	600.0	120.0	0.0043	Open
P1932	J15_49	J16_49	130.00	500.0	125.0	0.0391	Open
P1933	J15_50	J15_51	130.00	250.0	140.0	0.0435	Open
P1934	J15_50	J16_50	130.00	300.0	125.0	0.1002	Open
P1935	J15_51	J15_52	130.00	250.0	135.0	0.1167	Open
P1936	J15_51	J16_51	130.00	200.0	135.0	0.1024	Open
P1937	J15_52	J15_53	130.00	150.0	135.0	0.1353	Open
P1938	J15_52	J16_52	130.00	150.0	125.0	0.0824	Open
P1939	J15_53	J15_54	130.00	150.0	125.0	0.0862	Open
P1940	J15_53	J16_53	130.00	300.0	140.0	0.1038	Open
P1941	J15_54	J15_55	130.00	150.0	130.0	0.0398	Open
P1942	J15_54	J16_54	130.00	100.0	140.0	0.0489	Open
P1943	J15_55	J15_56	130.00	300.0	135.0	0.0082	Open
P1944	J15_55	J16_55	130.00	100.0	130.0	0.1107	Open
P1945	J15_56	J15_57	130.00	100.0	125.0	0.0990	Open
P1946	J15_56	J16_56	130.00	200.0	140.0	0.0201	Open
P1947	J15_57	J15_58	130.00	300.0	125.0	0.0003	Open
P1948	J15_57	J16_57	130.00	500.0	125.0	0.0284	Open
P1949	J15_58	J15_59	130.00	150.0	135.0	0.0122	Open
P1950	J15_58	J16_58	130.00	100.0	135.0	0.0553	Open
P1951	J15_59	J15_60	130.00	100.0	130.0	0.0622	Open
P1952	J15_59	J16_59	130.00	150.0	135.0	0.0979	Open
P1953	J15_60	J15_61	130.00	250.0	140.0	0.0928	Open
P1954	J15_60	J16_60	130.00	200.0	140.0	0.0766	Open
P1955	J15_61	J15_62	130.00	250.0	125.0	0.0925	Open
P1956	J15_61	J16_61	130.00	200.0	125.0	0.0875	Open
P1957	J15_62	J15_63	130.00	100.0	135.0	0.0586	Open
P1958	J15_62	J16_62	130.00	200.0	125.0	0.0909	Open
P1959	J15_63	J15_64	130.00	300.0	135.0	0.0270	Open
P1960	J15_63	J16_63	130.00	300.0	125.0	0.0587	Open
P1961	J15_64	J15_65	130.00	150.0	130.0	0.1220	Open
P1962	J15_64	J16_64	130.00	100.0	130.0	0.0360	Open
P1963	J15_65	J15_66	130.00	350.0	130.0	0.0317	Open
P1964	J15_65	J16_65	130.00	500.0	130.0	0.0051	Open
P1965	J15_66	J16_66	130.00	300.0	130.0	0.1442	Open
P1966	J16_1	J16_2	130.00	500.0	120.0	0.0072	Open
P1967	J16_1	J17_1	130.00	500.0	125.0	0.0082	Open
P1968	J16_2	J16_3	130.00	200.0	125.0	0.0701	Open
P1969	J16_2	J17_2	130.00	250.0	130.0	0.1097	Open
P1970	J16_3	J16_4	130.00	300.0	125.0	0.1474	Open
P1971	J16_3	J17_3	130.00	200.0	125.0	0.1450	Open
P1972	J16_4	J16_5	130.00	100.0	130.0	0.0572	Open
P1973	J16_4	J17_4	130.00	150.0	140.0	0.0250	Open
P1974	J16_5	J16_6	130.00	250.0	130.0	0.0792	Open
P1975	J16_5	J17_5	130.00	100.0	140.0	0.1027	Open
P1976	J16_6	J16_7	130.00	200.0	130.0	0.1288	Open
P1977	J16_6	J17_6	130.00	100.0	125.0	0.0727	Open
P1978	J16_7	J16_8	130.00	150.0	140.0	0.1281	Open
P1979	J16_7	J17_7	130.00	300.0	140.0	0.0509	Open
P1980	J16_8	J16_9	130.00	150.0	140.0	0.1034	Open
P1981	J16_8	J17_8	130.00	300.0	130.0	0.0153	Open
P1982	J16_9	J16_10	130.00	300.0	120.0	0.0482	Open
P1983	J16_9	J17_9	130.00	500.0	125.0	0.0237	Open
P1984	J16_10	J16_11	130.00	150.0	140.0	0.0487	Open
P1985	J16_10	J17_10	130.00	200.0	130.0	0.0811	Open
P1986	J16_11	J16_12	130.00	250.0	140.0	0.1007	Open
P1987	J16_11	J17_11	130.00	100.0	135.0	0.1242	Open
P1988	J16_12	J16_13	130.00	100.0	130.0	0.0791	Open
P1989	J16_12	J17_12	130.00	200.0	125.0	0.0738	Open
P1990	J16_13	J16_14	130.00	300.0	135.0	0.0565	Open
P1991	J16_13	J17_13	130.00	300.0	130.0	0.1209	Open
P1992	J16_14	J16_15	130.00	250.0	130.0	0.1447	Open
P1993	J16_14	J17_14	130.00	150.0	135.0	0.0484	Open
P1994	J16_15	J16_16	130.00	250.0	135.0	0.0532	Open
P1995	J16_15	J17_15	130.00	200.0	130.0	0.0667	Open
P1996	J16_16	J16_17	130.00	250.0	125.0	0.0035	Open
P1997	J16_16	J17_16	130.00	250.0	140.0	0.0257	Open
P1998	J16_17	J16_18	130.00	350.0	125.0	0.0031	Open
P1999	J16_17	J17_17	130.00	600.0	120.0	0.0431	Open
P2000	J16_18	J16_19	130.00	200.0	140.0	0.0657	Open
P2001	J16_18	J17_18	130.00	250.0	130.0	0.0038	Open
P2002	J16_19	J16_20	130.00	150.0	135.0	0.0639	Open
P2003	J16_19	J17_19	130.00	150.0	125.0	0.1349	Open
P2004	J16_20	J16_21	130.00	200.0	140.0	0.1280	Open
P2005	J16_20	J17_20	130.00	300.0	135.0	0.0749	Open
P2006	J16_21	J16_22	130.00	200.0	140.0	0.1214	Open
P2007	J16_21	J17_21	130.00	300.0	130.0	0.0153	Open
P2008	J16_22	J16_23	130.00	150.0	125.0	0.1378	Open
P2009	J16_22	J17_22	130.00	300.0	140.0	0.0756	Open
P2010	J16_23	J16_24	130.00	200.0	135.0	0.0224	Open
P2011	J16_23	J17_23	130.00	100.0	125.0	0.0778	Open
P2012	J16_24	J16_25	130.00	100.0	140.0	0.1138	Open
P2013	J16_24	J17_24	130.00	250.0	125.0	0.0395	Open
P2014	J16_25	J16_26	130.00	350.0	130.0	0.0264	Open
P2015	J16_25	J17_25	130.00	450.0	125.0	0.0095	Open
P2016	J16_26	J16_27	130.00	250.0	125.0	0.0530	Open
P2017	J16_26	J17_26	130.00	200.0	135.0	0.0303	Open
P2018	J16_27	J16_28	130.00	300.0	135.0	0.0365	Open
P2019	J16_27	J17_27	130.00	250.0	135.0	0.0556	Open
P2020	J16_28	J16_29	130.00	150.0	130.0	0.0587	Open
P2021	J16_28	J17_28	130.00	150.0	140.0	0.0888	Open
P2022	J16_29	J16_30	130.00	100.0	125.0	0.1305	Open
P2023	J16_29	J17_29	130.00	150.0	130.0	0.1393	Open
P2024	J16_30	J16_31	130.00	300.0	125.0	0.0048	Open
P2025	J16_30	J17_30	130.00	200.0	125.0	0.1027	Open
P2026	J16_31	J16_32	130.00	150.0	135.0	0.1337	Open
P2027	J16_31	J17_31	130.00	300.0	140.0	0.0607	Open
P2028	J16_32	J16_33	130.00	250.0	125.0	0.0675	Open
P2029	J16_32	J17_32	130.00	150.0	140.0	0.0994	Open
P2030	J16_33	J16_34	130.00	350.0	130.0	0.0186	Open
P2031	J16_33	J17_33	130.00	350.0	120.0	0.0210	Open
P2032	J16_34	J16_35	130.00	250.0	130.0	0.1418	Open
P2033	J16_34	J17_34	130.00	200.0	130.0	0.0182	Open
P2034	J16_35	J16_36	130.00	150.0	130.0	0.1102	Open
P2035	J16_35	J17_35	130.00	150.0	125.0	0.1410	Open
P2036	J16_36	J16_37	130.00	200.0	140.0	0.1186	Open
P2037	J16_36	J17_36	130.00	150.0	130.0	0.0781	Open
P2038	J16_37	J16_38	130.00	100.0	125.0	0.0522	Open
P2039	J16_37	J17_37	130.00	100.0	125.0	0.0652	Open
P2040	J16_38	J16_39	130.00	200.0	125.0	0.0025	Open
P2041	J16_38	J17_38	130.00	200.0	135.0	0.1301	Open
P2042	J16_39	J16_40	130.00	300.0	130.0	0.1117	Open
P2043	J16_39	J17_39	130.00	300.0	125.0	0.1300	Open
P2044	J16_40	J16_41	130.00	150.0	140.0	0.0734	Open
P2045	J16_40	J17_40	130.00	300.0	130.0	0.0405	Open
P2046	J16_41	J16_42	130.00	400.0	125.0	0.0433	Open
P2047	J16_41	J17_41	130.00	300.0	120.0	0.0255	Open
P2048	J16_42	J16_43	130.00	150.0	140.0	0.1276	Open
P2049	J16_42	J17_42	130.00	300.0	130.0	0.0900	Open
P2050	J16_43	J16_44	130.00	150.0	135.0	0.1076	Open
P2051	J16_43	J17_43	130.00	100.0	140.0	0.0616	Open
P2052	J16_44	J16_45	130.00	200.0	130.0	0.0544	Open
P2053	J16_44	J17_44	130.00	150.0	130.0	0.0349	Open
P2054	J16_45	J16_46	130.00	100.0	140.0	0.0695	Open
P2055	J16_45	J17_45	130.00	250.0	140.0	0.0803	Open
P2056	J16_46	J16_47	130.00	250.0	130.0	0.0793	Open
P2057	J16_46	J17_46	130.00	250.0	140.0	0.0353	Open
P2058	J16_47	J16_48	130.00	100.0	140.0	0.0685	Open
P2059	J16_47	J17_47	130.00	250.0	130.0	0.1403	Open
P2060	J16_48	J16_49	130.00	150.0	140.0	0.1285	Open
P2061	J16_48	J17_48	130.00	300.0	135.0	0.0103	Open
P2062	J16_49	J16_50	130.00	400.0	125.0	0.0391	Open
P2063	J16_49	J17_49	130.00	350.0	125.0	0.0308	Open
P2064	J16_50	J16_51	130.00	300.0	130.0	0.0003	Open
P2065	J16_50	J17_50	130.00	150.0	125.0	0.1174	Open
P2066	J16_51	J16_52	130.00	250.0	130.0	0.0494	Open
P2067	J16_51	J17_51	130.00	100.0	125.0	0.0234	Open
P2068	J16_52	J16_53	130.00	200.0	125.0	0.1426	Open
P2069	J16_52	J17_52	130.00	100.0	130.0	0.0476	Open
P2070	J16_53	J16_54	130.00	250.0	125.0	0.1483	Open
P2071	J16_53	J17_53	130.00	250.0	125.0	0.1242	Open
P2072	J16_54	J16_55	130.00	100.0	130.0	0.0678	Open
P2073	J16_54	J17_54	130.00	250.0	125.0	0.0193	Open
P2074	J16_55	J16_56	130.00	300.0	135.0	0.1104	Open
P2075	J16_55	J17_55	130.00	300.0	135.0	0.1346	Open
P2076	J16_56	J16_57	130.00	300.0	135.0	0.0416	Open
P2077	J16_56	J17_56	130.00	100.0	135.0	0.0600	Open
P2078	J16_57	J16_58	130.00	450.0	130.0	0.0390	Open
P2079	J16_57	J17_57	130.00	400.0	125.0	0.0366	Open
P2080	J16_58	J16_59	130.00	200.0	135.0	0.1327	Open
P2081	J16_58	J17_58	130.00	150.0	135.0	0.0304	Open
P2082	J16_59	J16_60	130.00	300.0	125.0	0.0615	Open
P2083	J16_59	J17_59	130.00	300.0	125.0	0.1096	Open
P2084	J16_60	J16_61	130.00	250.0	125.0	0.1052	Open
P2085	J16_60	J17_60	130.00	250.0	125.0	0.0725	Open
P2086	J16_61	J16_62	130.00	100.0	125.0	0.0693	Open
P2087	J16_61	J17_61	130.00	100.0	140.0	0.1094	Open
P2088	J16_62	J16_63	130.00	100.0	125.0	0.0222	Open
P2089	J16_62	J17_62	130.00	150.0	135.0	0.0912	Open
P2090	J16_63	J16_64	130.00	100.0	125.0	0.1418	Open
P2091	J16_63	J17_63	130.00	150.0	135.0	0.0442	Open
P2092	J16_64	J16_65	130.00	100.0	140.0	0.0583	Open
P2093	J16_64	J17_64	130.00	100.0	125.0	0.0224	Open
P2094	J16_65	J16_66	130.00	450.0	120.0	0.0477	Open
P2095	J16_65	J17_65	130.00	350.0	130.0	0.0043	Open
P2096	J16_66	J17_66	130.00	100.0	140.0	0.0162	Open
P2097	J17_1	J17_2	130.00	450.0	125.0	0.0224	Open
P2098	J17_1	J18_1	130.00	400.0	125.0	0.0145	Open
P2099	J17_2	J17_3	130.00	400.0	130.0	0.0082	Open
P2100	J17_2	J18_2	130.00	300.0	125.0	0.0323	Open
P2101	J17_3	J17_4	130.00	500.0	125.0	0.0061	Open
P2102	J17_3	J18_3	130.00	300.0	120.0	0.0402	Open
P2103	J17_4	J17_5	130.00	300.0	125.0	0.0107	Open
P2104	J17_4	J18_4	130.00	600.0	130.0	0.0051	Open
P2105	J17_5	J17_6	130.00	350.0	120.0	0.0469	Open
P2106	J17_5	J18_5	130.00	350.0	125.0	0.0142	Open
P2107	J17_6	J17_7	130.00	300.0	125.0	0.0470	Open
P2108	J17_6	J18_6	130.00	600.0	130.0	0.0436	Open
P2109	J17_7	J17_8	130.00	400.0	125.0	0.0033	Open
P2110	J17_7	J18_7	130.00	600.0	120.0	0.0018	Open
P2111	J17_8	J17_9	130.00	350.0	130.0	0.0221	Open
P2112	J17_8	J18_8	130.00	450.0	125.0	0.0406	Open
P2113	J17_9	J17_10	130.00	600.0	130.0	0.0310	Open
P2114	J17_9	J18_9	130.00	600.0	130.0	0.0295	Open
P2115	J17_10	J17_11	130.00	400.0	130.0	0.0334	Open
P2116	J17_10	J18_10	130.00	600.0	125.0	0.0392	Open
P2117	J17_11	J17_12	130.00	300.0	120.0	0.0485	Open
P2118	J17_11	J18_11	130.00	350.0	120.0	0.0430	Open
P2119	J17_12	J17_13	130.00	400.0	125.0	0.0481	Open
P2120	J17_12	J18_12	130.00	500.0	120.0	0.0188	Open
P2121	J17_13	J17_14	130.00	450.0	120.0	0.0254	Open
P2122	J17_13	J18_13	130.00	500.0	130.0	0.0295	Open
P2123	J17_14	J17_15	130.00	400.0	130.0	0.0076	Open
P2124	J17_14	J18_14	130.00	400.0	120.0	0.0267	Open
P2125	J17_15	J17_16	130.00	300.0	120.0	0.0095	Open
P2126	J17_15	J18_15	130.00	500.0	120.0	0.0422	Open
P2127	J17_16	J17_17	130.00	600.0	120.0	0.0223	Open
P2128	J17_16	J18_16	130.00	350.0	120.0	0.0314	Open
P2129	J17_17	J17_18	130.00	400.0	125.0	0.0298	Open
P2130	J17_17	J18_17	130.00	600.0	120.0	0.0044	Open
P2131	J17_18	J17_19	130.00	400.0	120.0	0.0042	Open
P2132	J17_18	J18_18	130.00	450.0	130.0	0.0052	Open
P2133	J17_19	J17_20	130.00	350.0	125.0	0.0237	Open
P2134	J17_19	J18_19	130.00	400.0	125.0	0.0075	Open
P2135	J17_20	J17_21	130.00	600.0	125.0	0.0363	Open
P2136	J17_20	J18_20	130.00	600.0	130.0	0.0379	Open
P2137	J17_21	J17_22	130.00	300.0	125.0	0.0298	Open
P2138	J17_21	J18_21	130.00	450.0	130.0	0.0176	Open
P2139	J17_22	J17_23	130.00	300.0	120.0	0.0491	Open
P2140	J17_22	J18_22	130.00	350.0	120.0	0.0166	Open
P2141	J17_23	J17_24	130.00	450.0	120.0	0.0154	Open
P2142	J17_23	J18_23	130.00	600.0	130.0	0.0100	Open
P2143	J17_24	J17_25	130.00	600.0	130.0	0.0221	Open
P2144	J17_24	J18_24	130.00	350.0	130.0	0.0189	Open
P2145	J17_25	J17_26	130.00	300.0	130.0	0.0490	Open
P2146	J17_25	J18_25	130.00	500.0	125.0	0.0297	Open
P2147	J17_26	J17_27	130.00	600.0	130.0	0.0073	Open
P2148	J17_26	J18_26	130.00	400.0	125.0	0.0037	Open
P2149	J17_27	J17_28	130.00	400.0	130.0	0.0412	Open
P2150	J17_27	J18_27	130.00	300.0	120.0	0.0012	Open
P2151	J17_28	J17_29	130.00	600.0	130.0	0.0270	Open
P2152	J17_28	J18_28	130.00	350.0	125.0	0.0439	Open
P2153	J17_29	J17_30	130.00	350.0	130.0	0.0061	Open
P2154	J17_29	J18_29	130.00	400.0	130.0	0.0235	Open
P2155	J17_30	J17_31	130.00	350.0	130.0	0.0230	Open
P2156	J17_30	J18_30	130.00	350.0	130.0	0.0407	Open
P2157	J17_31	J17_32	130.00	350.0	125.0	0.0144	Open
P2158	J17_31	J18_31	130.00	450.0	130.0	0.0210	Open
P2159	J17_32	J17_33	130.00	450.0	120.0	0.0121	Open
P2160	J17_32	J18_32	130.00	300.0	120.0	0.0020	Open
P2161	J17_33	J17_34	130.00	450.0	125.0	0.0347	Open
P2162	J17_33	J18_33	130.00	350.0	130.0	0.0187	Open
P2163	J17_34	J17_35	130.00	450.0	125.0	0.0158	Open
P2164	J17_34	J18_34	130.00	500.0	125.0	0.0488	Open
P2165	J17_35	J17_36	130.00	500.0	130.0	0.0034	Open
P2166	J17_35	J18_35	130.00	350.0	125.0	0.0004	Open
P2167	J17_36	J17_37	130.00	300.0	125.0	0.0436	Open
P2168	J17_36	J18_36	130.00	450.0	130.0	0.0204	Open
P2169	J17_37	J17_38	130.00	300.0	125.0	0.0379	Open
P2170	J17_37	J18_37	130.00	600.0	130.0	0.0411	Open
P2171	J17_38	J17_39	130.00	450.0	120.0	0.0017	Open
P2172	J17_38	J18_38	130.00	450.0	130.0	0.0215	Open
P2173	J17_39	J17_40	130.00	500.0	130.0	0.0489	Open
P2174	J17_39	J18_39	130.00	450.0	130.0	0.0137	Open
P2175	J17_40	J17_41	130.00	600.0	130.0	0.0269	Open
P2176	J17_40	J18_40	130.00	350.0	120.0	0.0431	Open
P2177	J17_41	J17_42	130.00	400.0	130.0	0.0125	Open
P2178	J17_41	J18_41	130.00	350.0	120.0	0.0337	Open
P2179	J17_42	J17_43	130.00	300.0	130.0	0.0469	Open
P2180	J17_42	J18_42	130.00	450.0	130.0	0.0443	Open
P2181	J17_43	J17_44	130.00	600.0	125.0	0.0108	Open
P2182	J17_43	J18_43	130.00	300.0	125.0	0.0450	Open
P2183	J17_44	J17_45	130.00	600.0	120.0	0.0260	Open
P2184	J17_44	J18_44	130.00	500.0	125.0	0.0478	Open
P2185	J17_45	J17_46	130.00	500.0	120.0	0.0474	Open
P2186	J17_45	J18_45	130.00	300.0	120.0	0.0372	Open
P2187	J17_46	J17_47	130.00	350.0	130.0	0.0254	Open
P2188	J17_46	J18_46	130.00	500.0	130.0	0.0223	Open
P2189	J17_47	J17_48	130.00	600.0	120.0	0.0194	Open
P2190	J17_47	J18_47	130.00	300.0	125.0	0.0291	Open
P2191	J17_48	J17_49	130.00	350.0	130.0	0.0068	Open
P2192	J17_48	J18_48	130.00	300.0	130.0	0.0132	Open
P2193	J17_49	J17_50	130.00	400.0	125.0	0.0263	Open
P2194	J17_49	J18_49	130.00	450.0	130.0	0.0292	Open
P2195	J17_50	J17_51	130.00	400.0	120.0	0.0435	Open
P2196	J17_50	J18_50	130.00	300.0	120.0	0.0324	Open
P2197	J17_51	J17_52	130.00	500.0	125.0	0.0477	Open
P2198	J17_51	J18_51	130.00	600.0	130.0	0.0012	Open
P2199	J17_52	J17_53	130.00	400.0	120.0	0.0472	Open
P2200	J17_52	J18_52	130.00	450.0	120.0	0.0465	Open
P2201	J17_53	J17_54	130.00	300.0	125.0	0.0169	Open
P2202	J17_53	J18_53	130.00	300.0	125.0	0.0209	Open
P2203	J17_54	J17_55	130.00	400.0	120.0	0.0222	Open
P2204	J17_54	J18_54	130.00	350.0	130.0	0.0235	Open
P2205	J17_55	J17_56	130.00	500.0	120.0	0.0328	Open
P2206	J17_55	J18_55	130.00	600.0	120.0	0.0415	Open
P2207	J17_56	J17_57	130.00	400.0	130.0	0.0225	Open
P2208	J17_56	J18_56	130.00	300.0	130.0	0.0412	Open
P2209	J17_57	J17_58	130.00	400.0	120.0	0.0158	Open
P2210	J17_57	J18_57	130.00	450.0	130.0	0.0033	Open
P2211	J17_58	J17_59	130.00	350.0	125.0	0.0426	Open
P2212	J17_58	J18_58	130.00	400.0	130.0	0.0201	Open
P2213	J17_59	J17_60	130.00	400.0	125.0	0.0074	Open
P2214	J17_59	J18_59	130.00	500.0	120.0	0.0432	Open
P2215	J17_60	J17_61	130.00	350.0	120.0	0.0066	Open
P2216	J17_60	J18_60	130.00	400.0	125.0	0.0487	Open
P2217	J17_61	J17_62	130.00	400.0	130.0	0.0040	Open
P2218	J17_61	J18_61	130.00	300.0	120.0	0.0197	Open
P2219	J17_62	J17_63	130.00	600.0	125.0	0.0360	Open
P2220	J17_62	J18_62	130.00	600.0	130.0	0.0047	Open
P2221	J17_63	J17_64	130.00	500.0	130.0	0.0355	Open
P2222	J17_63	J18_63	130.00	500.0	125.0	0.0449	Open
P2223	J17_64	J17_65	130.00	500.0	130.0	0.0015	Open
P2224	J17_64	J18_64	130.00	400.0	125.0	0.0006	Open
P2225	J17_65	J17_66	130.00	600.0	120.0	0.0418	Open
P2226	J17_65	J18_65	130.00	450.0	130.0	0.0268	Open
P2227	J17_66	J18_66	130.00	300.0	125.0	0.0020	Open
P2228	J18_1	J18_2	130.00	500.0	120.0	0.0321	Open
P2229	J18_1	J19_1	130.00	350.0	120.0	0.0482	Open
P2230	J18_2	J18_3	130.00	200.0	130.0	0.0086	Open
P2231	J18_2	J19_2	130.00	200.0	125.0	0.0134	Open
P2232	J18_3	J18_4	130.00	150.0	130.0	0.0415	Open
P2233	J18_3	J19_3	130.00	200.0	125.0	0.1373	Open
P2234	J18_4	J18_5	130.00	150.0	130.0	0.0529	Open
P2235	J18_4	J19_4	130.00	200.0	140.0	0.0147	Open
P2236	J18_5	J18_6	130.00	200.0	130.0	0.0564	Open
P2237	J18_5	J19_5	130.00	150.0	130.0	0.0635	Open
P2238	J18_6	J18_7	130.00	150.0	130.0	0.0996	Open
P2239	J18_6	J19_6	130.00	250.0	125.0	0.0132	Open
P2240	J18_7	J18_8	130.00	300.0	130.0	0.1137	Open
P2241	J18_7	J19_7	130.00	100.0	130.0	0.0456	Open
P2242	J18_8	J18_9	130.00	150.0	130.0	0.1064	Open
P2243	J18_8	J19_8	130.00	200.0	140.0	0.0015	Open
P2244	J18_9	J18_10	130.00	500.0	130.0	0.0075	Open
P2245	J18_9	J19_9	130.00	300.0	120.0	0.0254	Open
P2246	J18_10	J18_11	130.00	200.0	140.0	0.0355	Open
P2247	J18_10	J19_10	130.00	300.0	130.0	0.0128	Open
P2248	J18_11	J18_12	130.00	300.0	140.0	0.0017	Open
P2249	J18_11	J19_11	130.00	200.0	130.0	0.0811	Open
P2250	J18_12	J18_13	130.00	150.0	130.0	0.0630	Open
P2251	J18_12	J19_12	130.00	150.0	140.0	0.0161	Open
P2252	J18_13	J18_14	130.00	150.0	140.0	0.1146	Open
P2253	J18_13	J19_13	130.00	100.0	135.0	0.0613	Open
P2254	J18_14	J18_15	130.00	250.0	140.0	0.1073	Open
P2255	J18_14	J19_14	130.00	150.0	135.0	0.0799	Open
P2256	J18_15	J18_16	130.00	200.0	130.0	0.0161	Open
P2257	J18_15	J19_15	130.00	250.0	140.0	0.1014	Open
P2258	J18_16	J18_17	130.00	200.0	140.0	0.1002	Open
P2259	J18_16	J19_16	130.00	100.0	130.0	0.1454	Open
P2260	J18_17	J18_18	130.00	350.0	120.0	0.0047	Open
P2261	J18_17	J19_17	130.00	450.0	120.0	0.0336	Open
P2262	J18_18	J18_19	130.00	200.0	135.0	0.0962	Open
P2263	J18_18	J19_18	130.00	150.0	140.0	0.0599	Open
P2264	J18_19	J18_20	130.00	300.0	135.0	0.1002	Open
P2265	J18_19	J19_19	130.00	250.0	125.0	0.1400	Open
P2266	J18_20	J18_21	130.00	300.0	130.0	0.1413	Open
P2267	J18_20	J19_20	130.00	250.0	125.0	0.0787	Open
P2268	J18_21	J18_22	130.00	300.0	130.0	0.0108	Open
P2269	J18_21	J19_21	130.00	250.0	130.0	0.0892	Open
P2270	J18_22	J18_23	130.00	250.0	125.0	0.0812	Open
P2271	J18_22	J19_22	130.00	100.0	130.0	0.1278	Open
P2272	J18_23	J18_24	130.00	100.0	130.0	0.0251	Open
P2273	J18_23	J19_23	130.00	100.0	130.0	0.0718	Open
P2274	J18_24	J18_25	130.00	100.0	140.0	0.0252	Open
P2275	J18_24	J19_24	130.00	200.0	130.0	0.0963	Open
P2276	J18_25	J18_26	130.00	600.0	120.0	0.0110	Open
P2277	J18_25	J19_25	130.00	500.0	130.0	0.0424	Open
P2278	J18_26	J18_27	130.00	300.0	130.0	0.1086	Open
P2279	J18_26	J19_26	130.00	100.0	130.0	0.0306	Open
P2280	J18_27	J18_28	130.00	250.0	130.0	0.1484	Open
P2281	J18_27	J19_27	130.00	150.0	135.0	0.0100	Open
P2282	J18_28	J18_29	130.00	100.0	135.0	0.0088	Open
P2283	J18_28	J19_28	130.00	150.0	135.0	0.1441	Open
P2284	J18_29	J18_30	130.00	250.0	140.0	0.1115	Open
P2285	J18_29	J19_29	130.00	250.0	125.0	0.0425	Open
P2286	J18_30	J18_31	130.00	100.0	135.0	0.1269	Open
P2287	J18_30	J19_30	130.00	200.0	130.0	0.0316	Open
P2288	J18_31	J18_32	130.00	100.0	135.0	0.0953	Open
P2289	J18_31	J19_31	130.00	200.0	125.0	0.0678	Open
P2290	J18_32	J18_33	130.00	200.0	125.0	0.0521	Open
P2291	J18_32	J19_32	130.00	150.0	130.0	0.0825	Open
P2292	J18_33	J18_34	130.00	450.0	130.0	0.0409	Open
P2293	J18_33	J19_33	130.00	400.0	130.0	0.0493	Open
P2294	J18_34	J18_35	130.00	300.0	125.0	0.0113	Open
P2295	J18_34	J19_34	130.00	200.0	135.0	0.1467	Open
P2296	J18_35	J18_36	130.00	300.0	125.0	0.0107	Open
P2297	J18_35	J19_35	130.00	300.0	130.0	0.0637	Open
P2298	J18_36	J18_37	130.00	100.0	140.0	0.0626	Open
P2299	J18_36	J19_36	130.00	200.0	130.0	0.0014	Open
P2300	J18_37	J18_38	130.00	150.0	125.0	0.1494	Open
P2301	J18_37	J19_37	130.00	300.0	135.0	0.0040	Open
P2302	J18_38	J18_39	130.00	250.0	140.0	0.1141	Open
P2303	J18_38	J19_38	130.00	300.0	135.0	0.0965	Open
P2304	J18_39	J18_40	130.00	100.0	135.0	0.0910	Open
P2305	J18_39	J19_39	130.00	200.0	125.0	0.1218	Open
P2306	J18_40	J18_41	130.00	300.0	125.0	0.0330	Open
P2307	J18_40	J19_40	130.00	250.0	130.0	0.0500	Open
P2308	J18_41	J18_42	130.00	400.0	130.0	0.0058	Open
P2309	J18_41	J19_41	130.00	450.0	130.0	0.0414	Open
P2310	J18_42	J18_43	130.00	100.0	130.0	0.1156	Open
P2311	J18_42	J19_42	130.00	200.0	125.0	0.1126	Open
P2312	J18_43	J18_44	130.00	300.0	130.0	0.1334	Open
P2313	J18_43	J19_43	130.00	250.0	140.0	0.1152	Open
P2314	J18_44	J18_45	130.00	250.0	125.0	0.0011	Open
P2315	J18_44	J19_44	130.00	300.0	140.0	0.0752	Open
P2316	J18_45	J18_46	130.00	250.0	135.0	0.0837	Open
P2317	J18_45	J19_45	130.00	200.0	130.0	0.1337	Open
P2318	J18_46	J18_47	130.00	150.0	130.0	0.0975	Open
P2319	J18_46	J19_46	130.00	100.0	135.0	0.0348	Open
P2320	J18_47	J18_48	130.00	150.0	135.0	0.1283	Open
P2321	J18_47	J19_47	130.00	300.0	135.0	0.0960	Open
P2322	J18_48	J18_49	130.00	200.0	140.0	0.0446	Open
P2323	J18_48	J19_48	130.00	200.0	140.0	0.1226	Open
P2324	J18_49	J18_50	130.00	350.0	120.0	0.0239	Open
P2325	J18_49	J19_49	130.00	450.0	125.0	0.0409	Open
P2326	J18_50	J18_51	130.00	200.0	130.0	0.0593	Open
P2327	J18_50	J19_50	130.00	100.0	125.0	0.1319	Open
P2328	J18_51	J18_52	130.00	300.0	130.0	0.0347	Open
P2329	J18_51	J19_51	130.00	100.0	140.0	0.0121	Open
P2330	J18_52	J18_53	130.00	100.0	130.0	0.1350	Open
P2331	J18_52	J19_52	130.00	150.0	140.0	0.1282	Open
P2332	J18_53	J18_54	130.00	150.0	140.0	0.0382	Open
P2333	J18_53	J19_53	130.00	250.0	135.0	0.0633	Open
P2334	J18_54	J18_55	130.00	300.0	135.0	0.0643	Open
P2335	J18_54	J19_54	130.00	100.0	140.0	0.0648	Open
P2336	J18_55	J18_56	130.00	300.0	135.0	0.1016	Open
P2337	J18_55	J19_55	130.00	150.0	135.0	0.1341	Open
P2338	J18_56	J18_57	130.00	300.0	140.0	0.0555	Open
P2339	J18_56	J19_56	130.00	200.0	130.0	0.1221	Open
P2340	J18_57	J18_58	130.00	300.0	130.0	0.0178	Open
P2341	J18_57	J19_57	130.00	350.0	130.0	0.0185	Open
P2342	J18_58	J18_59	130.00	100.0	125.0	0.0780	Open
P2343	J18_58	J19_58	130.00	150.0	140.0	0.0701	Open
P2344	J18_59	J18_60	130.00	300.0	125.0	0.0665	Open
P2345	J18_59	J19_59	130.00	250.0	140.0	0.0318	Open
P2346	J18_60	J18_61	130.00	200.0	140.0	0.1125	Open
P2347	J18_60	J19_60	130.00	100.0	130.0	0.0709	Open
P2348	J18_61	J18_62	130.00	250.0	140.0	0.0206	Open
P2349	J18_61	J19_61	130.00	100.0	135.0	0.0099	Open
P2350	J18_62	J18_63	130.00	250.0	125.0	0.1276	Open
P2351	J18_62	J19_62	130.00	100.0	135.0	0.0036	Open
P2352	J18_63	J18_64	130.00	150.0	135.0	0.0581	Open
P2353	J18_63	J19_63	130.00	200.0	130.0	0.1298	Open
P2354	J18_64	J18_65	130.00	300.0	130.0	0.0097	Open
P2355	J18_64	J19_64	130.00	250.0	125.0	0.1219	Open
P2356	J18_65	J18_66	130.00	600.0	125.0	0.0100	Open
P2357	J18_65	J19_65	130.00	400.0	130.0	0.0437	Open
P2358	J18_66	J19_66	130.00	250.0	125.0	0.1375	Open
P2359	J19_1	J19_2	130.00	300.0	125.0	0.0077	Open
P2360	J19_1	J20_1	130.00	500.0	120.0	0.0171	Open
P2361	J19_2	J19_3	130.00	300.0	125.0	0.0873	Open
P2362	J19_2	J20_2	130.00	250.0	125.0	0.0553	Open
P2363	J19_3	J19_4	130.00	200.0	130.0	0.1061	Open
P2364	J19_3	J20_3	130.00	200.0	125.0	0.0729	Open
P2365	J19_4	J19_5	130.00	150.0	135.0	0.0430	Open
P2366	J19_4	J20_4	130.00	250.0	125.0	0.0705	Open
P2367	J19_5	J19_6	130.00	200.0	135.0	0.0517	Open
P2368	J19_5	J20_5	130.00	200.0	140.0	0.0907	Open
P2369	J19_6	J19_7	130.00	150.0	130.0	0.1177	Open
P2370	J19_6	J20_6	130.00	100.0	140.0	0.0521	Open
P2371	J19_7	J19_8	130.00	300.0	125.0	0.1028	Open
P2372	J19_7	J20_7	130.00	150.0	130.0	0.0244	Open
P2373	J19_8	J19_9	130.00	300.0	130.0	0.0561	Open
P2374	J19_8	J20_8	130.00	250.0	140.0	0.0401	Open
P2375	J19_9	J19_10	130.00	300.0	125.0	0.0135	Open
P2376	J19_9	J20_9	130.00	450.0	130.0	0.0206	Open
P2377	J19_10	J19_11	130.00	250.0	135.0	0.1003	Open
P2378	J19_10	J20_10	130.00	100.0	130.0	0.0574	Open
P2379	J19_11	J19_12	130.00	150.0	130.0	0.1450	Open
P2380	J19_11	J20_11	130.00	300.0	125.0	0.1036	Open
P2381	J19_12	J19_13	130.00	300.0	140.0	0.0868	Open
P2382	J19_12	J20_12	130.00	150.0	125.0	0.0727	Open
P2383	J19_13	J19_14	130.00	200.0	135.0	0.1347	Open
P2384	J19_13	J20_13	130.00	300.0	135.0	0.1217	Open
P2385	J19_14	J19_15	130.00	200.0	140.0	0.1206	Open
P2386	J19_14	J20_14	130.00	100.0	140.0	0.0692	Open
P2387	J19_15	J19_16	130.00	200.0	135.0	0.1094	Open
P2388	J19_15	J20_15	130.00	250.0	140.0	0.0012	Open
P2389	J19_16	J19_17	130.00	200.0	125.0	0.0992	Open
P2390	J19_16	J20_16	130.00	100.0	130.0	0.1282	Open
P2391	J19_17	J19_18	130.00	300.0	130.0	0.0493	Open
P2392	J19_17	J20_17	130.00	400.0	125.0	0.0089	Open
P2393	J19_18	J19_19	130.00	250.0	140.0	0.1281	Open
P2394	J19_18	J20_18	130.00	250.0	140.0	0.0337	Open
P2395	J19_19	J19_20	130.00	200.0	125.0	0.0721	Open
P2396	J19_19	J20_19	130.00	100.0	130.0	0.0377	Open
P2397	J19_20	J19_21	130.00	150.0	135.0	0.1330	Open
P2398	J19_20	J20_20	130.00	300.0	125.0	0.1183	Open
P2399	J19_21	J19_22	130.00	200.0	140.0	0.1469	Open
P2400	J19_21	J20_21	130.00	250.0	130.0	0.0100	Open
P2401	J19_22	J19_23	130.00	300.0	125.0	0.0047	Open
P2402	J19_22	J20_22	130.00	100.0	125.0	0.0731	Open
P2403	J19_23	J19_24	130.00	200.0	140.0	0.0197	Open
P2404	J19_23	J20_23	130.00	100.0	135.0	0.0911	Open
P2405	J19_24	J19_25	130.00	150.0	140.0	0.0677	Open
P2406	J19_24	J20_24	130.00	150.0	140.0	0.1404	Open
P2407	J19_25	J19_26	130.00	350.0	125.0	0.0144	Open
P2408	J19_25	J20_25	130.00	300.0	125.0	0.0142	Open
P2409	J19_26	J19_27	130.00	100.0	125.0	0.0282	Open
P2410	J19_26	J20_26	130.00	150.0	135.0	0.0733	Open
P2411	J19_27	J19_28	130.00	100.0	135.0	0.1117	Open
P2412	J19_27	J20_27	130.00	200.0	130.0	0.1283	Open
P2413	J19_28	J19_29	130.00	200.0	130.0	0.0194	Open
P2414	J19_28	J20_28	130.00	300.0	130.0	0.1460	Open
P2415	J19_29	J19_30	130.00	150.0	125.0	0.1013	Open
P2416	J19_29	J20_29	130.00	300.0	130.0	0.0575	Open
P2417	J19_30	J19_31	130.00	100.0	125.0	0.1457	Open
P2418	J19_30	J20_30	130.00	250.0	125.0	0.0636	Open
P2419	J19_31	J19_32	130.00	200.0	125.0	0.0124	Open
P2420	J19_31	J20_31	130.00	250.0	135.0	0.0693	Open
P2421	J19_32	J19_33	130.00	100.0	130.0	0.0266	Open
P2422	J19_32	J20_32	130.00	250.0	135.0	0.0096	Open
P2423	J19_33	J19_34	130.00	600.0	120.0	0.0216	Open
P2424	J19_33	J20_33	130.00	350.0	125.0	0.0189	Open
P2425	J19_34	J19_35	130.00	300.0	125.0	0.0004	Open
P2426	J19_34	J20_34	130.00	200.0	140.0	0.1060	Open
P2427	J19_35	J19_36	130.00	200.0	135.0	0.0639	Open
P2428	J19_35	J20_35	130.00	150.0	125.0	0.0618	Open
P2429	J19_36	J19_37	130.00	100.0	125.0	0.1007	Open
P2430	J19_36	J20_36	130.00	250.0	125.0	0.1311	Open
P2431	J19_37	J19_38	130.00	200.0	125.0	0.1134	Open
P2432	J19_37	J20_37	130.00	300.0	130.0	0.1339	Open
P2433	J19_38	J19_39	130.00	150.0	135.0	0.0566	Open
P2434	J19_38	J20_38	130.00	150.0	135.0	0.1281	Open
P2435	J19_39	J19_40	130.00	300.0	140.0	0.0703	Open
P2436	J19_39	J20_39	130.00	250.0	140.0	0.0481	Open
P2437	J19_40	J19_41	130.00	300.0	135.0	0.0430	Open
P2438	J19_40	J20_40	130.00	300.0	125.0	0.0603	Open
P2439	J19_41	J19_42	130.00	600.0	130.0	0.0136	Open
P2440	J19_41	J20_41	130.00	400.0	130.0	0.0155	Open
P2441	J19_42	J19_43	130.00	100.0	140.0	0.0092	Open
P2442	J19_42	J20_42	130.00	250.0	140.0	0.0370	Open
P2443	J19_43	J19_44	130.00	300.0	140.0	0.1470	Open
P2444	J19_43	J20_43	130.00	150.0	135.0	0.0139	Open
P2445	J19_44	J19_45	130.00	150.0	140.0	0.0631	Open
P2446	J19_44	J20_44	130.00	250.0	140.0	0.1301	Open
P2447	J19_45	J19_46	130.00	200.0	130.0	0.0651	Open
P2448	J19_45	J20_45	130.00	300.0	140.0	0.1063	Open
P2449	J19_46	J19_47	130.00	200.0	135.0	0.1220	Open
P2450	J19_46	J20_46	130.00	200.0	130.0	0.1271	Open
P2451	J19_47	J19_48	130.00	250.0	140.0	0.0920	Open
P2452	J19_47	J20_47	130.00	300.0	130.0	0.0420	Open
P2453	J19_48	J19_49	130.00	150.0	135.0	0.1253	Open
P2454	J19_48	J20_48	130.00	250.0	125.0	0.0277	Open
P2455	J19_49	J19_50	130.00	450.0	125.0	0.0189	Open
P2456	J19_49	J20_49	130.00	300.0	120.0	0.0201	Open
P2457	J19_50	J19_51	130.00	200.0	140.0	0.0761	Open
P2458	J19_50	J20_50	130.00	100.0	125.0	0.0748	Open
P2459	J19_51	J19_52	130.00	250.0	130.0	0.1273	Open
P2460	J19_51	J20_51	130.00	100.0	135.0	0.0599	Open
P2461	J19_52	J19_53	130.00	150.0	130.0	0.0385	Open
P2462	J19_52	J20_52	130.00	200.0	140.0	0.1115	Open
P2463	J19_53	J19_54	130.00	250.0	130.0	0.0362	Open
P2464	J19_53	J20_53	130.00	150.0	140.0	0.0625	Open
P2465	J19_54	J19_55	130.00	200.0	125.0	0.0568	Open
P2466	J19_54	J20_54	130.00	300.0	140.0	0.0099	Open
P2467	J19_55	J19_56	130.00	100.0	135.0	0.0976	Open
P2468	J19_55	J20_55	130.00	250.0	140.0	0.0372	Open
P2469	J19_56	J19_57	130.00	100.0	125.0	0.0478	Open
P2470	J19_56	J20_56	130.00	150.0	130.0	0.0689	Open
P2471	J19_57	J19_58	130.00	600.0	120.0	0.0470	Open
P2472	J19_57	J20_57	130.00	300.0	120.0	0.0200	Open
P2473	J19_58	J19_59	130.00	100.0	135.0	0.0911	Open
P2474	J19_58	J20_58	130.00	150.0	140.0	0.0161	Open
P2475	J19_59	J19_60	130.00	200.0	125.0	0.0890	Open
P2476	J19_59	J20_59	130.00	200.0	140.0	0.1000	Open
P2477	J19_60	J19_61	130.00	200.0	135.0	0.0856	Open
P2478	J19_60	J20_60	130.00	250.0	125.0	0.0179	Open
P2479	J19_61	J19_62	130.00	300.0	140.0	0.1414	Open
P2480	J19_61	J20_61	130.00	200.0	135.0	0.0526	Open
P2481	J19_62	J19_63	130.00	150.0	125.0	0.1366	Open
P2482	J19_62	J20_62	130.00	100.0	135.0	0.0400	Open
P2483	J19_63	J19_64	130.00	100.0	130.0	0.1066	Open
P2484	J19_63	J20_63	130.00	100.0	140.0	0.1391	Open
P2485	J19_64	J19_65	130.00	250.0	125.0	0.0667	Open
P2486	J19_64	J20_64	130.00	100.0	140.0	0.0813	Open
P2487	J19_65	J19_66	130.00	300.0	130.0	0.0097	Open
P2488	J19_65	J20_65	130.00	400.0	120.0	0.0103	Open
P2489	J19_66	J20_66	130.00	100.0	140.0	0.0827	Open
P2490	J20_1	J20_2	130.00	300.0	125.0	0.0103	Open
P2491	J20_1	J21_1	130.00	400.0	130.0	0.0321	Open
P2492	J20_2	J20_3	130.00	250.0	135.0	0.1454	Open
P2493	J20_2	J21_2	130.00	250.0	135.0	0.0693	Open
P2494	J20_3	J20_4	130.00	250.0	125.0	0.1401	Open
P2495	J20_3	J21_3	130.00	300.0	130.0	0.0103	Open
P2496	J20_4	J20_5	130.00	100.0	130.0	0.0477	Open
P2497	J20_4	J21_4	130.00	200.0	130.0	0.0063	Open
P2498	J20_5	J20_6	130.00	150.0	135.0	0.0614	Open
P2499	J20_5	J21_5	130.00	150.0	140.0	0.1029	Open
P2500	J20_6	J20_7	130.00	100.0	140.0	0.0010	Open
P2501	J20_6	J21_6	130.00	200.0	125.0	0.1417	Open
P2502	J20_7	J20_8	130.00	250.0	140.0	0.1258	Open
P2503	J20_7	J21_7	130.00	100.0	140.0	0.0765	Open
P2504	J20_8	J20_9	130.00	250.0	130.0	0.0062	Open
P2505	J20_8	J21_8	130.00	250.0	130.0	0.1412	Open
P2506	J20_9	J20_10	130.00	350.0	130.0	0.0424	Open
P2507	J20_9	J21_9	130.00	350.0	130.0	0.0049	Open
P2508	J20_10	J20_11	130.00	200.0	135.0	0.0969	Open
P2509	J20_10	J21_10	130.00	150.0	125.0	0.0689	Open
P2510	J20_11	J20_12	130.00	100.0	140.0	0.0633	Open
P2511	J20_11	J21_11	130.00	200.0	140.0	0.0565	Open
P2512	J20_12	J20_13	130.00	250.0	125.0	0.0102	Open
P2513	J20_12	J21_12	130.00	250.0	140.0	0.0855	Open
P2514	J20_13	J20_14	130.00	150.0	125.0	0.0810	Open
P2515	J20_13	J21_13	130.00	250.0	125.0	0.0762	Open
P2516	J20_14	J20_15	130.00	200.0	135.0	0.0817	Open
P2517	J20_14	J21_14	130.00	250.0	125.0	0.0605	Open
P2518	J20_15	J20_16	130.00	100.0	140.0	0.1031	Open
P2519	J20_15	J21_15	130.00	200.0	135.0	0.0033	Open
P2520	J20_16	J20_17	130.00	150.0	135.0	0.0325	Open
P2521	J20_16	J21_16	130.00	250.0	140.0	0.0180	Open
P2522	J20_17	J20_18	130.00	400.0	120.0	0.0357	Open
P2523	J20_17	J21_17	130.00	500.0	120.0	0.0241	Open
P2524	J20_18	J20_19	130.00	300.0	125.0	0.0154	Open
P2525	J20_18	J21_18	130.00	250.0	125.0	0.0677	Open
P2526	J20_19	J20_20	130.00	150.0	140.0	0.0768	Open
P2527	J20_19	J21_19	130.00	250.0	140.0	0.0638	Open
P2528	J20_20	J20_21	130.00	250.0	125.0	0.1082	Open
P2529	J20_20	J21_20	130.00	200.0	140.0	0.0157	Open
P2530	J20_21	J20_22	130.00	300.0	140.0	0.1144	Open
P2531	J20_21	J21_21	130.00	300.0	125.0	0.0090	Open
P2532	J20_22	J20_23	130.00	200.0	130.0	0.0302	Open
P2533	J20_22	J21_22	130.00	300.0	140.0	0.1235	Open
P2534	J20_23	J20_24	130.00	300.0	125.0	0.0716	Open
P2535	J20_23	J21_23	130.00	250.0	135.0	0.0545	Open
P2536	J20_24	J20_25	130.00	150.0	125.0	0.0972	Open
P2537	J20_24	J21_24	130.00	300.0	125.0	0.0166	Open
P2538	J20_25	J20_26	130.00	600.0	120.0	0.0004	Open
P2539	J20_25	J21_25	130.00	350.0	125.0	0.0205	Open
P2540	J20_26	J20_27	130.00	200.0	140.0	0.0504	Open
P2541	J20_26	J21_26	130.00	300.0	130.0	0.0689	Open
P2542	J20_27	J20_28	130.00	300.0	140.0	0.1457	Open
P2543	J20_27	J21_27	130.00	250.0	125.0	0.0106	Open
P2544	J20_28	J20_29	130.00	250.0	140.0	0.0274	Open
P2545	J20_28	J21_28	130.00	150.0	135.0	0.1224	Open
P2546	J20_29	J20_30	130.00	300.0	140.0	0.0389	Open
P2547	J20_29	J21_29	130.00	200.0	130.0	0.0031	Open
P2548	J20_30	J20_31	130.00	200.0	135.0	0.1223	Open
P2549	J20_30	J21_30	130.00	150.0	135.0	0.1235	Open
P2550	J20_31	J20_32	130.00	300.0	130.0	0.0053	Open
P2551	J20_31	J21_31	130.00	200.0	140.0	0.0463	Open
P2552	J20_32	J20_33	130.00	150.0	130.0	0.1204	Open
P2553	J20_32	J21_32	130.00	150.0	135.0	0.0360	Open
P2554	J20_33	J20_34	130.00	350.0	125.0	0.0419	Open
P2555	J20_33	J21_33	130.00	300.0	120.0	0.0455	Open
P2556	J20_34	J20_35	130.00	200.0	130.0	0.0750	Open
P2557	J20_34	J21_34	130.00	200.0	125.0	0.0424	Open
P2558	J20_35	J20_36	130.00	100.0	125.0	0.0076	Open
P2559	J20_35	J21_35	130.00	300.0	125.0	0.0083	Open
P2560	J20_36	J20_37	130.00	200.0	135.0	0.0902	Open
P2561	J20_36	J21_36	130.00	300.0	140.0	0.0574	Open
P2562	J20_37	J20_38	130.00	250.0	140.0	0.0961	Open
P2563	J20_37	J21_37	130.00	200.0	130.0	0.0956	Open
P2564	J20_38	J20_39	130.00	100.0	130.0	0.0755	Open
P2565	J20_38	J21_38	130.00	100.0	140.0	0.1361	Open
P2566	J20_39	J20_40	130.00	200.0	140.0	0.1256	Open
P2567	J20_39	J21_39	130.00	100.0	125.0	0.0937	Open
P2568	J20_40	J20_41	130.00	200.0	135.0	0.0136	Open
P2569	J20_40	J21_40	130.00	250.0	135.0	0.0493	Open
P2570	J20_41	J20_42	130.00	450.0	125.0	0.0459	Open
P2571	J20_41	J21_41	130.00	600.0	120.0	0.0411	Open
P2572	J20_42	J20_43	130.00	300.0	130.0	0.0561	Open
P2573	J20_42	J21_42	130.00	100.0	135.0	0.0813	Open
P2574	J20_43	J20_44	130.00	250.0	125.0	0.1223	Open
P2575	J20_43	J21_43	130.00	150.0	130.0	0.0285	Open
P2576	J20_44	J20_45	130.00	100.0	140.0	0.1035	Open
P2577	J20_44	J21_44	130.00	200.0	130.0	0.1273	Open
P2578	J20_45	J20_46	130.00	200.0	140.0	0.0164	Open
P2579	J20_45	J21_45	130.00	200.0	135.0	0.0391	Open
P2580	J20_46	J20_47	130.00	300.0	135.0	0.0244	Open
P2581	J20_46	J21_46	130.00	200.0	135.0	0.0693	Open
P2582	J20_47	J20_48	130.00	100.0	140.0	0.0024	Open
P2583	J20_47	J21_47	130.00	200.0	130.0	0.1442	Open
P2584	J20_48	J20_49	130.00	200.0	125.0	0.0761	Open
P2585	J20_48	J21_48	130.00	300.0	130.0	0.1281	Open
P2586	J20_49	J20_50	130.00	500.0	125.0	0.0110	Open
P2587	J20_49	J21_49	130.00	350.0	120.0	0.0337	Open
P2588	J20_50	J20_51	130.00	200.0	135.0	0.0222	Open
P2589	J20_50	J21_50	130.00	300.0	130.0	0.0115	Open
P2590	J20_51	J20_52	130.00	200.0	130.0	0.0697	Open
P2591	J20_51	J21_51	130.00	250.0	140.0	0.0312	Open
P2592	J20_52	J20_53	130.00	200.0	130.0	0.0002	Open
P2593	J20_52	J21_52	130.00	200.0	135.0	0.0858	Open
P2594	J20_53	J20_54	130.00	200.0	135.0	0.0602	Open
P2595	J20_53	J21_53	130.00	300.0	130.0	0.1290	Open
P2596	J20_54	J20_55	130.00	200.0	135.0	0.1037	Open
P2597	J20_54	J21_54	130.00	250.0	130.0	0.0405	Open
P2598	J20_55	J20_56	130.00	100.0	140.0	0.1259	Open
P2599	J20_55	J21_55	130.00	200.0	130.0	0.0162	Open
P2600	J20_56	J20_57	130.00	200.0	140.0	0.0754	Open
P2601	J20_56	J21_56	130.00	250.0	135.0	0.0349	Open
P2602	J20_57	J20_58	130.00	350.0	125.0	0.0267	Open
P2603	J20_57	J21_57	130.00	300.0	130.0	0.0442	Open
P2604	J20_58	J20_59	130.00	250.0	130.0	0.1118	Open
P2605	J20_58	J21_58	130.00	250.0	140.0	0.0567	Open
P2606	J20_59	J20_60	130.00	100.0	130.0	0.0837	Open
P2607	J20_59	J21_59	130.00	150.0	130.0	0.0940	Open
P2608	J20_60	J20_61	130.00	100.0	130.0	0.0400	Open
P2609	J20_60	J21_60	130.00	200.0	140.0	0.0100	Open
P2610	J20_61	J20_62	130.00	100.0	130.0	0.0956	Open
P2611	J20_61	J21_61	130.00	150.0	125.0	0.1229	Open
P2612	J20_62	J20_63	130.00	100.0	125.0	0.0433	Open
P2613	J20_62	J21_62	130.00	200.0	125.0	0.0317	Open
P2614	J20_63	J20_64	130.00	200.0	125.0	0.0510	Open
P2615	J20_63	J21_63	130.00	100.0	130.0	0.0949	Open
P2616	J20_64	J20_65	130.00	100.0	130.0	0.0327	Open
P2617	J20_64	J21_64	130.00	150.0	135.0	0.1158	Open
P2618	J20_65	J20_66	130.00	400.0	125.0	0.0258	Open
P2619	J20_65	J21_65	130.00	600.0	130.0	0.0348	Open
P2620	J20_66	J21_66	130.00	200.0	125.0	0.1033	Open
P2621	J21_1	J21_2	130.00	400.0	120.0	0.0346	Open
P2622	J21_1	J22_1	130.00	600.0	130.0	0.0159	Open
P2623	J21_2	J21_3	130.00	200.0	140.0	0.0956	Open
P2624	J21_2	J22_2	130.00	150.0	140.0	0.1135	Open
P2625	J21_3	J21_4	130.00	200.0	135.0	0.0572	Open
P2626	J21_3	J22_3	130.00	300.0	125.0	0.1136	Open
P2627	J21_4	J21_5	130.00	250.0	130.0	0.0640	Open
P2628	J21_4	J22_4	130.00	200.0	125.0	0.0897	Open
P2629	J21_5	J21_6	130.00	300.0	130.0	0.0721	Open
P2630	J21_5	J22_5	130.00	200.0	135.0	0.0298	Open
P2631	J21_6	J21_7	130.00	250.0	125.0	0.1342	Open
P2632	J21_6	J22_6	130.00	150.0	130.0	0.0069	Open
P2633	J21_7	J21_8	130.00	200.0	140.0	0.0715	Open
P2634	J21_7	J22_7	130.00	100.0	130.0	0.0561	Open
P2635	J21_8	J21_9	130.00	150.0	140.0	0.0678	Open
P2636	J21_8	J22_8	130.00	250.0	140.0	0.0358	Open
P2637	J21_9	J21_10	130.00	500.0	125.0	0.0259	Open
P2638	J21_9	J22_9	130.00	300.0	130.0	0.0236	Open
P2639	J21_10	J21_11	130.00	200.0	125.0	0.1386	Open
P2640	J21_10	J22_10	130.00	100.0	125.0	0.1485	Open
P2641	J21_11	J21_12	130.00	300.0	130.0	0.1373	Open
P2642	J21_11	J22_11	130.00	100.0	130.0	0.0929	Open
P2643	J21_12	J21_13	130.00	150.0	135.0	0.0446	Open
P2644	J21_12	J22_12	130.00	100.0	135.0	0.1333	Open
P2645	J21_13	J21_14	130.00	300.0	140.0	0.1262	Open
P2646	J21_13	J22_13	130.00	100.0	125.0	0.1417	Open
P2647	J21_14	J21_15	130.00	150.0	140.0	0.1020	Open
P2648	J21_14	J22_14	130.00	250.0	130.0	0.0733	Open
P2649	J21_15	J21_16	130.00	200.0	130.0	0.0828	Open
P2650	J21_15	J22_15	130.00	100.0	140.0	0.0857	Open
P2651	J21_16	J21_17	130.00	200.0	130.0	0.0641	Open
P2652	J21_16	J22_16	130.00	300.0	125.0	0.0797	Open
P2653	J21_17	J21_18	130.00	600.0	130.0	0.0315	Open
P2654	J21_17	J22_17	130.00	500.0	125.0	0.0048	Open
P2655	J21_18	J21_19	130.00	250.0	135.0	0.0827	Open
P2656	J21_18	J22_18	130.00	150.0	125.0	0.1285	Open
P2657	J21_19	J21_20	130.00	150.0	125.0	0.1279	Open
P2658	J21_19	J22_19	130.00	100.0	135.0	0.1196	Open
P2659	J21_20	J21_21	130.00	100.0	135.0	0.1262	Open
P2660	J21_20	J22_20	130.00	250.0	140.0	0.1398	Open
P2661	J21_21	J21_22	130.00	150.0	135.0	0.0300	Open
P2662	J21_21	J22_21	130.00	150.0	130.0	0.1443	Open
P2663	J21_22	J21_23	130.00	100.0	125.0	0.0456	Open
P2664	J21_22	J22_22	130.00	100.0	125.0	0.0312	Open
P2665	J21_23	J21_24	130.00	300.0	135.0	0.1327	Open
P2666	J21_23	J22_23	130.00	100.0	140.0	0.0216	Open
P2667	J21_24	J21_25	130.00	250.0	140.0	0.1020	Open
P2668	J21_24	J22_24	130.00	100.0	135.0	0.0083	Open
P2669	J21_25	J21_26	130.00	400.0	120.0	0.0455	Open
P2670	J21_25	J22_25	130.00	500.0	130.0	0.0473	Open
P2671	J21_26	J21_27	130.00	200.0	125.0	0.0698	Open
P2672	J21_26	J22_26	130.00	300.0	140.0	0.0251	Open
P2673	J21_27	J21_28	130.00	300.0	135.0	0.1358	Open
P2674	J21_27	J22_27	130.00	300.0	130.0	0.1398	Open
P2675	J21_28	J21_29	130.00	150.0	140.0	0.0291	Open
P2676	J21_28	J22_28	130.00	200.0	125.0	0.0071	Open
P2677	J21_29	J21_30	130.00	300.0	140.0	0.1144	Open
P2678	J21_29	J22_29	130.00	300.0	125.0	0.0996	Open
P2679	J21_30	J21_31	130.00	300.0	140.0	0.0459	Open
P2680	J21_30	J22_30	130.00	250.0	140.0	0.0998	Open
P2681	J21_31	J21_32	130.00	250.0	140.0	0.1240	Open
P2682	J21_31	J22_31	130.00	300.0	135.0	0.0225	Open
P2683	J21_32	J21_33	130.00	100.0	125.0	0.1431	Open
P2684	J21_32	J22_32	130.00	300.0	135.0	0.0662	Open
P2685	J21_33	J21_34	130.00	500.0	125.0	0.0497	Open
P2686	J21_33	J22_33	130.00	500.0	120.0	0.0105	Open
P2687	J21_34	J21_35	130.00	200.0	130.0	0.1061	Open
P2688	J21_34	J22_34	130.00	250.0	130.0	0.0312	Open
P2689	J21_35	J21_36	130.00	100.0	140.0	0.1102	Open
P2690	J21_35	J22_35	130.00	200.0	130.0	0.0538	Open
P2691	J21_36	J21_37	130.00	200.0	135.0	0.1357	Open
P2692	J21_36	J22_36	130.00	300.0	135.0	0.0579	Open
P2693	J21_37	J21_38	130.00	150.0	140.0	0.1340	Open
P2694	J21_37	J22_37	130.00	150.0	125.0	0.0479	Open
P2695	J21_38	J21_39	130.00	300.0	140.0	0.0619	Open
P2696	J21_38	J22_38	130.00	150.0	130.0	0.0540	Open
P2697	J21_39	J21_40	130.00	250.0	135.0	0.0378	Open
P2698	J21_39	J22_39	130.00	100.0	125.0	0.0302	Open
P2699	J21_40	J21_41	130.00	300.0	125.0	0.0821	Open
P2700	J21_40	J22_40	130.00	300.0	125.0	0.0804	Open
P2701	J21_41	J21_42	130.00	300.0	125.0	0.0093	Open
P2702	J21_41	J22_41	130.00	400.0	125.0	0.0345	Open
P2703	J21_42	J21_43	130.00	200.0	140.0	0.0426	Open
P2704	J21_42	J22_42	130.00	200.0	135.0	0.0069	Open
P2705	J21_43	J21_44	130.00	200.0	140.0	0.0359	Open
P2706	J21_43	J22_43	130.00	300.0	125.0	0.1211	Open
P2707	J21_44	J21_45	130.00	150.0	135.0	0.0100	Open
P2708	J21_44	J22_44	130.00	200.0	125.0	0.1355	Open
P2709	J21_45	J21_46	130.00	300.0	125.0	0.0294	Open
P2710	J21_45	J22_45	130.00	300.0	135.0	0.0167	Open
P2711	J21_46	J21_47	130.00	300.0	135.0	0.0285	Open
P2712	J21_46	J22_46	130.00	100.0	135.0	0.0179	Open
P2713	J21_47	J21_48	130.00	100.0	140.0	0.0688	Open
P2714	J21_47	J22_47	130.00	300.0	125.0	0.0724	Open
P2715	J21_48	J21_49	130.00	200.0	135.0	0.0644	Open
P2716	J21_48	J22_48	130.00	250.0	130.0	0.0383	Open
P2717	J21_49	J21_50	130.00	450.0	125.0	0.0274	Open
P2718	J21_49	J22_49	130.00	500.0	125.0	0.0046	Open
P2719	J21_50	J21_51	130.00	100.0	140.0	0.1307	Open
P2720	J21_50	J22_50	130.00	300.0	135.0	0.1290	Open
P2721	J21_51	J21_52	130.00	100.0	140.0	0.0498	Open
P2722	J21_51	J22_51	130.00	200.0	140.0	0.0520	Open
P2723	J21_52	J21_53	130.00	200.0	125.0	0.0295	Open
P2724	J21_52	J22_52	130.00	250.0	140.0	0.1168	Open
P2725	J21_53	J21_54	130.00	100.0	140.0	0.1047	Open
P2726	J21_53	J22_53	130.00	250.0	130.0	0.1311	Open
P2727	J21_54	J21_55	130.00	100.0	125.0	0.0701	Open
P2728	J21_54	J22_54	130.00	100.0	140.0	0.0135	Open
P2729	J21_55	J21_56	130.00	150.0	135.0	0.0745	Open
P2730	J21_55	J22_55	130.00	100.0	135.0	0.0352	Open
P2731	J21_56	J21_57	130.00	300.0	140.0	0.0223	Open
P2732	J21_56	J22_56	130.00	150.0	140.0	0.1480	Open
P2733	J21_57	J21_58	130.00	600.0	130.0	0.0320	Open
P2734	J21_57	J22_57	130.00	300.0	130.0	0.0448	Open
P2735	J21_58	J21_59	130.00	150.0	125.0	0.0636	Open
P2736	J21_58	J22_58	130.00	200.0	140.0	0.0462	Open
P2737	J21_59	J21_60	130.00	100.0	140.0	0.1333	Open
P2738	J21_59	J22_59	130.00	150.0	135.0	0.1256	Open
P2739	J21_60	J21_61	130.00	150.0	130.0	0.0740	Open
P2740	J21_60	J22_60	130.00	300.0	140.0	0.1185	Open
P2741	J21_61	J21_62	130.00	300.0	125.0	0.1310	Open
P2742	J21_61	J22_61	130.00	300.0	140.0	0.0655	Open
P2743	J21_62	J21_63	130.00	150.0	125.0	0.0971	Open
P2744	J21_62	J22_62	130.00	150.0	130.0	0.0791	Open
P2745	J21_63	J21_64	130.00	200.0	125.0	0.0470	Open
P2746	J21_63	J22_63	130.00	100.0	140.0	0.0991	Open
P2747	J21_64	J21_65	130.00	200.0	135.0	0.0251	Open
P2748	J21_64	J22_64	130.00	250.0	125.0	0.0777	Open
P2749	J21_65	J21_66	130.00	600.0	130.0	0.0124	Open
P2750	J21_65	J22_65	130.00	350.0	130.0	0.0324	Open
P2751	J21_66	J22_66	130.00	150.0	135.0	0.0984	Open
P2752	J22_1	J22_2	130.00	450.0	125.0	0.0146	Open
P2753	J22_1	J23_1	130.00	600.0	130.0	0.0001	Open
P2754	J22_2	J22_3	130.00	200.0	125.0	0.0528	Open
P2755	J22_2	J23_2	130.00	200.0	125.0	0.0545	Open
P2756	J22_3	J22_4	130.00	150.0	125.0	0.1417	Open
P2757	J22_3	J23_3	130.00	250.0	130.0	0.0555	Open
P2758	J22_4	J22_5	130.00	300.0	125.0	0.0293	Open
P2759	J22_4	J23_4	130.00	150.0	125.0	0.0846	Open
P2760	J22_5	J22_6	130.00	300.0	125.0	0.0122	Open
P2761	J22_5	J23_5	130.00	200.0	125.0	0.0972	Open
P2762	J22_6	J22_7	130.00	100.0	130.0	0.0279	Open
P2763	J22_6	J23_6	130.00	150.0	130.0	0.1246	Open
P2764	J22_7	J22_8	130.00	250.0	130.0	0.0440	Open
P2765	J22_7	J23_7	130.00	100.0	125.0	0.1360	Open
P2766	J22_8	J22_9	130.00	150.0	130.0	0.0614	Open
P2767	J22_8	J23_8	130.00	300.0	130.0	0.1006	Open
P2768	J22_9	J22_10	130.00	500.0	120.0	0.0342	Open
P2769	J22_9	J23_9	130.00	300.0	125.0	0.0326	Open
P2770	J22_10	J22_11	130.00	200.0	125.0	0.0051	Open
P2771	J22_10	J23_10	130.00	100.0	140.0	0.0720	Open
P2772	J22_11	J22_12	130.00	150.0	125.0	0.0721	Open
P2773	J22_11	J23_11	130.00	200.0	125.0	0.1431	Open
P2774	J22_12	J22_13	130.00	150.0	135.0	0.1205	Open
P2775	J22_12	J23_12	130.00	200.0	135.0	0.0370	Open
P2776	J22_13	J22_14	130.00	100.0	135.0	0.1398	Open
P2777	J22_13	J23_13	130.00	300.0	130.0	0.1339	Open
P2778	J22_14	J22_15	130.00	150.0	125.0	0.1361	Open
P2779	J22_14	J23_14	130.00	200.0	130.0	0.0406	Open
P2780	J22_15	J22_16	130.00	100.0	135.0	0.1153	Open
P2781	J22_15	J23_15	130.00	100.0	130.0	0.0406	Open
P2782	J22_16	J22_17	130.00	300.0	130.0	0.0093	Open
P2783	J22_16	J23_16	130.00	150.0	125.0	0.0706	Open
P2784	J22_17	J22_18	130.00	350.0	130.0	0.0346	Open
P2785	J22_17	J23_17	130.00	450.0	120.0	0.0480	Open
P2786	J22_18	J22_19	130.00	200.0	125.0	0.0479	Open
P2787	J22_18	J23_18	130.00	250.0	130.0	0.0728	Open
P2788	J22_19	J22_20	130.00	200.0	140.0	0.1384	Open
P2789	J22_19	J23_19	130.00	250.0	125.0	0.0074	Open
P2790	J22_20	J22_21	130.00	150.0	135.0	0.1405	Open
P2791	J22_20	J23_20	130.00	100.0	130.0	0.1079	Open
P2792	J22_21	J22_22	130.00	200.0	140.0	0.1286	Open
P2793	J22_21	J23_21	130.00	150.0	130.0	0.1485	Open
P2794	J22_22	J22_23	130.00	150.0	140.0	0.1430	Open
P2795	J22_22	J23_22	130.00	200.0	135.0	0.0809	Open
P2796	J22_23	J22_24	130.00	100.0	125.0	0.0824	Open
P2797	J22_23	J23_23	130.00	300.0	130.0	0.0688	Open
P2798	J22_24	J22_25	130.00	200.0	130.0	0.0885	Open
P2799	J22_24	J23_24	130.00	150.0	140.0	0.1386	Open
P2800	J22_25	J22_26	130.00	450.0	125.0	0.0023	Open
P2801	J22_25	J23_25	130.00	400.0	125.0	0.0170	Open
P2802	J22_26	J22_27	130.00	150.0	135.0	0.1455	Open
P2803	J22_26	J23_26	130.00	300.0	140.0	0.0961	Open
P2804	J22_27	J22_28	130.00	100.0	140.0	0.0309	Open
P2805	J22_27	J23_27	130.00	100.0	125.0	0.0845	Open
P2806	J22_28	J22_29	130.00	150.0	135.0	0.1153	Open
P2807	J22_28	J23_28	130.00	200.0	140.0	0.0086	Open
P2808	J22_29	J22_30	130.00	300.0	140.0	0.1307	Open
P2809	J22_29	J23_29	130.00	200.0	130.0	0.1413	Open
P2810	J22_30	J22_31	130.00	150.0	135.0	0.1081	Open
P2811	J22_30	J23_30	130.00	300.0	125.0	0.0496	Open
P2812	J22_31	J22_32	130.00	200.0	135.0	0.0997	Open
P2813	J22_31	J23_31	130.00	200.0	140.0	0.0947	Open
P2814	J22_32	J22_33	130.00	250.0	135.0	0.0522	Open
P2815	J22_32	J23_32	130.00	200.0	135.0	0.0832	Open
P2816	J22_33	J22_34	130.00	600.0	125.0	0.0250	Open
P2817	J22_33	J23_33	130.00	450.0	125.0	0.0248	Open
P2818	J22_34	J22_35	130.00	100.0	135.0	0.0128	Open
P2819	J22_34	J23_34	130.00	250.0	135.0	0.0730	Open
P2820	J22_35	J22_36	130.00	150.0	125.0	0.0987	Open
P2821	J22_35	J23_35	130.00	100.0	135.0	0.0090	Open
P2822	J22_36	J22_37	130.00	150.0	140.0	0.0858	Open
P2823	J22_36	J23_36	130.00	200.0	140.0	0.0617	Open
P2824	J22_37	J22_38	130.00	300.0	135.0	0.0563	Open
P2825	J22_37	J23_37	130.00	300.0	130.0	0.1149	Open
P2826	J22_38	J22_39	130.00	100.0	130.0	0.0087	Open
P2827	J22_38	J23_38	130.00	150.0	125.0	0.1212	Open
P2828	J22_39	J22_40	130.00	100.0	125.0	0.0971	Open
P2829	J22_39	J23_39	130.00	100.0	140.0	0.1106	Open
P2830	J22_40	J22_41	130.00	150.0	125.0	0.1069	Open
P2831	J22_40	J23_40	130.00	200.0	135.0	0.0499	Open
P2832	J22_41	J22_42	130.00	600.0	130.0	0.0360	Open
P2833	J22_41	J23_41	130.00	500.0	125.0	0.0277	Open
P2834	J22_42	J22_43	130.00	150.0	135.0	0.1353	Open
P2835	J22_42	J23_42	130.00	150.0	125.0	0.1316	Open
P2836	J22_43	J22_44	130.00	300.0	140.0	0.1123	Open
P2837	J22_43	J23_43	130.00	300.0	135.0	0.1386	Open
P2838	J22_44	J22_45	130.00	200.0	140.0	0.0673	Open
P2839	J22_44	J23_44	130.00	100.0	140.0	0.0482	Open
P2840	J22_45	J22_46	130.00	100.0	125.0	0.0345	Open
P2841	J22_45	J23_45	130.00	150.0	140.0	0.1093	Open
P2842	J22_46	J22_47	130.00	150.0	125.0	0.1253	Open
P2843	J22_46	J23_46	130.00	100.0	125.0	0.0135	Open
P2844	J22_47	J22_48	130.00	100.0	130.0	0.1352	Open
P2845	J22_47	J23_47	130.00	300.0	125.0	0.1260	Open
P2846	J22_48	J22_49	130.00	250.0	135.0	0.0871	Open
P2847	J22_48	J23_48	130.00	250.0	135.0	0.0658	Open
P2848	J22_49	J22_50	130.00	400.0	120.0	0.0095	Open
P2849	J22_49	J23_49	130.00	400.0	125.0	0.0445	Open
P2850	J22_50	J22_51	130.00	250.0	140.0	0.0430	Open
P2851	J22_50	J23_50	130.00	300.0	135.0	0.0709	Open
P2852	J22_51	J22_52	130.00	200.0	140.0	0.0247	Open
P2853	J22_51	J23_51	130.00	150.0	140.0	0.0658	Open
P2854	J22_52	J22_53	130.00	150.0	130.0	0.0866	Open
P2855	J22_52	J23_52	130.00	150.0	130.0	0.1243	Open
P2856	J22_53	J22_54	130.00	200.0	125.0	0.1159	Open
P2857	J22_53	J23_53	130.00	150.0	140.0	0.0125	Open
P2858	J22_54	J22_55	130.00	200.0	125.0	0.0294	Open
P2859	J22_54	J23_54	130.00	300.0	125.0	0.0927	Open
P2860	J22_55	J22_56	130.00	250.0	140.0	0.0993	Open
P2861	J22_55	J23_55	130.00	300.0	130.0	0.1038	Open
P2862	J22_56	J22_57	130.00	200.0	130.0	0.0862	Open
P2863	J22_56	J23_56	130.00	300.0	125.0	0.0591	Open
P2864	J22_57	J22_58	130.00	400.0	120.0	0.0149	Open
P2865	J22_57	J23_57	130.00	600.0	125.0	0.0346	Open
P2866	J22_58	J22_59	130.00	150.0	135.0	0.0334	Open
P2867	J22_58	J23_58	130.00	300.0	135.0	0.1360	Open
P2868	J22_59	J22_60	130.00	250.0	140.0	0.1089	Open
P2869	J22_59	J23_59	130.00	200.0	140.0	0.0954	Open
P2870	J22_60	J22_61	130.00	200.0	135.0	0.0093	Open
P2871	J22_60	J23_60	130.00	300.0	135.0	0.0263	Open
P2872	J22_61	J22_62	130.00	150.0	125.0	0.0260	Open
P2873	J22_61	J23_61	130.00	100.0	130.0	0.1137	Open
P2874	J22_62	J22_63	130.00	150.0	135.0	0.0293	Open
P2875	J22_62	J23_62	130.00	100.0	135.0	0.0122	Open
P2876	J22_63	J22_64	130.00	200.0	130.0	0.1122	Open
P2877	J22_63	J23_63	130.00	300.0	135.0	0.0247	Open
P2878	J22_64	J22_65	130.00	300.0	125.0	0.0419	Open
P2879	J22_64	J23_64	130.00	250.0	135.0	0.0449	Open
P2880	J22_65	J22_66	130.00	500.0	120.0	0.0396	Open
P2881	J22_65	J23_65	130.00	450.0	125.0	0.0402	Open
P2882	J22_66	J23_66	130.00	200.0	140.0	0.1164	Open
P2883	J23_1	J23_2	130.00	400.0	120.0	0.0121	Open
P2884	J23_1	J24_1	130.00	450.0	125.0	0.0198	Open
P2885	J23_2	J23_3	130.00	250.0	135.0	0.0230	Open
P2886	J23_2	J24_2	130.00	300.0	135.0	0.1296	Open
P2887	J23_3	J23_4	130.00	200.0	125.0	0.0309	Open
P2888	J23_3	J24_3	130.00	300.0	125.0	0.0914	Open
P2889	J23_4	J23_5	130.00	150.0	135.0	0.1261	Open
P2890	J23_4	J24_4	130.00	100.0	125.0	0.0685	Open
P2891	J23_5	J23_6	130.00	200.0	140.0	0.0471	Open
P2892	J23_5	J24_5	130.00	250.0	125.0	0.0741	Open
P2893	J23_6	J23_7	130.00	250.0	135.0	0.0240	Open
P2894	J23_6	J24_6	130.00	150.0	135.0	0.0501	Open
P2895	J23_7	J23_8	130.00	100.0	130.0	0.1358	Open
P2896	J23_7	J24_7	130.00	100.0	125.0	0.0311	Open
P2897	J23_8	J23_9	130.00	150.0	135.0	0.0262	Open
P2898	J23_8	J24_8	130.00	100.0	130.0	0.1242	Open
P2899	J23_9	J23_10	130.00	400.0	125.0	0.0319	Open
P2900	J23_9	J24_9	130.00	600.0	130.0	0.0360	Open
P2901	J23_10	J23_11	130.00	200.0	135.0	0.1300	Open
P2902	J23_10	J24_10	130.00	200.0	140.0	0.0711	Open
P2903	J23_11	J23_12	130.00	150.0	125.0	0.0638	Open
P2904	J23_11	J24_11	130.00	250.0	130.0	0.0378	Open
P2905	J23_12	J23_13	130.00	250.0	135.0	0.0076	Open
P2906	J23_12	J24_12	130.00	200.0	140.0	0.0313	Open
P2907	J23_13	J23_14	130.00	100.0	130.0	0.0985	Open
P2908	J23_13	J24_13	130.00	150.0	135.0	0.0089	Open
P2909	J23_14	J23_15	130.00	200.0	125.0	0.0948	Open
P2910	J23_14	J24_14	130.00	150.0	135.0	0.0198	Open
P2911	J23_15	J23_16	130.00	150.0	140.0	0.0857	Open
P2912	J23_15	J24_15	130.00	100.0	135.0	0.1385	Open
P2913	J23_16	J23_17	130.00	150.0	135.0	0.0414	Open
P2914	J23_16	J24_16	130.00	150.0	130.0	0.0198	Open
P2915	J23_17	J23_18	130.00	400.0	120.0	0.0069	Open
P2916	J23_17	J24_17	130.00	300.0	125.0	0.0278	Open
P2917	J23_18	J23_19	130.00	300.0	125.0	0.1470	Open
P2918	J23_18	J24_18	130.00	100.0	130.0	0.0540	Open
P2919	J23_19	J23_20	130.00	300.0	140.0	0.0537	Open
P2920	J23_19	J24_19	130.00	100.0	140.0	0.0127	Open
P2921	J23_20	J23_21	130.00	100.0	140.0	0.0362	Open
P2922	J23_20	J24_20	130.00	150.0	140.0	0.0346	Open
P2923	J23_21	J23_22	130.00	150.0	140.0	0.0149	Open
P2924	J23_21	J24_21	130.00	300.0	135.0	0.0557	Open
P2925	J23_22	J23_23	130.00	100.0	130.0	0.0715	Open
P2926	J23_22	J24_22	130.00	150.0	130.0	0.1409	Open
P2927	J23_23	J23_24	130.00	200.0	130.0	0.0026	Open
P2928	J23_23	J24_23	130.00	150.0	130.0	0.0954	Open
P2929	J23_24	J23_25	130.00	150.0	135.0	0.0630	Open
P2930	J23_24	J24_24	130.00	150.0	140.0	0.0769	Open
P2931	J23_25	J23_26	130.00	500.0	130.0	0.0052	Open
P2932	J23_25	J24_25	130.00	500.0	125.0	0.0162	Open
P2933	J23_26	J23_27	130.00	150.0	125.0	0.1211	Open
P2934	J23_26	J24_26	130.00	250.0	140.0	0.1234	Open
P2935	J23_27	J23_28	130.00	200.0	135.0	0.1309	Open
P2936	J23_27	J24_27	130.00	200.0	125.0	0.0181	Open
P2937	J23_28	J23_29	130.00	200.0	125.0	0.1187	Open
P2938	J23_28	J24_28	130.00	250.0	140.0	0.0567	Open
P2939	J23_29	J23_30	130.00	250.0	130.0	0.0550	Open
P2940	J23_29	J24_29	130.00	300.0	130.0	0.0395	Open
P2941	J23_30	J23_31	130.00	300.0	130.0	0.0487	Open
P2942	J23_30	J24_30	130.00	200.0	140.0	0.1068	Open
P2943	J23_31	J23_32	130.00	250.0	135.0	0.1363	Open
P2944	J23_31	J24_31	130.00	250.0	125.0	0.1008	Open
P2945	J23_32	J23_33	130.00	150.0	130.0	0.1497	Open
P2946	J23_32	J24_32	130.00	100.0	130.0	0.0831	Open
P2947	J23_33	J23_34	130.00	400.0	125.0	0.0335	Open
P2948	J23_33	J24_33	130.00	600.0	125.0	0.0260	Open
P2949	J23_34	J23_35	130.00	150.0	140.0	0.0618	Open
P2950	J23_34	J24_34	130.00	150.0	125.0	0.0103	Open
P2951	J23_35	J23_36	130.00	150.0	135.0	0.0411	Open
P2952	J23_35	J24_35	130.00	150.0	130.0	0.1287	Open
P2953	J23_36	J23_37	130.00	200.0	125.0	0.1327	Open
P2954	J23_36	J24_36	130.00	150.0	140.0	0.1466	Open
P2955	J23_37	J23_38	130.00	150.0	140.0	0.0791	Open
P2956	J23_37	J24_37	130.00	250.0	130.0	0.0800	Open
P2957	J23_38	J23_39	130.00	100.0	135.0	0.0474	Open
P2958	J23_38	J24_38	130.00	300.0	125.0	0.0160	Open
P2959	J23_39	J23_40	130.00	150.0	125.0	0.0462	Open
P2960	J23_39	J24_39	130.00	250.0	140.0	0.1492	Open
P2961	J23_40	J23_41	130.00	250.0	125.0	0.0377	Open
P2962	J23_40	J24_40	130.00	150.0	135.0	0.1399	Open
P2963	J23_41	J23_42	130.00	400.0	130.0	0.0283	Open
P2964	J23_41	J24_41	130.00	600.0	125.0	0.0327	Open
P2965	J23_42	J23_43	130.00	250.0	125.0	0.0838	Open
P2966	J23_42	J24_42	130.00	300.0	130.0	0.1142	Open
P2967	J23_43	J23_44	130.00	250.0	130.0	0.0951	Open
P2968	J23_43	J24_43	130.00	200.0	135.0	0.1440	Open
P2969	J23_44	J23_45	130.00	200.0	140.0	0.1423	Open
P2970	J23_44	J24_44	130.00	300.0	135.0	0.1331	Open
P2971	J23_45	J23_46	130.00	200.0	130.0	0.0913	Open
P2972	J23_45	J24_45	130.00	200.0	140.0	0.1267	Open
P2973	J23_46	J23_47	130.00	300.0	130.0	0.0059	Open
P2974	J23_46	J24_46	130.00	200.0	140.0	0.1470	Open
P2975	J23_47	J23_48	130.00	150.0	125.0	0.0699	Open
P2976	J23_47	J24_47	130.00	100.0	135.0	0.0226	Open
P2977	J23_48	J23_49	130.00	100.0	140.0	0.0661	Open
P2978	J23_48	J24_48	130.00	200.0	140.0	0.1373	Open
P2979	J23_49	J23_50	130.00	350.0	125.0	0.0440	Open
P2980	J23_49	J24_49	130.00	400.0	130.0	0.0057	Open
P2981	J23_50	J23_51	130.00	300.0	140.0	0.0821	Open
P2982	J23_50	J24_50	130.00	300.0	140.0	0.0261	Open
P2983	J23_51	J23_52	130.00	250.0	135.0	0.1144	Open
P2984	J23_51	J24_51	130.00	200.0	135.0	0.0327	Open
P2985	J23_52	J23_53	130.00	300.0	125.0	0.1155	Open
P2986	J23_52	J24_52	130.00	150.0	125.0	0.0629	Open
P2987	J23_53	J23_54	130.00	200.0	135.0	0.0349	Open
P2988	J23_53	J24_53	130.00	300.0	135.0	0.1148	Open
P2989	J23_54	J23_55	130.00	300.0	125.0	0.0778	Open
P2990	J23_54	J24_54	130.00	200.0	140.0	0.0563	Open
P2991	J23_55	J23_56	130.00	250.0	135.0	0.0267	Open
P2992	J23_55	J24_55	130.00	200.0	125.0	0.0972	Open
P2993	J23_56	J23_57	130.00	300.0	140.0	0.0936	Open
P2994	J23_56	J24_56	130.00	200.0	130.0	0.0146	Open
P2995	J23_57	J23_58	130.00	400.0	125.0	0.0367	Open
P2996	J23_57	J24_57	130.00	450.0	125.0	0.0367	Open
P2997	J23_58	J23_59	130.00	150.0	140.0	0.0445	Open
P2998	J23_58	J24_58	130.00	250.0	135.0	0.0279	Open
P2999	J23_59	J23_60	130.00	300.0	130.0	0.1411	Open
P3000	J23_59	J24_59	130.00	150.0	140.0	0.0428	Open
P3001	J23_60	J23_61	130.00	200.0	125.0	0.1247	Open
P3002	J23_60	J24_60	130.00	150.0	130.0	0.0482	Open
P3003	J23_61	J23_62	130.00	100.0	140.0	0.1369	Open
P3004	J23_61	J24_61	130.00	100.0	135.0	0.0764	Open
P3005	J23_62	J23_63	130.00	200.0	125.0	0.0887	Open
P3006	J23_62	J24_62	130.00	250.0	125.0	0.0683	Open
P3007	J23_63	J23_64	130.00	250.0	130.0	0.0204	Open
P3008	J23_63	J24_63	130.00	250.0	135.0	0.0964	Open
P3009	J23_64	J23_65	130.00	250.0	135.0	0.0981	Open
P3010	J23_64	J24_64	130.00	150.0	130.0	0.0350	Open
P3011	J23_65	J23_66	130.00	600.0	130.0	0.0458	Open
P3012	J23_65	J24_65	130.00	450.0	120.0	0.0077	Open
P3013	J23_66	J24_66	130.00	100.0	135.0	0.0771	Open
P3014	J24_1	J24_2	130.00	450.0	125.0	0.0103	Open
P3015	J24_1	J25_1	130.00	500.0	125.0	0.0246	Open
P3016	J24_2	J24_3	130.00	300.0	140.0	0.0630	Open
P3017	J24_2	J25_2	130.00	150.0	130.0	0.0759	Open
P3018	J24_3	J24_4	130.00	200.0	140.0	0.1467	Open
P3019	J24_3	J25_3	130.00	250.0	140.0	0.1073	Open
P3020	J24_4	J24_5	130.00	200.0	125.0	0.0005	Open
P3021	J24_4	J25_4	130.00	250.0	140.0	0.1374	Open
P3022	J24_5	J24_6	130.00	150.0	130.0	0.1216	Open
P3023	J24_5	J25_5	130.00	300.0	135.0	0.0292	Open
P3024	J24_6	J24_7	130.00	200.0	140.0	0.0645	Open
P3025	J24_6	J25_6	130.00	200.0	130.0	0.0214	Open
P3026	J24_7	J24_8	130.00	150.0	130.0	0.0327	Open
P3027	J24_7	J25_7	130.00	100.0	135.0	0.0718	Open
P3028	J24_8	J24_9	130.00	300.0	140.0	0.0173	Open
P3029	J24_8	J25_8	130.00	250.0	140.0	0.0991	Open
P3030	J24_9	J24_10	130.00	400.0	130.0	0.0297	Open
P3031	J24_9	J25_9	130.00	300.0	125.0	0.0202	Open
P3032	J24_10	J24_11	130.00	300.0	140.0	0.1203	Open
P3033	J24_10	J25_10	130.00	150.0	135.0	0.0686	Open
P3034	J24_11	J24_12	130.00	100.0	130.0	0.0354	Open
P3035	J24_11	J25_11	130.00	150.0	125.0	0.0248	Open
P3036	J24_12	J24_13	130.00	150.0	135.0	0.1056	Open
P3037	J24_12	J25_12	130.00	300.0	125.0	0.0279	Open
P3038	J24_13	J24_14	130.00	100.0	125.0	0.0851	Open
P3039	J24_13	J25_13	130.00	200.0	125.0	0.0154	Open
P3040	J24_14	J24_15	130.00	150.0	135.0	0.0560	Open
P3041	J24_14	J25_14	130.00	300.0	135.0	0.0124	Open
P3042	J24_15	J24_16	130.00	100.0	135.0	0.1364	Open
P3043	J24_15	J25_15	130.00	300.0	130.0	0.0001	Open
P3044	J24_16	J24_17	130.00	300.0	135.0	0.1242	Open
P3045	J24_16	J25_16	130.00	150.0	125.0	0.0194	Open
P3046	J24_17	J24_18	130.00	350.0	125.0	0.0346	Open
P3047	J24_17	J25_17	130.00	500.0	125.0	0.0250	Open
P3048	J24_18	J24_19	130.00	250.0	130.0	0.1432	Open
P3049	J24_18	J25_18	130.00	300.0	135.0	0.1419	Open
P3050	J24_19	J24_20	130.00	300.0	140.0	0.1470	Open
P3051	J24_19	J25_19	130.00	300.0	125.0	0.0071	Open
P3052	J24_20	J24_21	130.00	300.0	135.0	0.0312	Open
P3053	J24_20	J25_20	130.00	150.0	130.0	0.1258	Open
P3054	J24_21	J24_22	130.00	300.0	130.0	0.0150	Open
P3055	J24_21	J25_21	130.00	200.0	125.0	0.0732	Open
P3056	J24_22	J24_23	130.00	300.0	140.0	0.1414	Open
P3057	J24_22	J25_22	130.00	100.0	140.0	0.0240	Open
P3058	J24_23	J24_24	130.00	150.0	135.0	0.0093	Open
P3059	J24_23	J25_23	130.00	250.0	135.0	0.0740	Open
P3060	J24_24	J24_25	130.00	300.0	130.0	0.0537	Open
P3061	J24_24	J25_24	130.00	300.0	125.0	0.1191	Open
P3062	J24_25	J24_26	130.00	300.0	130.0	0.0084	Open
P3063	J24_25	J25_25	130.00	450.0	125.0	0.0313	Open
P3064	J24_26	J24_27	130.00	300.0	130.0	0.0244	Open
P3065	J24_26	J25_26	130.00	200.0	130.0	0.0891	Open
P3066	J24_27	J24_28	130.00	100.0	130.0	0.0559	Open
P3067	J24_27	J25_27	130.00	150.0	125.0	0.0735	Open
P3068	J24_28	J24_29	130.00	150.0	140.0	0.0339	Open
P3069	J24_28	J25_28	130.00	250.0	135.0	0.0518	Open
P3070	J24_29	J24_30	130.00	300.0	130.0	0.0965	Open
P3071	J24_29	J25_29	130.00	250.0	140.0	0.0913	Open
P3072	J24_30	J24_31	130.00	150.0	130.0	0.0294	Open
P3073	J24_30	J25_30	130.00	150.0	130.0	0.1499	Open
P3074	J24_31	J24_32	130.00	250.0	130.0	0.1247	Open
P3075	J24_31	J25_31	130.00	250.0	130.0	0.1298	Open
P3076	J24_32	J24_33	130.00	150.0	130.0	0.0422	Open
P3077	J24_32	J25_32	130.00	250.0	130.0	0.0347	Open
P3078	J24_33	J24_34	130.00	600.0	120.0	0.0184	Open
P3079	J24_33	J25_33	130.00	600.0	130.0	0.0181	Open
P3080	J24_34	J24_35	130.00	100.0	140.0	0.0331	Open
P3081	J24_34	J25_34	130.00	250.0	135.0	0.0048	Open
P3082	J24_35	J24_36	130.00	300.0	130.0	0.1008	Open
P3083	J24_35	J25_35	130.00	100.0	125.0	0.0031	Open
P3084	J24_36	J24_37	130.00	200.0	135.0	0.0743	Open
P3085	J24_36	J25_36	130.00	200.0	140.0	0.1056	Open
P3086	J24_37	J24_38	130.00	250.0	140.0	0.0120	Open
P3087	J24_37	J25_37	130.00	150.0	135.0	0.0318	Open
P3088	J24_38	J24_39	130.00	100.0	125.0	0.0739	Open
P3089	J24_38	J25_38	130.00	100.0	130.0	0.0231	Open
P3090	J24_39	J24_40	130.00	200.0	135.0	0.1071	Open
P3091	J24_39	J25_39	130.00	150.0	140.0	0.1296	Open
P3092	J24_40	J24_41	130.00	200.0	140.0	0.1165	Open
P3093	J24_40	J25_40	130.00	150.0	125.0	0.0728	Open
P3094	J24_41	J24_42	130.00	400.0	130.0	0.0384	Open
P3095	J24_41	J25_41	130.00	600.0	120.0	0.0259	Open
P3096	J24_42	J24_43	130.00	150.0	125.0	0.1290	Open
P3097	J24_42	J25_42	130.00	100.0	130.0	0.0300	Open
P3098	J24_43	J24_44	130.00	150.0	140.0	0.1171	Open
P3099	J24_43	J25_43	130.00	100.0	125.0	0.0548	Open
P3100	J24_44	J24_45	130.00	250.0	125.0	0.1424	Open
P3101	J24_44	J25_44	130.00	150.0	135.0	0.0044	Open
P3102	J24_45	J24_46	130.00	150.0	135.0	0.1099	Open
P3103	J24_45	J25_45	130.00	100.0	135.0	0.0004	Open
P3104	J24_46	J24_47	130.00	250.0	140.0	0.1156	Open
P3105	J24_46	J25_46	130.00	200.0	135.0	0.0325	Open
P3106	J24_47	J24_48	130.00	300.0	125.0	0.0161	Open
P3107	J24_47	J25_47	130.00	300.0	140.0	0.0443	Open
P3108	J24_48	J24_49	130.00	200.0	140.0	0.0222	Open
P3109	J24_48	J25_48	130.00	300.0	130.0	0.0453	Open
P3110	J24_49	J24_50	130.00	500.0	125.0	0.0111	Open
P3111	J24_49	J25_49	130.00	350.0	125.0	0.0268	Open
P3112	J24_50	J24_51	130.00	300.0	135.0	0.0066	Open
P3113	J24_50	J25_50	130.00	100.0	140.0	0.0734	Open
P3114	J24_51	J24_52	130.00	150.0	135.0	0.1019	Open
P3115	J24_51	J25_51	130.00	250.0	140.0	0.0742	Open
P3116	J24_52	J24_53	130.00	150.0	135.0	0.0298	Open
P3117	J24_52	J25_52	130.00	100.0	135.0	0.0264	Open
P3118	J24_53	J24_54	130.00	100.0	135.0	0.0964	Open
P3119	J24_53	J25_53	130.00	100.0	125.0	0.0731	Open
P3120	J24_54	J24_55	130.00	200.0	135.0	0.0672	Open
P3121	J24_54	J25_54	130.00	100.0	140.0	0.0788	Open
P3122	J24_55	J24_56	130.00	100.0	125.0	0.0950	Open
P3123	J24_55	J25_55	130.00	300.0	140.0	0.0481	Open
P3124	J24_56	J24_57	130.00	200.0	140.0	0.0848	Open
P3125	J24_56	J25_56	130.00	100.0	125.0	0.1254	Open
P3126	J24_57	J24_58	130.00	350.0	120.0	0.0461	Open
P3127	J24_57	J25_57	130.00	300.0	125.0	0.0163	Open
P3128	J24_58	J24_59	130.00	250.0	135.0	0.0670	Open
P3129	J24_58	J25_58	130.00	250.0	125.0	0.0683	Open
P3130	J24_59	J24_60	130.00	150.0	125.0	0.0750	Open
P3131	J24_59	J25_59	130.00	200.0	125.0	0.0704	Open
P3132	J24_60	J24_61	130.00	150.0	130.0	0.0412	Open
P3133	J24_60	J25_60	130.00	300.0	140.0	0.0190	Open
P3134	J24_61	J24_62	130.00	200.0	125.0	0.1037	Open
P3135	J24_61	J25_61	130.00	250.0	130.0	0.0177	Open
P3136	J24_62	J24_63	130.00	200.0	130.0	0.1040	Open
P3137	J24_62	J25_62	130.00	150.0	135.0	0.0615	Open
P3138	J24_63	J24_64	130.00	150.0	135.0	0.0452	Open
P3139	J24_63	J25_63	130.00	150.0	135.0	0.1047	Open
P3140	J24_64	J24_65	130.00	150.0	140.0	0.0432	Open
P3141	J24_64	J25_64	130.00	300.0	130.0	0.0885	Open
P3142	J24_65	J24_66	130.00	350.0	120.0	0.0466	Open
P3143	J24_65	J25_65	130.00	450.0	120.0	0.0008	Open
P3144	J24_66	J25_66	130.00	200.0	125.0	0.0502	Open
P3145	J25_1	J25_2	130.00	400.0	125.0	0.0345	Open
P3146	J25_1	J26_1	130.00	400.0	125.0	0.0474	Open
P3147	J25_2	J25_3	130.00	450.0	130.0	0.0397	Open
P3148	J25_2	J26_2	130.00	600.0	120.0	0.0301	Open
P3149	J25_3	J25_4	130.00	400.0	120.0	0.0105	Open
P3150	J25_3	J26_3	130.00	450.0	125.0	0.0249	Open
P3151	J25_4	J25_5	130.00	400.0	125.0	0.0332	Open
P3152	J25_4	J26_4	130.00	450.0	130.0	0.0057	Open
P3153	J25_5	J25_6	130.00	600.0	125.0	0.0291	Open
P3154	J25_5	J26_5	130.00	300.0	130.0	0.0116	Open
P3155	J25_6	J25_7	130.00	350.0	125.0	0.0297	Open
P3156	J25_6	J26_6	130.00	400.0	120.0	0.0197	Open
P3157	J25_7	J25_8	130.00	300.0	130.0	0.0483	Open
P3158	J25_7	J26_7	130.00	600.0	125.0	0.0429	Open
P3159	J25_8	J25_9	130.00	300.0	130.0	0.0361	Open
P3160	J25_8	J26_8	130.00	450.0	125.0	0.0120	Open
P3161	J25_9	J25_10	130.00	450.0	130.0	0.0488	Open
P3162	J25_9	J26_9	130.00	300.0	130.0	0.0494	Open
P3163	J25_10	J25_11	130.00	450.0	130.0	0.0414	Open
P3164	J25_10	J26_10	130.00	600.0	125.0	0.0031	Open
P3165	J25_11	J25_12	130.00	500.0	125.0	0.0334	Open
P3166	J25_11	J26_11	130.00	300.0	120.0	0.0360	Open
P3167	J25_12	J25_13	130.00	400.0	125.0	0.0454	Open
P3168	J25_12	J26_12	130.00	600.0	120.0	0.0029	Open
P3169	J25_13	J25_14	130.00	400.0	120.0	0.0273	Open
P3170	J25_13	J26_13	130.00	600.0	125.0	0.0238	Open
P3171	J25_14	J25_15	130.00	500.0	130.0	0.0165	Open
P3172	J25_14	J26_14	130.00	500.0	125.0	0.0169	Open
P3173	J25_15	J25_16	130.00	500.0	125.0	0.0339	Open
P3174	J25_15	J26_15	130.00	450.0	130.0	0.0416	Open
P3175	J25_16	J25_17	130.00	600.0	125.0	0.0114	Open
P3176	J25_16	J26_16	130.00	600.0	130.0	0.0253	Open
P3177	J25_17	J25_18	130.00	600.0	130.0	0.0416	Open
P3178	J25_17	J26_17	130.00	450.0	125.0	0.0058	Open
P3179	J25_18	J25_19	130.00	600.0	130.0	0.0443	Open
P3180	J25_18	J26_18	130.00	300.0	125.0	0.0326	Open
P3181	J25_19	J25_20	130.00	600.0	125.0	0.0478	Open
P3182	J25_19	J26_19	130.00	500.0	130.0	0.0204	Open
P3183	J25_20	J25_21	130.00	400.0	130.0	0.0163	Open
P3184	J25_20	J26_20	130.00	300.0	125.0	0.0340	Open
P3185	J25_21	J25_22	130.00	350.0	130.0	0.0357	Open
P3186	J25_21	J26_21	130.00	500.0	125.0	0.0055	Open
P3187	J25_22	J25_23	130.00	300.0	125.0	0.0078	Open
P3188	J25_22	J26_22	130.00	500.0	130.0	0.0102	Open
P3189	J25_23	J25_24	130.00	400.0	125.0	0.0202	Open
P3190	J25_23	J26_23	130.00	500.0	120.0	0.0304	Open
P3191	J25_24	J25_25	130.00	350.0	120.0	0.0048	Open
P3192	J25_24	J26_24	130.00	500.0	120.0	0.0279	Open
P3193	J25_25	J25_26	130.00	500.0	130.0	0.0333	Open
P3194	J25_25	J26_25	130.00	300.0	130.0	0.0207	Open
P3195	J25_26	J25_27	130.00	300.0	125.0	0.0339	Open
P3196	J25_26	J26_26	130.00	400.0	120.0	0.0232	Open
P3197	J25_27	J25_28	130.00	350.0	130.0	0.0243	Open
P3198	J25_27	J26_27	130.00	450.0	125.0	0.0468	Open
P3199	J25_28	J25_29	130.00	350.0	120.0	0.0365	Open
P3200	J25_28	J26_28	130.00	400.0	130.0	0.0379	Open
P3201	J25_29	J25_30	130.00	500.0	125.0	0.0142	Open
P3202	J25_29	J26_29	130.00	300.0	125.0	0.0239	Open
P3203	J25_30	J25_31	130.00	350.0	125.0	0.0076	Open
P3204	J25_30	J26_30	130.00	400.0	125.0	0.0392	Open
P3205	J25_31	J25_32	130.00	400.0	120.0	0.0289	Open
P3206	J25_31	J26_31	130.00	600.0	125.0	0.0145	Open
P3207	J25_32	J25_33	130.00	400.0	125.0	0.0209	Open
P3208	J25_32	J26_32	130.00	600.0	125.0	0.0202	Open
P3209	J25_33	J25_34	130.00	350.0	120.0	0.0123	Open
P3210	J25_33	J26_33	130.00	450.0	125.0	0.0028	Open
P3211	J25_34	J25_35	130.00	500.0	130.0	0.0292	Open
P3212	J25_34	J26_34	130.00	450.0	125.0	0.0358	Open
P3213	J25_35	J25_36	130.00	350.0	130.0	0.0331	Open
P3214	J25_35	J26_35	130.00	500.0	130.0	0.0218	Open
P3215	J25_36	J25_37	130.00	350.0	130.0	0.0075	Open
P3216	J25_36	J26_36	130.00	300.0	120.0	0.0040	Open
P3217	J25_37	J25_38	130.00	350.0	120.0	0.0331	Open
P3218	J25_37	J26_37	130.00	450.0	120.0	0.0445	Open
P3219	J25_38	J25_39	130.00	500.0	120.0	0.0244	Open
P3220	J25_38	J26_38	130.00	400.0	120.0	0.0241	Open
P3221	J25_39	J25_40	130.00	600.0	125.0	0.0423	Open
P3222	J25_39	J26_39	130.00	350.0	125.0	0.0260	Open
P3223	J25_40	J25_41	130.00	400.0	130.0	0.0189	Open
P3224	J25_40	J26_40	130.00	600.0	130.0	0.0265	Open
P3225	J25_41	J25_42	130.00	300.0	130.0	0.0032	Open
P3226	J25_41	J26_41	130.00	500.0	130.0	0.0284	Open
P3227	J25_42	J25_43	130.00	300.0	130.0	0.0234	Open
P3228	J25_42	J26_42	130.00	600.0	120.0	0.0061	Open
P3229	J25_43	J25_44	130.00	600.0	125.0	0.0313	Open
P3230	J25_43	J26_43	130.00	500.0	130.0	0.0141	Open
P3231	J25_44	J25_45	130.00	350.0	120.0	0.0301	Open
P3232	J25_44	J26_44	130.00	500.0	130.0	0.0484	Open
P3233	J25_45	J25_46	130.00	300.0	130.0	0.0457	Open
P3234	J25_45	J26_45	130.00	350.0	130.0	0.0437	Open
P3235	J25_46	J25_47	130.00	400.0	125.0	0.0397	Open
P3236	J25_46	J26_46	130.00	350.0	120.0	0.0277	Open
P3237	J25_47	J25_48	130.00	450.0	120.0	0.0316	Open
P3238	J25_47	J26_47	130.00	450.0	120.0	0.0229	Open
P3239	J25_48	J25_49	130.00	450.0	120.0	0.0204	Open
P3240	J25_48	J26_48	130.00	450.0	125.0	0.0169	Open
P3241	J25_49	J25_50	130.00	300.0	120.0	0.0448	Open
P3242	J25_49	J26_49	130.00	600.0	130.0	0.0151	Open
P3243	J25_50	J25_51	130.00	450.0	120.0	0.0243	Open
P3244	J25_50	J26_50	130.00	350.0	125.0	0.0237	Open
P3245	J25_51	J25_52	130.00	300.0	130.0	0.0179	Open
P3246	J25_51	J26_51	130.00	350.0	120.0	0.0025	Open
P3247	J25_52	J25_53	130.00	600.0	120.0	0.0438	Open
P3248	J25_52	J26_52	130.00	500.0	130.0	0.0476	Open
P3249	J25_53	J25_54	130.00	350.0	125.0	0.0125	Open
P3250	J25_53	J26_53	130.00	300.0	130.0	0.0247	Open
P3251	J25_54	J25_55	130.00	450.0	120.0	0.0271	Open
P3252	J25_54	J26_54	130.00	500.0	130.0	0.0404	Open
P3253	J25_55	J25_56	130.00	300.0	130.0	0.0442	Open
P3254	J25_55	J26_55	130.00	500.0	125.0	0.0075	Open
P3255	J25_56	J25_57	130.00	500.0	130.0	0.0255	Open
P3256	J25_56	J26_56	130.00	450.0	130.0	0.0059	Open
P3257	J25_57	J25_58	130.00	350.0	130.0	0.0474	Open
P3258	J25_57	J26_57	130.00	300.0	130.0	0.0259	Open
P3259	J25_58	J25_59	130.00	300.0	120.0	0.0338	Open
P3260	J25_58	J26_58	130.00	450.0	130.0	0.0195	Open
P3261	J25_59	J25_60	130.00	350.0	120.0	0.0132	Open
P3262	J25_59	J26_59	130.00	350.0	125.0	0.0042	Open
P3263	J25_60	J25_61	130.00	400.0	120.0	0.0418	Open
P3264	J25_60	J26_60	130.00	450.0	120.0	0.0327	Open
P3265	J25_61	J25_62	130.00	600.0	125.0	0.0350	Open
P3266	J25_61	J26_61	130.00	600.0	120.0	0.0475	Open
P3267	J25_62	J25_63	130.00	600.0	125.0	0.0283	Open
P3268	J25_62	J26_62	130.00	300.0	120.0	0.0382	Open
P3269	J25_63	J25_64	130.00	600.0	120.0	0.0111	Open
P3270	J25_63	J26_63	130.00	450.0	120.0	0.0285	Open
P3271	J25_64	J25_65	130.00	350.0	130.0	0.0233	Open
P3272	J25_64	J26_64	130.00	600.0	130.0	0.0161	Open
P3273	J25_65	J25_66	130.00	350.0	125.0	0.0208	Open
P3274	J25_65	J26_65	130.00	500.0	125.0	0.0477	Open
P3275	J25_66	J26_66	130.00	500.0	125.0	0.0033	Open
P3276	J26_1	J26_2	130.00	300.0	130.0	0.0393	Open
P3277	J26_1	J27_1	130.00	400.0	130.0	0.0160	Open
P3278	J26_2	J26_3	130.00	100.0	130.0	0.1276	Open
P3279	J26_2	J27_2	130.00	300.0	125.0	0.0370	Open
P3280	J26_3	J26_4	130.00	300.0	135.0	0.1325	Open
P3281	J26_3	J27_3	130.00	300.0	135.0	0.0509	Open
P3282	J26_4	J26_5	130.00	100.0	125.0	0.0938	Open
P3283	J26_4	J27_4	130.00	100.0	135.0	0.0362	Open
P3284	J26_5	J26_6	130.00	300.0	140.0	0.1466	Open
P3285	J26_5	J27_5	130.00	100.0	130.0	0.0200	Open
P3286	J26_6	J26_7	130.00	250.0	125.0	0.0065	Open
P3287	J26_6	J27_6	130.00	300.0	130.0	0.0668	Open
P3288	J26_7	J26_8	130.00	250.0	135.0	0.0741	Open
P3289	J26_7	J27_7	130.00	250.0	135.0	0.0543	Open
P3290	J26_8	J26_9	130.00	200.0	125.0	0.0259	Open
P3291	J26_8	J27_8	130.00	200.0	130.0	0.1045	Open
P3292	J26_9	J26_10	130.00	400.0	130.0	0.0464	Open
P3293	J26_9	J27_9	130.00	400.0	120.0	0.0304	Open
P3294	J26_10	J26_11	130.00	200.0	135.0	0.1275	Open
P3295	J26_10	J27_10	130.00	300.0	130.0	0.0898	Open
P3296	J26_11	J26_12	130.00	300.0	140.0	0.1376	Open
P3297	J26_11	J27_11	130.00	100.0	135.0	0.0809	Open
P3298	J26_12	J26_13	130.00	200.0	130.0	0.1432	Open
P3299	J26_12	J27_12	130.00	250.0	135.0	0.0967	Open
P3300	J26_13	J26_14	130.00	150.0	130.0	0.0221	Open
P3301	J26_13	J27_13	130.00	200.0	140.0	0.1088	Open
P3302	J26_14	J26_15	130.00	300.0	140.0	0.0160	Open
P3303	J26_14	J27_14	130.00	250.0	125.0	0.0404	Open
P3304	J26_15	J26_16	130.00	250.0	140.0	0.1422	Open
P3305	J26_15	J27_15	130.00	150.0	135.0	0.0273	Open
P3306	J26_16	J26_17	130.00	250.0	135.0	0.0695	Open
P3307	J26_16	J27_16	130.00	100.0	135.0	0.1250	Open
P3308	J26_17	J26_18	130.00	600.0	120.0	0.0166	Open
P3309	J26_17	J27_17	130.00	500.0	125.0	0.0100	Open
P3310	J26_18	J26_19	130.00	150.0	130.0	0.0012	Open
P3311	J26_18	J27_18	130.00	300.0	135.0	0.1024	Open
P3312	J26_19	J26_20	130.00	100.0	125.0	0.1290	Open
P3313	J26_19	J27_19	130.00	200.0	125.0	0.0491	Open
P3314	J26_20	J26_21	130.00	300.0	130.0	0.0844	Open
P3315	J26_20	J27_20	130.00	250.0	140.0	0.1170	Open
P3316	J26_21	J26_22	130.00	150.0	125.0	0.0719	Open
P3317	J26_21	J27_21	130.00	200.0	140.0	0.0226	Open
P3318	J26_22	J26_23	130.00	300.0	130.0	0.0941	Open
P3319	J26_22	J27_22	130.00	100.0	140.0	0.1302	Open
P3320	J26_23	J26_24	130.00	300.0	125.0	0.1039	Open
P3321	J26_23	J27_23	130.00	300.0	130.0	0.0933	Open
P3322	J26_24	J26_25	130.00	250.0	135.0	0.0480	Open
P3323	J26_24	J27_24	130.00	250.0	140.0	0.0016	Open
P3324	J26_25	J26_26	130.00	400.0	120.0	0.0154	Open
P3325	J26_25	J27_25	130.00	600.0	125.0	0.0191	Open
P3326	J26_26	J26_27	130.00	200.0	125.0	0.0847	Open
P3327	J26_26	J27_26	130.00	300.0	140.0	0.0295	Open
P3328	J26_27	J26_28	130.00	250.0	140.0	0.0815	Open
P3329	J26_27	J27_27	130.00	200.0	125.0	0.0939	Open
P3330	J26_28	J26_29	130.00	150.0	135.0	0.0060	Open
P3331	J26_28	J27_28	130.00	150.0	125.0	0.0717	Open
P3332	J26_29	J26_30	130.00	300.0	140.0	0.0502	Open
P3333	J26_29	J27_29	130.00	100.0	135.0	0.0079	Open
P3334	J26_30	J26_31	130.00	100.0	130.0	0.0736	Open
P3335	J26_30	J27_30	130.00	250.0	125.0	0.0027	Open
P3336	J26_31	J26_32	130.00	300.0	125.0	0.0748	Open
P3337	J26_31	J27_31	130.00	250.0	135.0	0.0648	Open
P3338	J26_32	J26_33	130.00	200.0	130.0	0.0985	Open
P3339	J26_32	J27_32	130.00	200.0	135.0	0.0311	Open
P3340	J26_33	J26_34	130.00	450.0	120.0	0.0344	Open
P3341	J26_33	J27_33	130.00	500.0	130.0	0.0315	Open
P3342	J26_34	J26_35	130.00	100.0	135.0	0.0017	Open
P3343	J26_34	J27_34	130.00	200.0	140.0	0.0649	Open
P3344	J26_35	J26_36	130.00	300.0	135.0	0.1475	Open
P3345	J26_35	J27_35	130.00	250.0	140.0	0.1168	Open
P3346	J26_36	J26_37	130.00	250.0	140.0	0.1054	Open
P3347	J26_36	J27_36	130.00	150.0	130.0	0.1208	Open
P3348	J26_37	J26_38	130.00	200.0	130.0	0.0397	Open
P3349	J26_37	J27_37	130.00	300.0	130.0	0.0503	Open
P3350	J26_38	J26_39	130.00	100.0	140.0	0.0428	Open
P3351	J26_38	J27_38	130.00	300.0	130.0	0.0412	Open
P3352	J26_39	J26_40	130.00	250.0	135.0	0.0152	Open
P3353	J26_39	J27_39	130.00	100.0	130.0	0.0618	Open
P3354	J26_40	J26_41	130.00	150.0	135.0	0.0311	Open
P3355	J26_40	J27_40	130.00	100.0	135.0	0.0038	Open
P3356	J26_41	J26_42	130.00	600.0	120.0	0.0101	Open
P3357	J26_41	J27_41	130.00	450.0	120.0	0.0130	Open
P3358	J26_42	J26_43	130.00	200.0	130.0	0.0553	Open
P3359	J26_42	J27_42	130.00	300.0	125.0	0.1474	Open
P3360	J26_43	J26_44	130.00	250.0	140.0	0.0393	Open
P3361	J26_43	J27_43	130.00	150.0	125.0	0.0319	Open
P3362	J26_44	J26_45	130.00	250.0	135.0	0.0738	Open
P3363	J26_44	J27_44	130.00	100.0	135.0	0.0334	Open
P3364	J26_45	J26_46	130.00	200.0	140.0	0.1206	Open
P3365	J26_45	J27_45	130.00	300.0	125.0	0.0315	Open
P3366	J26_46	J26_47	130.00	300.0	135.0	0.1291	Open
P3367	J26_46	J27_46	130.00	200.0	130.0	0.0327	Open
P3368	J26_47	J26_48	130.00	100.0	140.0	0.0075	Open
P3369	J26_47	J27_47	130.00	100.0	140.0	0.1303	Open
P3370	J26_48	J26_49	130.00	250.0	140.0	0.1168	Open
P3371	J26_48	J27_48	130.00	250.0	130.0	0.1451	Open
P3372	J26_49	J26_50	130.00	600.0	120.0	0.0274	Open
P3373	J26_49	J27_49	130.00	450.0	130.0	0.0154	Open
P3374	J26_50	J26_51	130.00	200.0	130.0	0.1037	Open
P3375	J26_50	J27_50	130.00	200.0	130.0	0.1414	Open
P3376	J26_51	J26_52	130.00	200.0	135.0	0.1480	Open
P3377	J26_51	J27_51	130.00	200.0	130.0	0.0313	Open
P3378	J26_52	J26_53	130.00	250.0	125.0	0.1018	Open
P3379	J26_52	J27_52	130.00	300.0	125.0	0.0253	Open
P3380	J26_53	J26_54	130.00	150.0	130.0	0.1131	Open
P3381	J26_53	J27_53	130.00	150.0	135.0	0.1234	Open
P3382	J26_54	J26_55	130.00	300.0	140.0	0.1002	Open
P3383	J26_54	J27_54	130.00	100.0	140.0	0.0857	Open
P3384	J26_55	J26_56	130.00	300.0	135.0	0.0168	Open
P3385	J26_55	J27_55	130.00	300.0	125.0	0.0002	Open
P3386	J26_56	J26_57	130.00	100.0	140.0	0.0767	Open
P3387	J26_56	J27_56	130.00	200.0	140.0	0.0379	Open
P3388	J26_57	J26_58	130.00	350.0	130.0	0.0243	Open
P3389	J26_57	J27_57	130.00	300.0	120.0	0.0183	Open
P3390	J26_58	J26_59	130.00	250.0	125.0	0.0430	Open
P3391	J26_58	J27_58	130.00	100.0	130.0	0.1104	Open
P3392	J26_59	J26_60	130.00	150.0	135.0	0.0762	Open
P3393	J26_59	J27_59	130.00	150.0	125.0	0.1030	Open
P3394	J26_60	J26_61	130.00	150.0	135.0	0.0127	Open
P3395	J26_60	J27_60	130.00	200.0	125.0	0.1168	Open
P3396	J26_61	J26_62	130.00	300.0	135.0	0.0296	Open
P3397	J26_61	J27_61	130.00	200.0	130.0	0.1465	Open
P3398	J26_62	J26_63	130.00	150.0	140.0	0.1006	Open
P3399	J26_62	J27_62	130.00	300.0	135.0	0.0482	Open
P3400	J26_63	J26_64	130.00	300.0	125.0	0.1288	Open
P3401	J26_63	J27_63	130.00	300.0	135.0	0.0987	Open
P3402	J26_64	J26_65	130.00	150.0	125.0	0.0054	Open
P3403	J26_64	J27_64	130.00	150.0	130.0	0.0656	Open
P3404	J26_65	J26_66	130.00	450.0	125.0	0.0048	Open
P3405	J26_65	J27_65	130.00	350.0	120.0	0.0432	Open
P3406	J26_66	J27_66	130.00	200.0	140.0	0.1359	Open
P3407	J27_1	J27_2	130.00	400.0	125.0	0.0423	Open
P3408	J27_1	J28_1	130.00	500.0	120.0	0.0113	Open
P3409	J27_2	J27_3	130.00	150.0	135.0	0.0504	Open
P3410	J27_2	J28_2	130.00	100.0	140.0	0.0811	Open
P3411	J27_3	J27_4	130.00	300.0	140.0	0.0461	Open
P3412	J27_3	J28_3	130.00	100.0	125.0	0.0683	Open
P3413	J27_4	J27_5	130.00	250.0	125.0	0.0182	Open
P3414	J27_4	J28_4	130.00	200.0	125.0	0.1294	Open
P3415	J27_5	J27_6	130.00	300.0	125.0	0.1010	Open
P3416	J27_5	J28_5	130.00	250.0	135.0	0.0632	Open
P3417	J27_6	J27_7	130.00	100.0	135.0	0.1394	Open
P3418	J27_6	J28_6	130.00	250.0	125.0	0.0086	Open
P3419	J27_7	J27_8	130.00	250.0	140.0	0.0656	Open
P3420	J27_7	J28_7	130.00	250.0	140.0	0.0297	Open
P3421	J27_8	J27_9	130.00	300.0	135.0	0.0177	Open
P3422	J27_8	J28_8	130.00	250.0	140.0	0.0234	Open
P3423	J27_9	J27_10	130.00	450.0	120.0	0.0365	Open
P3424	J27_9	J28_9	130.00	300.0	130.0	0.0487	Open
P3425	J27_10	J27_11	130.00	150.0	130.0	0.0857	Open
P3426	J27_10	J28_10	130.00	200.0	125.0	0.0722	Open
P3427	J27_11	J27_12	130.00	100.0	140.0	0.0047	Open
P3428	J27_11	J28_11	130.00	300.0	135.0	0.1464	Open
P3429	J27_12	J27_13	130.00	100.0	130.0	0.0600	Open
P3430	J27_12	J28_12	130.00	200.0	135.0	0.0353	Open
P3431	J27_13	J27_14	130.00	300.0	130.0	0.0027	Open
P3432	J27_13	J28_13	130.00	300.0	130.0	0.1474	Open
P3433	J27_14	J27_15	130.00	100.0	130.0	0.0980	Open
P3434	J27_14	J28_14	130.00	100.0	125.0	0.1402	Open
P3435	J27_15	J27_16	130.00	200.0	135.0	0.0922	Open
P3436	J27_15	J28_15	130.00	150.0	130.0	0.1329	Open
P3437	J27_16	J27_17	130.00	250.0	140.0	0.0287	Open
P3438	J27_16	J28_16	130.00	100.0	125.0	0.0596	Open
P3439	J27_17	J27_18	130.00	500.0	130.0	0.0091	Open
P3440	J27_17	J28_17	130.00	300.0	120.0	0.0367	Open
P3441	J27_18	J27_19	130.00	300.0	140.0	0.0533	Open
P3442	J27_18	J28_18	130.00	200.0	130.0	0.0776	Open
P3443	J27_19	J27_20	130.00	300.0	135.0	0.0276	Open
P3444	J27_19	J28_19	130.00	300.0	130.0	0.0485	Open
P3445	J27_20	J27_21	130.00	300.0	135.0	0.0574	Open
P3446	J27_20	J28_20	130.00	150.0	125.0	0.0427	Open
P3447	J27_21	J27_22	130.00	300.0	125.0	0.0945	Open
P3448	J27_21	J28_21	130.00	100.0	130.0	0.0687	Open
P3449	J27_22	J27_23	130.00	300.0	130.0	0.1391	Open
P3450	J27_22	J28_22	130.00	150.0	135.0	0.1147	Open
P3451	J27_23	J27_24	130.00	300.0	130.0	0.0856	Open
P3452	J27_23	J28_23	130.00	200.0	130.0	0.1272	Open
P3453	J27_24	J27_25	130.00	200.0	125.0	0.0904	Open
P3454	J27_24	J28_24	130.00	100.0	130.0	0.0189	Open
P3455	J27_25	J27_26	130.00	350.0	130.0	0.0076	Open
P3456	J27_25	J28_25	130.00	300.0	130.0	0.0084	Open
P3457	J27_26	J27_27	130.00	100.0	135.0	0.1093	Open
P3458	J27_26	J28_26	130.00	200.0	125.0	0.0934	Open
P3459	J27_27	J27_28	130.00	150.0	140.0	0.1394	Open
P3460	J27_27	J28_27	130.00	200.0	140.0	0.0817	Open
P3461	J27_28	J27_29	130.00	150.0	130.0	0.0701	Open
P3462	J27_28	J28_28	130.00	250.0	130.0	0.0076	Open
P3463	J27_29	J27_30	130.00	150.0	130.0	0.0791	Open
P3464	J27_29	J28_29	130.00	200.0	130.0	0.0908	Open
P3465	J27_30	J27_31	130.00	300.0	135.0	0.1033	Open
P3466	J27_30	J28_30	130.00	250.0	125.0	0.0637	Open
P3467	J27_31	J27_32	130.00	100.0	130.0	0.0162	Open
P3468	J27_31	J28_31	130.00	300.0	135.0	0.0098	Open
P3469	J27_32	J27_33	130.00	250.0	130.0	0.0293	Open
P3470	J27_32	J28_32	130.00	150.0	135.0	0.1235	Open
P3471	J27_33	J27_34	130.00	600.0	130.0	0.0130	Open
P3472	J27_33	J28_33	130.00	300.0	125.0	0.0235	Open
P3473	J27_34	J27_35	130.00	150.0	135.0	0.0273	Open
P3474	J27_34	J28_34	130.00	300.0	140.0	0.0063	Open
P3475	J27_35	J27_36	130.00	150.0	125.0	0.0633	Open
P3476	J27_35	J28_35	130.00	100.0	140.0	0.0775	Open
P3477	J27_36	J27_37	130.00	150.0	125.0	0.1395	Open
P3478	J27_36	J28_36	130.00	250.0	135.0	0.1316	Open
P3479	J27_37	J27_38	130.00	200.0	140.0	0.1329	Open
P3480	J27_37	J28_37	130.00	300.0	125.0	0.1026	Open
P3481	J27_38	J27_39	130.00	200.0	125.0	0.1032	Open
P3482	J27_38	J28_38	130.00	150.0	140.0	0.0879	Open
P3483	J27_39	J27_40	130.00	300.0	130.0	0.1368	Open
P3484	J27_39	J28_39	130.00	100.0	135.0	0.1366	Open
P3485	J27_40	J27_41	130.00	200.0	140.0	0.1352	Open
P3486	J27_40	J28_40	130.00	100.0	130.0	0.0812	Open
P3487	J27_41	J27_42	130.00	600.0	125.0	0.0402	Open
P3488	J27_41	J28_41	130.00	400.0	130.0	0.0464	Open
P3489	J27_42	J27_43	130.00	100.0	125.0	0.0158	Open
P3490	J27_42	J28_42	130.00	100.0	130.0	0.1132	Open
P3491	J27_43	J27_44	130.00	250.0	125.0	0.1163	Open
P3492	J27_43	J28_43	130.00	150.0	125.0	0.1033	Open
P3493	J27_44	J27_45	130.00	150.0	125.0	0.0991	Open
P3494	J27_44	J28_44	130.00	300.0	135.0	0.1248	Open
P3495	J27_45	J27_46	130.00	250.0	130.0	0.0104	Open
P3496	J27_45	J28_45	130.00	200.0	130.0	0.0805	Open
P3497	J27_46	J27_47	130.00	250.0	125.0	0.0382	Open
P3498	J27_46	J28_46	130.00	250.0	125.0	0.1179	Open
P3499	J27_47	J27_48	130.00	300.0	130.0	0.0535	Open
P3500	J27_47	J28_47	130.00	200.0	140.0	0.0333	Open
P3501	J27_48	J27_49	130.00	150.0	125.0	0.0156	Open
P3502	J27_48	J28_48	130.00	100.0	135.0	0.0841	Open
P3503	J27_49	J27_50	130.00	600.0	130.0	0.0193	Open
P3504	J27_49	J28_49	130.00	500.0	125.0	0.0033	Open
P3505	J27_50	J27_51	130.00	100.0	140.0	0.1011	Open
P3506	J27_50	J28_50	130.00	250.0	125.0	0.0529	Open
P3507	J27_51	J27_52	130.00	200.0	140.0	0.0593	Open
P3508	J27_51	J28_51	130.00	150.0	135.0	0.0604	Open
P3509	J27_52	J27_53	130.00	300.0	135.0	0.0691	Open
P3510	J27_52	J28_52	130.00	100.0	125.0	0.0268	Open
P3511	J27_53	J27_54	130.00	150.0	140.0	0.1081	Open
P3512	J27_53	J28_53	130.00	150.0	125.0	0.0600	Open
P3513	J27_54	J27_55	130.00	300.0	140.0	0.1238	Open
P3514	J27_54	J28_54	130.00	100.0	140.0	0.0353	Open
P3515	J27_55	J27_56	130.00	250.0	130.0	0.0431	Open
P3516	J27_55	J28_55	130.00	300.0	135.0	0.0959	Open
P3517	J27_56	J27_57	130.00	200.0	130.0	0.0583	Open
P3518	J27_56	J28_56	130.00	150.0	140.0	0.0338	Open
P3519	J27_57	J27_58	130.00	450.0	130.0	0.0021	Open
P3520	J27_57	J28_57	130.00	450.0	120.0	0.0469	Open
P3521	J27_58	J27_59	130.00	150.0	125.0	0.1465	Open
P3522	J27_58	J28_58	130.00	200.0	125.0	0.0792	Open
P3523	J27_59	J27_60	130.00	100.0	140.0	0.0533	Open
P3524	J27_59	J28_59	130.00	100.0	125.0	0.0846	Open
P3525	J27_60	J27_61	130.00	300.0	135.0	0.0832	Open
P3526	J27_60	J28_60	130.00	100.0	125.0	0.1272	Open
P3527	J27_61	J27_62	130.00	250.0	130.0	0.0695	Open
P3528	J27_61	J28_61	130.00	150.0	135.0	0.0080	Open
P3529	J27_62	J27_63	130.00	200.0	130.0	0.1142	Open
P3530	J27_62	J28_62	130.00	300.0	130.0	0.1485	Open
P3531	J27_63	J27_64	130.00	100.0	140.0	0.0067	Open
P3532	J27_63	J28_63	130.00	250.0	135.0	0.0172	Open
P3533	J27_64	J27_65	130.00	250.0	140.0	0.1248	Open
P3534	J27_64	J28_64	130.00	100.0	140.0	0.0964	Open
P3535	J27_65	J27_66	130.00	350.0	130.0	0.0084	Open
P3536	J27_65	J28_65	130.00	450.0	125.0	0.0190	Open
P3537	J27_66	J28_66	130.00	300.0	130.0	0.0700	Open
P3538	J28_1	J28_2	130.00	400.0	120.0	0.0129	Open
P3539	J28_1	J29_1	130.00	500.0	125.0	0.0122	Open
P3540	J28_2	J28_3	130.00	200.0	125.0	0.0325	Open
P3541	J28_2	J29_2	130.00	250.0	140.0	0.0232	Open
P3542	J28_3	J28_4	130.00	200.0	130.0	0.0610	Open
P3543	J28_3	J29_3	130.00	300.0	135.0	0.0222	Open
P3544	J28_4	J28_5	130.00	100.0	140.0	0.0064	Open
P3545	J28_4	J29_4	130.00	250.0	135.0	0.0294	Open
P3546	J28_5	J28_6	130.00	250.0	140.0	0.0200	Open
P3547	J28_5	J29_5	130.00	100.0	125.0	0.0677	Open
P3548	J28_6	J28_7	130.00	250.0	125.0	0.0577	Open
P3549	J28_6	J29_6	130.00	300.0	130.0	0.0783	Open
P3550	J28_7	J28_8	130.00	300.0	130.0	0.0239	Open
P3551	J28_7	J29_7	130.00	100.0	130.0	0.0445	Open
P3552	J28_8	J28_9	130.00	200.0	135.0	0.0652	Open
P3553	J28_8	J29_8	130.00	100.0	140.0	0.0994	Open
P3554	J28_9	J28_10	130.00	500.0	125.0	0.0353	Open
P3555	J28_9	J29_9	130.00	350.0	125.0	0.0379	Open
P3556	J28_10	J28_11	130.00	100.0	140.0	0.0811	Open
P3557	J28_10	J29_10	130.00	200.0	135.0	0.0462	Open
P3558	J28_11	J28_12	130.00	100.0	135.0	0.0832	Open
P3559	J28_11	J29_11	130.00	100.0	130.0	0.0686	Open
P3560	J28_12	J28_13	130.00	150.0	140.0	0.1283	Open
P3561	J28_12	J29_12	130.00	250.0	135.0	0.1165	Open
P3562	J28_13	J28_14	130.00	150.0	135.0	0.1195	Open
P3563	J28_13	J29_13	130.00	250.0	125.0	0.0650	Open
P3564	J28_14	J28_15	130.00	150.0	130.0	0.0951	Open
P3565	J28_14	J29_14	130.00	150.0	125.0	0.0950	Open
P3566	J28_15	J28_16	130.00	250.0	135.0	0.0644	Open
P3567	J28_15	J29_15	130.00	300.0	135.0	0.0707	Open
P3568	J28_16	J28_17	130.00	100.0	130.0	0.1255	Open
P3569	J28_16	J29_16	130.00	100.0	140.0	0.0048	Open
P3570	J28_17	J28_18	130.00	350.0	130.0	0.0239	Open
P3571	J28_17	J29_17	130.00	400.0	125.0	0.0091	Open
P3572	J28_18	J28_19	130.00	300.0	130.0	0.0260	Open
P3573	J28_18	J29_18	130.00	100.0	125.0	0.0263	Open
P3574	J28_19	J28_20	130.00	300.0	140.0	0.0593	Open
P3575	J28_19	J29_19	130.00	150.0	130.0	0.1108	Open
P3576	J28_20	J28_21	130.00	150.0	135.0	0.0390	Open
P3577	J28_20	J29_20	130.00	200.0	135.0	0.0721	Open
P3578	J28_21	J28_22	130.00	100.0	130.0	0.0378	Open
P3579	J28_21	J29_21	130.00	100.0	140.0	0.0802	Open
P3580	J28_22	J28_23	130.00	100.0	130.0	0.0223	Open
P3581	J28_22	J29_22	130.00	150.0	140.0	0.0365	Open
P3582	J28_23	J28_24	130.00	200.0	125.0	0.0728	Open
P3583	J28_23	J29_23	130.00	200.0	140.0	0.1088	Open
P3584	J28_24	J28_25	130.00	250.0	130.0	0.1323	Open
P3585	J28_24	J29_24	130.00	100.0	130.0	0.0907	Open
P3586	J28_25	J28_26	130.00	500.0	125.0	0.0024	Open
P3587	J28_25	J29_25	130.00	350.0	125.0	0.0031	Open
P3588	J28_26	J28_27	130.00	250.0	125.0	0.0200	Open
P3589	J28_26	J29_26	130.00	150.0	140.0	0.0784	Open
P3590	J28_27	J28_28	130.00	250.0	135.0	0.0300	Open
P3591	J28_27	J29_27	130.00	300.0	125.0	0.0883	Open
P3592	J28_28	J28_29	130.00	300.0	140.0	0.0249	Open
P3593	J28_28	J29_28	130.00	150.0	135.0	0.0382	Open
P3594	J28_29	J28_30	130.00	150.0	125.0	0.0451	Open
P3595	J28_29	J29_29	130.00	100.0	125.0	0.0007	Open
P3596	J28_30	J28_31	130.00	150.0	125.0	0.1211	Open
P3597	J28_30	J29_30	130.00	150.0	140.0	0.0850	Open
P3598	J28_31	J28_32	130.00	300.0	135.0	0.1072	Open
P3599	J28_31	J29_31	130.00	100.0	130.0	0.0937	Open
P3600	J28_32	J28_33	130.00	300.0	135.0	0.0072	Open
P3601	J28_32	J29_32	130.00	100.0	125.0	0.0874	Open
P3602	J28_33	J28_34	130.00	450.0	130.0	0.0347	Open
P3603	J28_33	J29_33	130.00	400.0	120.0	0.0423	Open
P3604	J28_34	J28_35	130.00	250.0	140.0	0.0052	Open
P3605	J28_34	J29_34	130.00	250.0	125.0	0.0253	Open
P3606	J28_35	J28_36	130.00	150.0	140.0	0.0159	Open
P3607	J28_35	J29_35	130.00	300.0	140.0	0.1128	Open
P3608	J28_36	J28_37	130.00	300.0	135.0	0.0290	Open
P3609	J28_36	J29_36	130.00	150.0	135.0	0.1051	Open
P3610	J28_37	J28_38	130.00	150.0	140.0	0.0742	Open
P3611	J28_37	J29_37	130.00	250.0	135.0	0.1373	Open
P3612	J28_38	J28_39	130.00	300.0	125.0	0.0880	Open
P3613	J28_38	J29_38	130.00	300.0	130.0	0.0655	Open
P3614	J28_39	J28_40	130.00	250.0	130.0	0.0370	Open
P3615	J28_39	J29_39	130.00	200.0	140.0	0.0305	Open
P3616	J28_40	J28_41	130.00	100.0	135.0	0.0415	Open
P3617	J28_40	J29_40	130.00	100.0	125.0	0.0947	Open
P3618	J28_41	J28_42	130.00	500.0	130.0	0.0393	Open
P3619	J28_41	J29_41	130.00	500.0	130.0	0.0470	Open
P3620	J28_42	J28_43	130.00	200.0	140.0	0.0498	Open
P3621	J28_42	J29_42	130.00	300.0	125.0	0.1149	Open
P3622	J28_43	J28_44	130.00	250.0	125.0	0.0890	Open
P3623	J28_43	J29_43	130.00	250.0	140.0	0.0430	Open
P3624	J28_44	J28_45	130.00	150.0	130.0	0.0532	Open
P3625	J28_44	J29_44	130.00	200.0	140.0	0.0646	Open
P3626	J28_45	J28_46	130.00	200.0	125.0	0.0199	Open
P3627	J28_45	J29_45	130.00	150.0	135.0	0.1161	Open
P3628	J28_46	J28_47	130.00	200.0	135.0	0.1051	Open
P3629	J28_46	J29_46	130.00	150.0	140.0	0.0199	Open
P3630	J28_47	J28_48	130.00	200.0	135.0	0.1091	Open
P3631	J28_47	J29_47	130.00	150.0	140.0	0.0520	Open
P3632	J28_48	J28_49	130.00	200.0	130.0	0.0682	Open
P3633	J28_48	J29_48	130.00	100.0	130.0	0.0789	Open
P3634	J28_49	J28_50	130.00	500.0	130.0	0.0087	Open
P3635	J28_49	J29_49	130.00	500.0	130.0	0.0199	Open
P3636	J28_50	J28_51	130.00	100.0	140.0	0.1068	Open
P3637	J28_50	J29_50	130.00	200.0	125.0	0.0571	Open
P3638	J28_51	J28_52	130.00	100.0	135.0	0.0084	Open
P3639	J28_51	J29_51	130.00	100.0	140.0	0.0511	Open
P3640	J28_52	J28_53	130.00	300.0	135.0	0.0990	Open
P3641	J28_52	J29_52	130.00	250.0	130.0	0.0208	Open
P3642	J28_53	J28_54	130.00	150.0	140.0	0.0426	Open
P3643	J28_53	J29_53	130.00	300.0	140.0	0.1463	Open
P3644	J28_54	J28_55	130.00	250.0	125.0	0.0311	Open
P3645	J28_54	J29_54	130.00	100.0	140.0	0.0242	Open
P3646	J28_55	J28_56	130.00	100.0	130.0	0.0290	Open
P3647	J28_55	J29_55	130.00	250.0	140.0	0.0429	Open
P3648	J28_56	J28_57	130.00	300.0	135.0	0.0433	Open
P3649	J28_56	J29_56	130.00	150.0	140.0	0.1323	Open
P3650	J28_57	J28_58	130.00	500.0	120.0	0.0016	Open
P3651	J28_57	J29_57	130.00	300.0	130.0	0.0135	Open
P3652	J28_58	J28_59	130.00	100.0	125.0	0.1070	Open
P3653	J28_58	J29_58	130.00	250.0	130.0	0.0563	Open
P3654	J28_59	J28_60	130.00	300.0	130.0	0.0225	Open
P3655	J28_59	J29_59	130.00	100.0	130.0	0.0457	Open
P3656	J28_60	J28_61	130.00	100.0	125.0	0.1095	Open
P3657	J28_60	J29_60	130.00	300.0	140.0	0.0470	Open
P3658	J28_61	J28_62	130.00	200.0	140.0	0.1269	Open
P3659	J28_61	J29_61	130.00	200.0	130.0	0.0742	Open
P3660	J28_62	J28_63	130.00	300.0	135.0	0.0033	Open
P3661	J28_62	J29_62	130.00	300.0	140.0	0.1121	Open
P3662	J28_63	J28_64	130.00	300.0	135.0	0.1134	Open
P3663	J28_63	J29_63	130.00	150.0	135.0	0.0607	Open
P3664	J28_64	J28_65	130.00	200.0	125.0	0.0426	Open
P3665	J28_64	J29_64	130.00	300.0	135.0	0.1480	Open
P3666	J28_65	J28_66	130.00	400.0	125.0	0.0293	Open
P3667	J28_65	J29_65	130.00	400.0	130.0	0.0154	Open
P3668	J28_66	J29_66	130.00	300.0	130.0	0.1090	Open
P3669	J29_1	J29_2	130.00	450.0	125.0	0.0256	Open
P3670	J29_1	J30_1	130.00	600.0	120.0	0.0291	Open
P3671	J29_2	J29_3	130.00	300.0	130.0	0.0864	Open
P3672	J29_2	J30_2	130.00	100.0	130.0	0.0962	Open
P3673	J29_3	J29_4	130.00	250.0	130.0	0.1473	Open
P3674	J29_3	J30_3	130.00	100.0	125.0	0.1288	Open
P3675	J29_4	J29_5	130.00	200.0	135.0	0.0518	Open
P3676	J29_4	J30_4	130.00	300.0	125.0	0.1267	Open
P3677	J29_5	J29_6	130.00	100.0	130.0	0.0401	Open
P3678	J29_5	J30_5	130.00	300.0	140.0	0.1007	Open
P3679	J29_6	J29_7	130.00	250.0	140.0	0.0989	Open
P3680	J29_6	J30_6	130.00	300.0	125.0	0.1215	Open
P3681	J29_7	J29_8	130.00	150.0	130.0	0.1371	Open
P3682	J29_7	J30_7	130.00	100.0	125.0	0.0415	Open
P3683	J29_8	J29_9	130.00	200.0	130.0	0.0329	Open
P3684	J29_8	J30_8	130.00	250.0	130.0	0.1485	Open
P3685	J29_9	J29_10	130.00	450.0	130.0	0.0047	Open
P3686	J29_9	J30_9	130.00	300.0	125.0	0.0079	Open
P3687	J29_10	J29_11	130.00	200.0	135.0	0.0821	Open
P3688	J29_10	J30_10	130.00	200.0	140.0	0.0544	Open
P3689	J29_11	J29_12	130.00	300.0	125.0	0.0820	Open
P3690	J29_11	J30_11	130.00	200.0	130.0	0.0146	Open
P3691	J29_12	J29_13	130.00	300.0	140.0	0.0718	Open
P3692	J29_12	J30_12	130.00	300.0	125.0	0.0483	Open
P3693	J29_13	J29_14	130.00	250.0	125.0	0.1063	Open
P3694	J29_13	J30_13	130.00	200.0	135.0	0.0190	Open
P3695	J29_14	J29_15	130.00	100.0	130.0	0.1458	Open
P3696	J29_14	J30_14	130.00	300.0	135.0	0.1008	Open
P3697	J29_15	J29_16	130.00	100.0	140.0	0.0568	Open
P3698	J29_15	J30_15	130.00	300.0	140.0	0.0541	Open
P3699	J29_16	J29_17	130.00	250.0	125.0	0.0600	Open
P3700	J29_16	J30_16	130.00	300.0	125.0	0.1023	Open
P3701	J29_17	J29_18	130.00	500.0	125.0	0.0082	Open
P3702	J29_17	J30_17	130.00	600.0	120.0	0.0070	Open
P3703	J29_18	J29_19	130.00	300.0	125.0	0.0320	Open
P3704	J29_18	J30_18	130.00	100.0	140.0	0.0916	Open
P3705	J29_19	J29_20	130.00	200.0	135.0	0.0444	Open
P3706	J29_19	J30_19	130.00	300.0	140.0	0.0433	Open
P3707	J29_20	J29_21	130.00	100.0	140.0	0.0473	Open
P3708	J29_20	J30_20	130.00	150.0	130.0	0.1382	Open
P3709	J29_21	J29_22	130.00	250.0	140.0	0.0177	Open
P3710	J29_21	J30_21	130.00	300.0	135.0	0.0305	Open
P3711	J29_22	J29_23	130.00	250.0	140.0	0.0528	Open
P3712	J29_22	J30_22	130.00	250.0	140.0	0.0724	Open
P3713	J29_23	J29_24	130.00	100.0	135.0	0.0166	Open
P3714	J29_23	J30_23	130.00	150.0	135.0	0.1109	Open
P3715	J29_24	J29_25	130.00	300.0	140.0	0.0337	Open
P3716	J29_24	J30_24	130.00	200.0	135.0	0.0983	Open
P3717	J29_25	J29_26	130.00	400.0	130.0	0.0333	Open
P3718	J29_25	J30_25	130.00	500.0	130.0	0.0345	Open
P3719	J29_26	J29_27	130.00	300.0	125.0	0.0146	Open
P3720	J29_26	J30_26	130.00	100.0	130.0	0.0702	Open
P3721	J29_27	J29_28	130.00	100.0	140.0	0.0293	Open
P3722	J29_27	J30_27	130.00	100.0	140.0	0.0408	Open
P3723	J29_28	J29_29	130.00	200.0	130.0	0.0764	Open
P3724	J29_28	J30_28	130.00	200.0	125.0	0.0152	Open
P3725	J29_29	J29_30	130.00	100.0	140.0	0.1484	Open
P3726	J29_29	J30_29	130.00	300.0	130.0	0.1247	Open
P3727	J29_30	J29_31	130.00	300.0	130.0	0.0602	Open
P3728	J29_30	J30_30	130.00	150.0	125.0	0.0605	Open
P3729	J29_31	J29_32	130.00	250.0	130.0	0.1456	Open
P3730	J29_31	J30_31	130.00	150.0	140.0	0.0125	Open
P3731	J29_32	J29_33	130.00	150.0	130.0	0.1355	Open
P3732	J29_32	J30_32	130.00	200.0	140.0	0.1487	Open
P3733	J29_33	J29_34	130.00	500.0	125.0	0.0290	Open
P3734	J29_33	J30_33	130.00	600.0	125.0	0.0354	Open
P3735	J29_34	J29_35	130.00	250.0	125.0	0.0471	Open
P3736	J29_34	J30_34	130.00	200.0	125.0	0.0165	Open
P3737	J29_35	J29_36	130.00	250.0	130.0	0.0602	Open
P3738	J29_35	J30_35	130.00	250.0	140.0	0.0503	Open
P3739	J29_36	J29_37	130.00	200.0	140.0	0.0226	Open
P3740	J29_36	J30_36	130.00	100.0	135.0	0.0493	Open
P3741	J29_37	J29_38	130.00	300.0	125.0	0.0893	Open
P3742	J29_37	J30_37	130.00	200.0	135.0	0.0390	Open
P3743	J29_38	J29_39	130.00	100.0	130.0	0.0951	Open
P3744	J29_38	J30_38	130.00	150.0	125.0	0.0124	Open
P3745	J29_39	J29_40	130.00	150.0	140.0	0.1215	Open
P3746	J29_39	J30_39	130.00	200.0	130.0	0.1469	Open
P3747	J29_40	J29_41	130.00	200.0	135.0	0.0655	Open
P3748	J29_40	J30_40	130.00	150.0	140.0	0.0213	Open
P3749	J29_41	J29_42	130.00	350.0	130.0	0.0460	Open
P3750	J29_41	J30_41	130.00	350.0	130.0	0.0208	Open
P3751	J29_42	J29_43	130.00	250.0	130.0	0.0083	Open
P3752	J29_42	J30_42	130.00	150.0	130.0	0.0308	Open
P3753	J29_43	J29_44	130.00	150.0	125.0	0.1431	Open
P3754	J29_43	J30_43	130.00	150.0	125.0	0.1258	Open
P3755	J29_44	J29_45	130.00	150.0	135.0	0.0955	Open
P3756	J29_44	J30_44	130.00	100.0	135.0	0.0976	Open
P3757	J29_45	J29_46	130.00	150.0	140.0	0.1304	Open
P3758	J29_45	J30_45	130.00	100.0	130.0	0.0850	Open
P3759	J29_46	J29_47	130.00	150.0	130.0	0.0428	Open
P3760	J29_46	J30_46	130.00	100.0	125.0	0.1154	Open
P3761	J29_47	J29_48	130.00	200.0	140.0	0.0373	Open
P3762	J29_47	J30_47	130.00	300.0	140.0	0.0263	Open
P3763	J29_48	J29_49	130.00	300.0	130.0	0.1293	Open
P3764	J29_48	J30_48	130.00	200.0	130.0	0.0461	Open
P3765	J29_49	J29_50	130.00	450.0	130.0	0.0052	Open
P3766	J29_49	J30_49	130.00	350.0	130.0	0.0169	Open
P3767	J29_50	J29_51	130.00	150.0	125.0	0.1393	Open
P3768	J29_50	J30_50	130.00	200.0	140.0	0.0145	Open
P3769	J29_51	J29_52	130.00	300.0	130.0	0.0492	Open
P3770	J29_51	J30_51	130.00	150.0	135.0	0.0172	Open
P3771	J29_52	J29_53	130.00	250.0	135.0	0.0862	Open
P3772	J29_52	J30_52	130.00	300.0	130.0	0.0816	Open
P3773	J29_53	J29_54	130.00	300.0	125.0	0.1130	Open
P3774	J29_53	J30_53	130.00	150.0	125.0	0.0458	Open
P3775	J29_54	J29_55	130.00	150.0	130.0	0.0659	Open
P3776	J29_54	J30_54	130.00	100.0	135.0	0.1340	Open
P3777	J29_55	J29_56	130.00	300.0	130.0	0.0857	Open
P3778	J29_55	J30_55	130.00	300.0	140.0	0.0692	Open
P3779	J29_56	J29_57	130.00	250.0	130.0	0.1348	Open
P3780	J29_56	J30_56	130.00	200.0	135.0	0.1036	Open
P3781	J29_57	J29_58	130.00	600.0	130.0	0.0163	Open
P3782	J29_57	J30_57	130.00	300.0	125.0	0.0326	Open
P3783	J29_58	J29_59	130.00	100.0	130.0	0.1364	Open
P3784	J29_58	J30_58	130.00	150.0	125.0	0.0331	Open
P3785	J29_59	J29_60	130.00	100.0	130.0	0.0919	Open
P3786	J29_59	J30_59	130.00	200.0	135.0	0.1333	Open
P3787	J29_60	J29_61	130.00	300.0	140.0	0.1199	Open
P3788	J29_60	J30_60	130.00	150.0	135.0	0.0124	Open
P3789	J29_61	J29_62	130.00	300.0	125.0	0.1290	Open
P3790	J29_61	J30_61	130.00	300.0	140.0	0.0768	Open
P3791	J29_62	J29_63	130.00	300.0	135.0	0.0111	Open
P3792	J29_62	J30_62	130.00	250.0	135.0	0.0751	Open
P3793	J29_63	J29_64	130.00	300.0	125.0	0.0768	Open
P3794	J29_63	J30_63	130.00	250.0	140.0	0.1060	Open
P3795	J29_64	J29_65	130.00	150.0	135.0	0.1045	Open
P3796	J29_64	J30_64	130.00	150.0	140.0	0.0703	Open
P3797	J29_65	J29_66	130.00	500.0	130.0	0.0221	Open
P3798	J29_65	J30_65	130.00	300.0	130.0	0.0394	Open
P3799	J29_66	J30_66	130.00	150.0	130.0	0.0530	Open
P3800	J30_1	J30_2	130.00	400.0	125.0	0.0051	Open
P3801	J30_1	J31_1	130.00	350.0	120.0	0.0184	Open
P3802	J30_2	J30_3	130.00	250.0	140.0	0.1112	Open
P3803	J30_2	J31_2	130.00	250.0	125.0	0.0973	Open
P3804	J30_3	J30_4	130.00	300.0	125.0	0.0582	Open
P3805	J30_3	J31_3	130.00	200.0	135.0	0.1009	Open
P3806	J30_4	J30_5	130.00	300.0	125.0	0.0374	Open
P3807	J30_4	J31_4	130.00	200.0	130.0	0.0798	Open
P3808	J30_5	J30_6	130.00	200.0	135.0	0.0270	Open
P3809	J30_5	J31_5	130.00	150.0	140.0	0.1297	Open
P3810	J30_6	J30_7	130.00	150.0	130.0	0.0984	Open
P3811	J30_6	J31_6	130.00	200.0	125.0	0.1255	Open
P3812	J30_7	J30_8	130.00	150.0	140.0	0.0229	Open
P3813	J30_7	J31_7	130.00	200.0	130.0	0.0767	Open
P3814	J30_8	J30_9	130.00	250.0	125.0	0.0872	Open
P3815	J30_8	J31_8	130.00	100.0	130.0	0.1351	Open
P3816	J30_9	J30_10	130.00	500.0	120.0	0.0355	Open
P3817	J30_9	J31_9	130.00	500.0	125.0	0.0012	Open
P3818	J30_10	J30_11	130.00	250.0	135.0	0.1278	Open
P3819	J30_10	J31_10	130.00	300.0	140.0	0.0203	Open
P3820	J30_11	J30_12	130.00	250.0	130.0	0.0007	Open
P3821	J30_11	J31_11	130.00	150.0	135.0	0.0707	Open
P3822	J30_12	J30_13	130.00	300.0	140.0	0.1044	Open
P3823	J30_12	J31_12	130.00	250.0	140.0	0.1169	Open
P3824	J30_13	J30_14	130.00	300.0	130.0	0.1252	Open
P3825	J30_13	J31_13	130.00	250.0	135.0	0.0210	Open
P3826	J30_14	J30_15	130.00	100.0	140.0	0.1478	Open
P3827	J30_14	J31_14	130.00	250.0	125.0	0.0903	Open
P3828	J30_15	J30_16	130.00	250.0	125.0	0.1471	Open
P3829	J30_15	J31_15	130.00	250.0	140.0	0.0047	Open
P3830	J30_16	J30_17	130.00	300.0	125.0	0.1130	Open
P3831	J30_16	J31_16	130.00	200.0	135.0	0.1408	Open
P3832	J30_17	J30_18	130.00	300.0	130.0	0.0232	Open
P3833	J30_17	J31_17	130.00	350.0	120.0	0.0040	Open
P3834	J30_18	J30_19	130.00	100.0	135.0	0.0506	Open
P3835	J30_18	J31_18	130.00	200.0	125.0	0.0433	Open
P3836	J30_19	J30_20	130.00	100.0	140.0	0.0128	Open
P3837	J30_19	J31_19	130.00	200.0	130.0	0.0893	Open
P3838	J30_20	J30_21	130.00	250.0	130.0	0.0307	Open
P3839	J30_20	J31_20	130.00	100.0	135.0	0.0536	Open
P3840	J30_21	J30_22	130.00	100.0	135.0	0.0997	Open
P3841	J30_21	J31_21	130.00	150.0	125.0	0.0744	Open
P3842	J30_22	J30_23	130.00	250.0	130.0	0.1085	Open
P3843	J30_22	J31_22	130.00	200.0	130.0	0.0881	Open
P3844	J30_23	J30_24	130.00	100.0	130.0	0.0615	Open
P3845	J30_23	J31_23	130.00	150.0	130.0	0.0614	Open
P3846	J30_24	J30_25	130.00	150.0	130.0	0.0997	Open
P3847	J30_24	J31_24	130.00	250.0	125.0	0.0916	Open
P3848	J30_25	J30_26	130.00	500.0	125.0	0.0396	Open
P3849	J30_25	J31_25	130.00	450.0	125.0	0.0044	Open
P3850	J30_26	J30_27	130.00	150.0	130.0	0.0404	Open
P3851	J30_26	J31_26	130.00	100.0	130.0	0.1197	Open
P3852	J30_27	J30_28	130.00	300.0	140.0	0.1140	Open
P3853	J30_27	J31_27	130.00	150.0	125.0	0.1100	Open
P3854	J30_28	J30_29	130.00	300.0	125.0	0.1485	Open
P3855	J30_28	J31_28	130.00	250.0	125.0	0.1399	Open
P3856	J30_29	J30_30	130.00	100.0	130.0	0.0750	Open
P3857	J30_29	J31_29	130.00	300.0	140.0	0.0826	Open
P3858	J30_30	J30_31	130.00	200.0	135.0	0.1165	Open
P3859	J30_30	J31_30	130.00	100.0	140.0	0.0426	Open
P3860	J30_31	J30_32	130.00	150.0	130.0	0.0697	Open
P3861	J30_31	J31_31	130.00	300.0	130.0	0.0631	Open
P3862	J30_32	J30_33	130.00	200.0	140.0	0.1033	Open
P3863	J30_32	J31_32	130.00	100.0	140.0	0.0403	Open
P3864	J30_33	J30_34	130.00	500.0	120.0	0.0315	Open
P3865	J30_33	J31_33	130.00	400.0	130.0	0.0362	Open
P3866	J30_34	J30_35	130.00	100.0	140.0	0.1463	Open
P3867	J30_34	J31_34	130.00	150.0	125.0	0.1106	Open
P3868	J30_35	J30_36	130.00	250.0	140.0	0.0397	Open
P3869	J30_35	J31_35	130.00	100.0	140.0	0.1347	Open
P3870	J30_36	J30_37	130.00	200.0	130.0	0.0286	Open
P3871	J30_36	J31_36	130.00	200.0	130.0	0.0127	Open
P3872	J30_37	J30_38	130.00	150.0	125.0	0.1252	Open
P3873	J30_37	J31_37	130.00	200.0	135.0	0.0326	Open
P3874	J30_38	J30_39	130.00	100.0	135.0	0.0168	Open
P3875	J30_38	J31_38	130.00	300.0	140.0	0.0012	Open
P3876	J30_39	J30_40	130.00	100.0	135.0	0.0720	Open
P3877	J30_39	J31_39	130.00	200.0	125.0	0.1065	Open
P3878	J30_40	J30_41	130.00	200.0	135.0	0.1291	Open
P3879	J30_40	J31_40	130.00	300.0	140.0	0.1374	Open
P3880	J30_41	J30_42	130.00	300.0	130.0	0.0011	Open
P3881	J30_41	J31_41	130.00	600.0	120.0	0.0143	Open
P3882	J30_42	J30_43	130.00	100.0	125.0	0.0712	Open
P3883	J30_42	J31_42	130.00	300.0	140.0	0.1357	Open
P3884	J30_43	J30_44	130.00	300.0	140.0	0.0803	Open
P3885	J30_43	J31_43	130.00	300.0	135.0	0.0165	Open
P3886	J30_44	J30_45	130.00	150.0	140.0	0.0267	Open
P3887	J30_44	J31_44	130.00	200.0	135.0	0.0219	Open
P3888	J30_45	J30_46	130.00	200.0	135.0	0.1277	Open
P3889	J30_45	J31_45	130.00	250.0	140.0	0.0226	Open
P3890	J30_46	J30_47	130.00	250.0	130.0	0.0926	Open
P3891	J30_46	J31_46	130.00	300.0	125.0	0.1253	Open
P3892	J30_47	J30_48	130.00	200.0	125.0	0.0371	Open
P3893	J30_47	J31_47	130.00	100.0	140.0	0.0543	Open
P3894	J30_48	J30_49	130.00	150.0	135.0	0.0823	Open
P3895	J30_48	J31_48	130.00	300.0	135.0	0.0367	Open
P3896	J30_49	J30_50	130.00	300.0	130.0	0.0057	Open
P3897	J30_49	J31_49	130.00	600.0	125.0	0.0050	Open
P3898	J30_50	J30_51	130.00	250.0	125.0	0.1389	Open
P3899	J30_50	J31_50	130.00	200.0	130.0	0.0453	Open
P3900	J30_51	J30_52	130.00	200.0	125.0	0.1423	Open
P3901	J30_51	J31_51	130.00	100.0	140.0	0.1103	Open
P3902	J30_52	J30_53	130.00	300.0	135.0	0.0217	Open
P3903	J30_52	J31_52	130.00	250.0	140.0	0.0194	Open
P3904	J30_53	J30_54	130.00	250.0	125.0	0.0324	Open
P3905	J30_53	J31_53	130.00	300.0	130.0	0.1066	Open
P3906	J30_54	J30_55	130.00	250.0	135.0	0.0189	Open
P3907	J30_54	J31_54	130.00	200.0	130.0	0.0044	Open
P3908	J30_55	J30_56	130.00	300.0	140.0	0.0887	Open
P3909	J30_55	J31_55	130.00	100.0	140.0	0.1214	Open
P3910	J30_56	J30_57	130.00	250.0	135.0	0.0796	Open
P3911	J30_56	J31_56	130.00	150.0	130.0	0.1446	Open
P3912	J30_57	J30_58	130.00	500.0	120.0	0.0409	Open
P3913	J30_57	J31_57	130.00	350.0	125.0	0.0193	Open
P3914	J30_58	J30_59	130.00	100.0	140.0	0.0347	Open
P3915	J30_58	J31_58	130.00	300.0	135.0	0.1268	Open
P3916	J30_59	J30_60	130.00	250.0	135.0	0.0792	Open
P3917	J30_59	J31_59	130.00	300.0	135.0	0.0341	Open
P3918	J30_60	J30_61	130.00	150.0	130.0	0.0026	Open
P3919	J30_60	J31_60	130.00	100.0	135.0	0.1181	Open
P3920	J30_61	J30_62	130.00	150.0	125.0	0.1150	Open
P3921	J30_61	J31_61	130.00	300.0	125.0	0.0878	Open
P3922	J30_62	J30_63	130.00	100.0	125.0	0.0753	Open
P3923	J30_62	J31_62	130.00	300.0	140.0	0.0381	Open
P3924	J30_63	J30_64	130.00	100.0	140.0	0.1203	Open
P3925	J30_63	J31_63	130.00	250.0	130.0	0.0459	Open
P3926	J30_64	J30_65	130.00	100.0	130.0	0.1327	Open
P3927	J30_64	J31_64	130.00	100.0	130.0	0.0230	Open
P3928	J30_65	J30_66	130.00	500.0	130.0	0.0119	Open
P3929	J30_65	J31_65	130.00	350.0	120.0	0.0112	Open
P3930	J30_66	J31_66	130.00	100.0	140.0	0.0975	Open
P3931	J31_1	J31_2	130.00	500.0	125.0	0.0130	Open
P3932	J31_1	J32_1	130.00	400.0	130.0	0.0033	Open
P3933	J31_2	J31_3	130.00	250.0	125.0	0.0155	Open
P3934	J31_2	J32_2	130.00	200.0	135.0	0.1224	Open
P3935	J31_3	J31_4	130.00	300.0	140.0	0.1086	Open
P3936	J31_3	J32_3	130.00	150.0	140.0	0.0014	Open
P3937	J31_4	J31_5	130.00	200.0	130.0	0.1099	Open
P3938	J31_4	J32_4	130.00	300.0	140.0	0.0636	Open
P3939	J31_5	J31_6	130.00	150.0	130.0	0.1401	Open
P3940	J31_5	J32_5	130.00	100.0	135.0	0.0761	Open
P3941	J31_6	J31_7	130.00	200.0	125.0	0.0743	Open
P3942	J31_6	J32_6	130.00	100.0	135.0	0.1128	Open
P3943	J31_7	J31_8	130.00	150.0	135.0	0.0281	Open
P3944	J31_7	J32_7	130.00	150.0	130.0	0.0934	Open
P3945	J31_8	J31_9	130.00	300.0	135.0	0.0355	Open
P3946	J31_8	J32_8	130.00	150.0	135.0	0.0288	Open
P3947	J31_9	J31_10	130.00	500.0	120.0	0.0329	Open
P3948	J31_9	J32_9	130.00	600.0	125.0	0.0199	Open
P3949	J31_10	J31_11	130.00	100.0	135.0	0.0627	Open
P3950	J31_10	J32_10	130.00	150.0	125.0	0.1450	Open
P3951	J31_11	J31_12	130.00	200.0	130.0	0.0508	Open
P3952	J31_11	J32_11	130.00	250.0	125.0	0.0767	Open
P3953	J31_12	J31_13	130.00	200.0	140.0	0.0734	Open
P3954	J31_12	J32_12	130.00	300.0	135.0	0.0689	Open
P3955	J31_13	J31_14	130.00	200.0	135.0	0.0969	Open
P3956	J31_13	J32_13	130.00	200.0	130.0	0.0574	Open
P3957	J31_14	J31_15	130.00	250.0	125.0	0.0159	Open
P3958	J31_14	J32_14	130.00	200.0	140.0	0.0768	Open
P3959	J31_15	J31_16	130.00	300.0	125.0	0.0927	Open
P3960	J31_15	J32_15	130.00	300.0	125.0	0.0692	Open
P3961	J31_16	J31_17	130.00	250.0	130.0	0.1025	Open
P3962	J31_16	J32_16	130.00	300.0	130.0	0.0643	Open
P3963	J31_17	J31_18	130.00	500.0	120.0	0.0208	Open
P3964	J31_17	J32_17	130.00	300.0	120.0	0.0121	Open
P3965	J31_18	J31_19	130.00	300.0	125.0	0.1268	Open
P3966	J31_18	J32_18	130.00	150.0	140.0	0.1138	Open
P3967	J31_19	J31_20	130.00	300.0	140.0	0.1340	Open
P3968	J31_19	J32_19	130.00	300.0	125.0	0.1293	Open
P3969	J31_20	J31_21	130.00	300.0	130.0	0.1156	Open
P3970	J31_20	J32_20	130.00	300.0	135.0	0.0716	Open
P3971	J31_21	J31_22	130.00	150.0	140.0	0.0283	Open
P3972	J31_21	J32_21	130.00	300.0	130.0	0.0305	Open
P3973	J31_22	J31_23	130.00	200.0	130.0	0.0918	Open
P3974	J31_22	J32_22	130.00	200.0	125.0	0.1268	Open
P3975	J31_23	J31_24	130.00	300.0	125.0	0.0945	Open
P3976	J31_23	J32_23	130.00	100.0	125.0	0.0294	Open
P3977	J31_24	J31_25	130.00	100.0	125.0	0.0228	Open
P3978	J31_24	J32_24	130.00	300.0	140.0	0.1018	Open
P3979	J31_25	J31_26	130.00	600.0	125.0	0.0047	Open
P3980	J31_25	J32_25	130.00	400.0	125.0	0.0441	Open
P3981	J31_26	J31_27	130.00	200.0	140.0	0.0959	Open
P3982	J31_26	J32_26	130.00	150.0	140.0	0.0037	Open
P3983	J31_27	J31_28	130.00	200.0	125.0	0.0450	Open
P3984	J31_27	J32_27	130.00	200.0	130.0	0.0803	Open
P3985	J31_28	J31_29	130.00	150.0	140.0	0.0482	Open
P3986	J31_28	J32_28	130.00	100.0	140.0	0.0600	Open
P3987	J31_29	J31_30	130.00	150.0	130.0	0.0657	Open
P3988	J31_29	J32_29	130.00	300.0	125.0	0.0089	Open
P3989	J31_30	J31_31	130.00	300.0	135.0	0.0052	Open
P3990	J31_30	J32_30	130.00	150.0	125.0	0.1399	Open
P3991	J31_31	J31_32	130.00	150.0	125.0	0.1052	Open
P3992	J31_31	J32_31	130.00	250.0	140.0	0.0498	Open
P3993	J31_32	J31_33	130.00	300.0	135.0	0.1029	Open
P3994	J31_32	J32_32	130.00	150.0	130.0	0.0147	Open
P3995	J31_33	J31_34	130.00	600.0	125.0	0.0490	Open
P3996	J31_33	J32_33	130.00	600.0	130.0	0.0222	Open
P3997	J31_34	J31_35	130.00	300.0	130.0	0.1321	Open
P3998	J31_34	J32_34	130.00	150.0	130.0	0.0763	Open
P3999	J31_35	J31_36	130.00	200.0	130.0	0.0781	Open
P4000	J31_35	J32_35	130.00	100.0	135.0	0.0558	Open
P4001	J31_36	J31_37	130.00	300.0	125.0	0.0092	Open
P4002	J31_36	J32_36	130.00	150.0	140.0	0.1278	Open
P4003	J31_37	J31_38	130.00	100.0	125.0	0.1278	Open
P4004	J31_37	J32_37	130.00	300.0	135.0	0.1310	Open
P4005	J31_38	J31_39	130.00	100.0	125.0	0.0413	Open
P4006	J31_38	J32_38	130.00	100.0	135.0	0.0663	Open
P4007	J31_39	J31_40	130.00	300.0	125.0	0.0724	Open
P4008	J31_39	J32_39	130.00	200.0	125.0	0.0882	Open
P4009	J31_40	J31_41	130.00	150.0	125.0	0.0842	Open
P4010	J31_40	J32_40	130.00	300.0	135.0	0.1313	Open
P4011	J31_41	J31_42	130.00	450.0	125.0	0.0168	Open
P4012	J31_41	J32_41	130.00	300.0	130.0	0.0323	Open
P4013	J31_42	J31_43	130.00	100.0	130.0	0.1364	Open
P4014	J31_42	J32_42	130.00	150.0	125.0	0.0969	Open
P4015	J31_43	J31_44	130.00	250.0	135.0	0.0878	Open
P4016	J31_43	J32_43	130.00	250.0	125.0	0.0464	Open
P4017	J31_44	J31_45	130.00	200.0	125.0	0.0677	Open
P4018	J31_44	J32_44	130.00	150.0	130.0	0.0651	Open
P4019	J31_45	J31_46	130.00	100.0	125.0	0.0484	Open
P4020	J31_45	J32_45	130.00	250.0	135.0	0.0335	Open
P4021	J31_46	J31_47	130.00	300.0	135.0	0.1160	Open
P4022	J31_46	J32_46	130.00	250.0	135.0	0.1099	Open
P4023	J31_47	J31_48	130.00	150.0	125.0	0.1219	Open
P4024	J31_47	J32_47	130.00	250.0	130.0	0.1428	Open
P4025	J31_48	J31_49	130.00	300.0	130.0	0.0019	Open
P4026	J31_48	J32_48	130.00	100.0	125.0	0.0191	Open
P4027	J31_49	J31_50	130.00	350.0	130.0	0.0009	Open
P4028	J31_49	J32_49	130.00	350.0	120.0	0.0471	Open
P4029	J31_50	J31_51	130.00	150.0	125.0	0.0000	Open
P4030	J31_50	J32_50	130.00	300.0	125.0	0.0366	Open
P4031	J31_51	J31_52	130.00	250.0	125.0	0.1111	Open
P4032	J31_51	J32_51	130.00	150.0	140.0	0.0801	Open
P4033	J31_52	J31_53	130.00	150.0	135.0	0.0207	Open
P4034	J31_52	J32_52	130.00	150.0	135.0	0.0642	Open
P4035	J31_53	J31_54	130.00	300.0	135.0	0.0772	Open
P4036	J31_53	J32_53	130.00	200.0	125.0	0.0245	Open
P4037	J31_54	J31_55	130.00	150.0	140.0	0.1090	Open
P4038	J31_54	J32_54	130.00	150.0	140.0	0.0906	Open
P4039	J31_55	J31_56	130.00	200.0	130.0	0.0740	Open
P4040	J31_55	J32_55	130.00	300.0	125.0	0.1140	Open
P4041	J31_56	J31_57	130.00	250.0	135.0	0.0445	Open
P4042	J31_56	J32_56	130.00	150.0	135.0	0.0754	Open
P4043	J31_57	J31_58	130.00	500.0	120.0	0.0250	Open
P4044	J31_57	J32_57	130.00	300.0	130.0	0.0008	Open
P4045	J31_58	J31_59	130.00	250.0	140.0	0.0548	Open
P4046	J31_58	J32_58	130.00	200.0	135.0	0.0222	Open
P4047	J31_59	J31_60	130.00	150.0	135.0	0.0387	Open
P4048	J31_59	J32_59	130.00	300.0	130.0	0.0345	Open
P4049	J31_60	J31_61	130.00	250.0	130.0	0.0779	Open
P4050	J31_60	J32_60	130.00	300.0	140.0	0.0602	Open
P4051	J31_61	J31_62	130.00	200.0	140.0	0.0059	Open
P4052	J31_61	J32_61	130.00	250.0	140.0	0.0714	Open
P4053	J31_62	J31_63	130.00	150.0	130.0	0.0398	Open
P4054	J31_62	J32_62	130.00	200.0	140.0	0.1096	Open
P4055	J31_63	J31_64	130.00	200.0	140.0	0.0561	Open
P4056	J31_63	J32_63	130.00	150.0	130.0	0.1128	Open
P4057	J31_64	J31_65	130.00	250.0	140.0	0.1462	Open
P4058	J31_64	J32_64	130.00	100.0	140.0	0.0625	Open
P4059	J31_65	J31_66	130.00	600.0	130.0	0.0497	Open
P4060	J31_65	J32_65	130.00	300.0	125.0	0.0117	Open
P4061	J31_66	J32_66	130.00	200.0	140.0	0.0470	Open
P4062	J32_1	J32_2	130.00	450.0	130.0	0.0044	Open
P4063	J32_1	J33_1	130.00	300.0	125.0	0.0220	Open
P4064	J32_2	J32_3	130.00	150.0	130.0	0.1122	Open
P4065	J32_2	J33_2	130.00	300.0	135.0	0.0220	Open
P4066	J32_3	J32_4	130.00	250.0	125.0	0.0411	Open
P4067	J32_3	J33_3	130.00	150.0	125.0	0.1252	Open
P4068	J32_4	J32_5	130.00	100.0	135.0	0.0105	Open
P4069	J32_4	J33_4	130.00	100.0	135.0	0.1437	Open
P4070	J32_5	J32_6	130.00	250.0	125.0	0.0038	Open
P4071	J32_5	J33_5	130.00	300.0	125.0	0.0934	Open
P4072	J32_6	J32_7	130.00	200.0	125.0	0.0312	Open
P4073	J32_6	J33_6	130.00	300.0	130.0	0.0016	Open
P4074	J32_7	J32_8	130.00	100.0	140.0	0.1335	Open
P4075	J32_7	J33_7	130.00	200.0	135.0	0.0579	Open
P4076	J32_8	J32_9	130.00	200.0	130.0	0.0083	Open
P4077	J32_8	J33_8	130.00	100.0	135.0	0.1140	Open
P4078	J32_9	J32_10	130.00	450.0	125.0	0.0342	Open
P4079	J32_9	J33_9	130.00	300.0	125.0	0.0493	Open
P4080	J32_10	J32_11	130.00	250.0	135.0	0.0096	Open
P4081	J32_10	J33_10	130.00	150.0	135.0	0.0527	Open
P4082	J32_11	J32_12	130.00	150.0	140.0	0.0097	Open
P4083	J32_11	J33_11	130.00	300.0	125.0	0.1443	Open
P4084	J32_12	J32_13	130.00	300.0	140.0	0.0131	Open
P4085	J32_12	J33_12	130.00	300.0	130.0	0.0551	Open
P4086	J32_13	J32_14	130.00	150.0	140.0	0.1191	Open
P4087	J32_13	J33_13	130.00	300.0	125.0	0.0070	Open
P4088	J32_14	J32_15	130.00	150.0	125.0	0.1474	Open
P4089	J32_14	J33_14	130.00	150.0	130.0	0.0146	Open
P4090	J32_15	J32_16	130.00	200.0	125.0	0.1017	Open
P4091	J32_15	J33_15	130.00	150.0	140.0	0.0648	Open
P4092	J32_16	J32_17	130.00	100.0	125.0	0.1468	Open
P4093	J32_16	J33_16	130.00	250.0	130.0	0.0506	Open
P4094	J32_17	J32_18	130.00	450.0	120.0	0.0310	Open
P4095	J32_17	J33_17	130.00	400.0	120.0	0.0259	Open
P4096	J32_18	J32_19	130.00	250.0	125.0	0.1457	Open
P4097	J32_18	J33_18	130.00	300.0	125.0	0.0521	Open
P4098	J32_19	J32_20	130.00	200.0	130.0	0.1469	Open
P4099	J32_19	J33_19	130.00	250.0	125.0	0.1379	Open
P4100	J32_20	J32_21	130.00	250.0	135.0	0.0127	Open
P4101	J32_20	J33_20	130.00	200.0	125.0	0.0498	Open
P4102	J32_21	J32_22	130.00	150.0	135.0	0.0573	Open
P4103	J32_21	J33_21	130.00	100.0	135.0	0.0514	Open
P4104	J32_22	J32_23	130.00	300.0	125.0	0.0950	Open
P4105	J32_22	J33_22	130.00	200.0	125.0	0.0654	Open
P4106	J32_23	J32_24	130.00	150.0	125.0	0.1382	Open
P4107	J32_23	J33_23	130.00	300.0	130.0	0.1035	Open
P4108	J32_24	J32_25	130.00	250.0	125.0	0.1268	Open
P4109	J32_24	J33_24	130.00	300.0	135.0	0.0341	Open
P4110	J32_25	J32_26	130.00	300.0	120.0	0.0128	Open
P4111	J32_25	J33_25	130.00	400.0	130.0	0.0067	Open
P4112	J32_26	J32_27	130.00	150.0	130.0	0.1348	Open
P4113	J32_26	J33_26	130.00	150.0	140.0	0.0388	Open
P4114	J32_27	J32_28	130.00	100.0	125.0	0.1354	Open
P4115	J32_27	J33_27	130.00	200.0	125.0	0.0852	Open
P4116	J32_28	J32_29	130.00	200.0	135.0	0.0618	Open
P4117	J32_28	J33_28	130.00	250.0	135.0	0.0493	Open
P4118	J32_29	J32_30	130.00	250.0	135.0	0.0227	Open
P4119	J32_29	J33_29	130.00	150.0	125.0	0.0415	Open
P4120	J32_30	J32_31	130.00	100.0	135.0	0.0776	Open
P4121	J32_30	J33_30	130.00	150.0	135.0	0.0878	Open
P4122	J32_31	J32_32	130.00	300.0	130.0	0.0517	Open
P4123	J32_31	J33_31	130.00	300.0	140.0	0.0405	Open
P4124	J32_32	J32_33	130.00	250.0	125.0	0.0189	Open
P4125	J32_32	J33_32	130.00	250.0	125.0	0.1461	Open
P4126	J32_33	J32_34	130.00	350.0	130.0	0.0328	Open
P4127	J32_33	J33_33	130.00	500.0	120.0	0.0196	Open
P4128	J32_34	J32_35	130.00	150.0	140.0	0.0496	Open
P4129	J32_34	J33_34	130.00	250.0	135.0	0.0297	Open
P4130	J32_35	J32_36	130.00	100.0	125.0	0.0700	Open
P4131	J32_35	J33_35	130.00	250.0	130.0	0.0734	Open
P4132	J32_36	J32_37	130.00	200.0	125.0	0.0928	Open
P4133	J32_36	J33_36	130.00	100.0	125.0	0.0787	Open
P4134	J32_37	J32_38	130.00	300.0	135.0	0.0055	Open
P4135	J32_37	J33_37	130.00	100.0	125.0	0.0264	Open
P4136	J32_38	J32_39	130.00	100.0	135.0	0.0544	Open
P4137	J32_38	J33_38	130.00	300.0	135.0	0.0006	Open
P4138	J32_39	J32_40	130.00	150.0	125.0	0.0722	Open
P4139	J32_39	J33_39	130.00	100.0	140.0	0.0350	Open
P4140	J32_40	J32_41	130.00	250.0	140.0	0.0697	Open
P4141	J32_40	J33_40	130.00	150.0	125.0	0.1078	Open
P4142	J32_41	J32_42	130.00	400.0	130.0	0.0328	Open
P4143	J32_41	J33_41	130.00	500.0	130.0	0.0251	Open
P4144	J32_42	J32_43	130.00	150.0	135.0	0.0417	Open
P4145	J32_42	J33_42	130.00	250.0	135.0	0.1112	Open
P4146	J32_43	J32_44	130.00	300.0	130.0	0.0324	Open
P4147	J32_43	J33_43	130.00	250.0	125.0	0.0828	Open
P4148	J32_44	J32_45	130.00	300.0	130.0	0.0099	Open
P4149	J32_44	J33_44	130.00	100.0	135.0	0.1434	Open
P4150	J32_45	J32_46	130.00	250.0	130.0	0.1088	Open
P4151	J32_45	J33_45	130.00	100.0	130.0	0.0363	Open
P4152	J32_46	J32_47	130.00	100.0	125.0	0.0305	Open
P4153	J32_46	J33_46	130.00	250.0	135.0	0.1491	Open
P4154	J32_47	J32_48	130.00	300.0	130.0	0.0731	Open
P4155	J32_47	J33_47	130.00	100.0	140.0	0.0756	Open
P4156	J32_48	J32_49	130.00	150.0	125.0	0.0266	Open
P4157	J32_48	J33_48	130.00	100.0	130.0	0.1184	Open
P4158	J32_49	J32_50	130.00	600.0	120.0	0.0061	Open
P4159	J32_49	J33_49	130.00	600.0	125.0	0.0308	Open
P4160	J32_50	J32_51	130.00	200.0	140.0	0.0840	Open
P4161	J32_50	J33_50	130.00	300.0	130.0	0.1367	Open
P4162	J32_51	J32_52	130.00	250.0	135.0	0.0011	Open
P4163	J32_51	J33_51	130.00	300.0	140.0	0.0894	Open
P4164	J32_52	J32_53	130.00	150.0	125.0	0.0017	Open
P4165	J32_52	J33_52	130.00	250.0	130.0	0.0717	Open
P4166	J32_53	J32_54	130.00	250.0	135.0	0.0651	Open
P4167	J32_53	J33_53	130.00	300.0	140.0	0.0489	Open
P4168	J32_54	J32_55	130.00	150.0	140.0	0.0194	Open
P4169	J32_54	J33_54	130.00	150.0	135.0	0.0521	Open
P4170	J32_55	J32_56	130.00	200.0	125.0	0.0026	Open
P4171	J32_55	J33_55	130.00	300.0	140.0	0.1309	Open
P4172	J32_56	J32_57	130.00	300.0	135.0	0.0953	Open
P4173	J32_56	J33_56	130.00	300.0	130.0	0.0254	Open
P4174	J32_57	J32_58	130.00	500.0	120.0	0.0341	Open
P4175	J32_57	J33_57	130.00	350.0	125.0	0.0052	Open
P4176	J32_58	J32_59	130.00	300.0	140.0	0.1182	Open
P4177	J32_58	J33_58	130.00	150.0	130.0	0.1125	Open
P4178	J32_59	J32_60	130.00	250.0	135.0	0.0099	Open
P4179	J32_59	J33_59	130.00	100.0	140.0	0.1037	Open
P4180	J32_60	J32_61	130.00	100.0	125.0	0.1238	Open
P4181	J32_60	J33_60	130.00	250.0	135.0	0.0299	Open
P4182	J32_61	J32_62	130.00	300.0	135.0	0.0787	Open
P4183	J32_61	J33_61	130.00	300.0	130.0	0.0640	Open
P4184	J32_62	J32_63	130.00	100.0	135.0	0.0621	Open
P4185	J32_62	J33_62	130.00	300.0	135.0	0.0267	Open
P4186	J32_63	J32_64	130.00	150.0	130.0	0.1453	Open
P4187	J32_63	J33_63	130.00	150.0	135.0	0.0821	Open
P4188	J32_64	J32_65	130.00	100.0	125.0	0.0167	Open
P4189	J32_64	J33_64	130.00	250.0	125.0	0.0654	Open
P4190	J32_65	J32_66	130.00	400.0	125.0	0.0296	Open
P4191	J32_65	J33_65	130.00	350.0	120.0	0.0325	Open
P4192	J32_66	J33_66	130.00	250.0	125.0	0.0691	Open
P4193	J33_1	J33_2	130.00	300.0	120.0	0.0114	Open
P4194	J33_1	J34_1	130.00	600.0	120.0	0.0109	Open
P4195	J33_2	J33_3	130.00	350.0	130.0	0.0348	Open
P4196	J33_2	J34_2	130.00	500.0	125.0	0.0410	Open
P4197	J33_3	J33_4	130.00	300.0	120.0	0.0084	Open
P4198	J33_3	J34_3	130.00	300.0	125.0	0.0203	Open
P4199	J33_4	J33_5	130.00	450.0	120.0	0.0362	Open
P4200	J33_4	J34_4	130.00	300.0	130.0	0.0018	Open
P4201	J33_5	J33_6	130.00	400.0	125.0	0.0075	Open
P4202	J33_5	J34_5	130.00	500.0	125.0	0.0440	Open
P4203	J33_6	J33_7	130.00	500.0	130.0	0.0295	Open
P4204	J33_6	J34_6	130.00	350.0	125.0	0.0382	Open
P4205	J33_7	J33_8	130.00	350.0	130.0	0.0234	Open
P4206	J33_7	J34_7	130.00	300.0	125.0	0.0248	Open
P4207	J33_8	J33_9	130.00	500.0	120.0	0.0397	Open
P4208	J33_8	J34_8	130.00	400.0	125.0	0.0416	Open
P4209	J33_9	J33_10	130.00	500.0	130.0	0.0065	Open
P4210	J33_9	J34_9	130.00	600.0	120.0	0.0453	Open
P4211	J33_10	J33_11	130.00	350.0	120.0	0.0466	Open
P4212	J33_10	J34_10	130.00	350.0	120.0	0.0227	Open
P4213	J33_11	J33_12	130.00	500.0	125.0	0.0132	Open
P4214	J33_11	J34_11	130.00	600.0	130.0	0.0081	Open
P4215	J33_12	J33_13	130.00	450.0	125.0	0.0235	Open
P4216	J33_12	J34_12	130.00	350.0	120.0	0.0120	Open
P4217	J33_13	J33_14	130.00	350.0	120.0	0.0320	Open
P4218	J33_13	J34_13	130.00	400.0	120.0	0.0187	Open
P4219	J33_14	J33_15	130.00	350.0	130.0	0.0130	Open
P4220	J33_14	J34_14	130.00	400.0	125.0	0.0155	Open
P4221	J33_15	J33_16	130.00	500.0	130.0	0.0114	Open
P4222	J33_15	J34_15	130.00	350.0	125.0	0.0287	Open
P4223	J33_16	J33_17	130.00	450.0	125.0	0.0287	Open
P4224	J33_16	J34_16	130.00	350.0	125.0	0.0022	Open
P4225	J33_17	J33_18	130.00	350.0	130.0	0.0043	Open
P4226	J33_17	J34_17	130.00	400.0	120.0	0.0476	Open
P4227	J33_18	J33_19	130.00	350.0	125.0	0.0054	Open
P4228	J33_18	J34_18	130.00	350.0	125.0	0.0209	Open
P4229	J33_19	J33_20	130.00	350.0	120.0	0.0488	Open
P4230	J33_19	J34_19	130.00	600.0	125.0	0.0313	Open
P4231	J33_20	J33_21	130.00	600.0	130.0	0.0298	Open
P4232	J33_20	J34_20	130.00	450.0	130.0	0.0413	Open
P4233	J33_21	J33_22	130.00	500.0	130.0	0.0242	Open
P4234	J33_21	J34_21	130.00	600.0	125.0	0.0039	Open
P4235	J33_22	J33_23	130.00	450.0	130.0	0.0410	Open
P4236	J33_22	J34_22	130.00	600.0	130.0	0.0471	Open
P4237	J33_23	J33_24	130.00	500.0	130.0	0.0267	Open
P4238	J33_23	J34_23	130.00	400.0	125.0	0.0241	Open
P4239	J33_24	J33_25	130.00	450.0	130.0	0.0459	Open
P4240	J33_24	J34_24	130.00	350.0	130.0	0.0406	Open
P4241	J33_25	J33_26	130.00	400.0	125.0	0.0326	Open
P4242	J33_25	J34_25	130.00	500.0	120.0	0.0365	Open
P4243	J33_26	J33_27	130.00	400.0	125.0	0.0280	Open
P4244	J33_26	J34_26	130.00	350.0	120.0	0.0380	Open
P4245	J33_27	J33_28	130.00	500.0	125.0	0.0179	Open
P4246	J33_27	J34_27	130.00	500.0	120.0	0.0056	Open
P4247	J33_28	J33_29	130.00	400.0	120.0	0.0382	Open
P4248	J33_28	J34_28	130.00	400.0	130.0	0.0359	Open
P4249	J33_29	J33_30	130.00	400.0	120.0	0.0463	Open
P4250	J33_29	J34_29	130.00	450.0	130.0	0.0245	Open
P4251	J33_30	J33_31	130.00	450.0	125.0	0.0039	Open
P4252	J33_30	J34_30	130.00	500.0	125.0	0.0315	Open
P4253	J33_31	J33_32	130.00	500.0	130.0	0.0142	Open
P4254	J33_31	J34_31	130.00	600.0	130.0	0.0362	Open
P4255	J33_32	J33_33	130.00	400.0	125.0	0.0394	Open
P4256	J33_32	J34_32	130.00	400.0	125.0	0.0235	Open
P4257	J33_33	J33_34	130.00	450.0	125.0	0.0105	Open
P4258	J33_33	J34_33	130.00	350.0	130.0	0.0243	Open
P4259	J33_34	J33_35	130.00	400.0	120.0	0.0369	Open
P4260	J33_34	J34_34	130.00	300.0	130.0	0.0324	Open
P4261	J33_35	J33_36	130.00	500.0	130.0	0.0070	Open
P4262	J33_35	J34_35	130.00	350.0	130.0	0.0162	Open
P4263	J33_36	J33_37	130.00	300.0	125.0	0.0117	Open
P4264	J33_36	J34_36	130.00	450.0	120.0	0.0112	Open
P4265	J33_37	J33_38	130.00	450.0	130.0	0.0343	Open
P4266	J33_37	J34_37	130.00	450.0	125.0	0.0202	Open
P4267	J33_38	J33_39	130.00	600.0	125.0	0.0196	Open
P4268	J33_38	J34_38	130.00	400.0	125.0	0.0073	Open
P4269	J33_39	J33_40	130.00	300.0	120.0	0.0208	Open
P4270	J33_39	J34_39	130.00	450.0	120.0	0.0415	Open
P4271	J33_40	J33_41	130.00	600.0	120.0	0.0025	Open
P4272	J33_40	J34_40	130.00	400.0	125.0	0.0126	Open
P4273	J33_41	J33_42	130.00	400.0	130.0	0.0332	Open
P4274	J33_41	J34_41	130.00	500.0	130.0	0.0224	Open
P4275	J33_42	J33_43	130.00	450.0	125.0	0.0202	Open
P4276	J33_42	J34_42	130.00	500.0	130.0	0.0093	Open
P4277	J33_43	J33_44	130.00	600.0	120.0	0.0125	Open
P4278	J33_43	J34_43	130.00	300.0	120.0	0.0379	Open
P4279	J33_44	J33_45	130.00	350.0	125.0	0.0030	Open
P4280	J33_44	J34_44	130.00	600.0	130.0	0.0172	Open
P4281	J33_45	J33_46	130.00	400.0	130.0	0.0346	Open
P4282	J33_45	J34_45	130.00	350.0	120.0	0.0319	Open
P4283	J33_46	J33_47	130.00	450.0	120.0	0.0220	Open
P4284	J33_46	J34_46	130.00	400.0	125.0	0.0104	Open
P4285	J33_47	J33_48	130.00	500.0	125.0	0.0325	Open
P4286	J33_47	J34_47	130.00	450.0	120.0	0.0019	Open
P4287	J33_48	J33_49	130.00	300.0	125.0	0.0105	Open
P4288	J33_48	J34_48	130.00	500.0	120.0	0.0089	Open
P4289	J33_49	J33_50	130.00	300.0	120.0	0.0408	Open
P4290	J33_49	J34_49	130.00	350.0	120.0	0.0346	Open
P4291	J33_50	J33_51	130.00	350.0	125.0	0.0026	Open
P4292	J33_50	J34_50	130.00	350.0	120.0	0.0415	Open
P4293	J33_51	J33_52	130.00	400.0	130.0	0.0380	Open
P4294	J33_51	J34_51	130.00	600.0	125.0	0.0033	Open
P4295	J33_52	J33_53	130.00	600.0	125.0	0.0374	Open
P4296	J33_52	J34_52	130.00	450.0	125.0	0.0398	Open
P4297	J33_53	J33_54	130.00	600.0	120.0	0.0077	Open
P4298	J33_53	J34_53	130.00	600.0	130.0	0.0469	Open
P4299	J33_54	J33_55	130.00	500.0	120.0	0.0124	Open
P4300	J33_54	J34_54	130.00	400.0	130.0	0.0307	Open
P4301	J33_55	J33_56	130.00	600.0	120.0	0.0015	Open
P4302	J33_55	J34_55	130.00	450.0	120.0	0.0414	Open
P4303	J33_56	J33_57	130.00	600.0	120.0	0.0477	Open
P4304	J33_56	J34_56	130.00	400.0	130.0	0.0446	Open
P4305	J33_57	J33_58	130.00	450.0	120.0	0.0292	Open
P4306	J33_57	J34_57	130.00	450.0	130.0	0.0415	Open
P4307	J33_58	J33_59	130.00	300.0	120.0	0.0424	Open
P4308	J33_58	J34_58	130.00	500.0	125.0	0.0488	Open
P4309	J33_59	J33_60	130.00	350.0	120.0	0.0107	Open
P4310	J33_59	J34_59	130.00	600.0	130.0	0.0298	Open
P4311	J33_60	J33_61	130.00	300.0	120.0	0.0193	Open
P4312	J33_60	J34_60	130.00	350.0	125.0	0.0084	Open
P4313	J33_61	J33_62	130.00	400.0	125.0	0.0203	Open
P4314	J33_61	J34_61	130.00	400.0	130.0	0.0375	Open
P4315	J33_62	J33_63	130.00	350.0	130.0	0.0185	Open
P4316	J33_62	J34_62	130.00	350.0	125.0	0.0050	Open
P4317	J33_63	J33_64	130.00	350.0	130.0	0.0430	Open
P4318	J33_63	J34_63	130.00	500.0	125.0	0.0354	Open
P4319	J33_64	J33_65	130.00	350.0	130.0	0.0285	Open
P4320	J33_64	J34_64	130.00	500.0	125.0	0.0257	Open
P4321	J33_65	J33_66	130.00	400.0	130.0	0.0272	Open
P4322	J33_65	J34_65	130.00	300.0	120.0	0.0258	Open
P4323	J33_66	J34_66	130.00	600.0	130.0	0.0353	Open
P4324	J34_1	J34_2	130.00	600.0	120.0	0.0039	Open
P4325	J34_1	J35_1	130.00	450.0	130.0	0.0417	Open
P4326	J34_2	J34_3	130.00	300.0	130.0	0.0911	Open
P4327	J34_2	J35_2	130.00	200.0	130.0	0.0579	Open
P4328	J34_3	J34_4	130.00	150.0	140.0	0.1100	Open
P4329	J34_3	J35_3	130.00	100.0	130.0	0.0422	Open
P4330	J34_4	J34_5	130.00	100.0	140.0	0.0089	Open
P4331	J34_4	J35_4	130.00	250.0	125.0	0.0625	Open
P4332	J34_5	J34_6	130.00	150.0	140.0	0.0543	Open
P4333	J34_5	J35_5	130.00	250.0	140.0	0.0226	Open
P4334	J34_6	J34_7	130.00	100.0	130.0	0.0748	Open
P4335	J34_6	J35_6	130.00	300.0	125.0	0.0464	Open
P4336	J34_7	J34_8	130.00	100.0	135.0	0.0795	Open
P4337	J34_7	J35_7	130.00	100.0	135.0	0.1310	Open
P4338	J34_8	J34_9	130.00	150.0	130.0	0.1127	Open
P4339	J34_8	J35_8	130.00	200.0	140.0	0.0792	Open
P4340	J34_9	J34_10	130.00	600.0	120.0	0.0432	Open
P4341	J34_9	J35_9	130.00	300.0	125.0	0.0095	Open
P4342	J34_10	J34_11	130.00	150.0	135.0	0.0870	Open
P4343	J34_10	J35_10	130.00	150.0	135.0	0.1105	Open
P4344	J34_11	J34_12	130.00	250.0	125.0	0.0094	Open
P4345	J34_11	J35_11	130.00	250.0	125.0	0.0441	Open
P4346	J34_12	J34_13	130.00	100.0	140.0	0.0901	Open
P4347	J34_12	J35_12	130.00	150.0	135.0	0.1009	Open
P4348	J34_13	J34_14	130.00	200.0	125.0	0.1340	Open
P4349	J34_13	J35_13	130.00	100.0	135.0	0.0166	Open
P4350	J34_14	J34_15	130.00	150.0	140.0	0.0674	Open
P4351	J34_14	J35_14	130.00	100.0	140.0	0.0642	Open
P4352	J34_15	J34_16	130.00	250.0	130.0	0.0155	Open
P4353	J34_15	J35_15	130.00	200.0	125.0	0.0280	Open
P4354	J34_16	J34_17	130.00	200.0	130.0	0.0592	Open
P4355	J34_16	J35_16	130.00	250.0	125.0	0.1199	Open
P4356	J34_17	J34_18	130.00	500.0	120.0	0.0473	Open
P4357	J34_17	J35_17	130.00	450.0	120.0	0.0207	Open
P4358	J34_18	J34_19	130.00	200.0	140.0	0.0864	Open
P4359	J34_18	J35_18	130.00	300.0	140.0	0.0021	Open
P4360	J34_19	J34_20	130.00	200.0	140.0	0.0689	Open
P4361	J34_19	J35_19	130.00	250.0	140.0	0.0673	Open
P4362	J34_20	J34_21	130.00	100.0	130.0	0.0721	Open
P4363	J34_20	J35_20	130.00	250.0	125.0	0.1005	Open
P4364	J34_21	J34_22	130.00	150.0	125.0	0.0423	Open
P4365	J34_21	J35_21	130.00	300.0	130.0	0.0820	Open
P4366	J34_22	J34_23	130.00	200.0	140.0	0.1192	Open
P4367	J34_22	J35_22	130.00	200.0	140.0	0.1240	Open
P4368	J34_23	J34_24	130.00	100.0	130.0	0.0940	Open
P4369	J34_23	J35_23	130.00	250.0	135.0	0.0164	Open
P4370	J34_24	J34_25	130.00	100.0	135.0	0.0259	Open
P4371	J34_24	J35_24	130.00	250.0	140.0	0.1367	Open
P4372	J34_25	J34_26	130.00	500.0	120.0	0.0312	Open
P4373	J34_25	J35_25	130.00	350.0	120.0	0.0277	Open
P4374	J34_26	J34_27	130.00	300.0	140.0	0.1152	Open
P4375	J34_26	J35_26	130.00	100.0	125.0	0.1225	Open
P4376	J34_27	J34_28	130.00	100.0	135.0	0.0206	Open
P4377	J34_27	J35_27	130.00	300.0	140.0	0.0134	Open
P4378	J34_28	J34_29	130.00	200.0	125.0	0.1317	Open
P4379	J34_28	J35_28	130.00	200.0	135.0	0.1304	Open
P4380	J34_29	J34_30	130.00	100.0	140.0	0.0792	Open
P4381	J34_29	J35_29	130.00	100.0	135.0	0.0892	Open
P4382	J34_30	J34_31	130.00	150.0	135.0	0.1015	Open
P4383	J34_30	J35_30	130.00	300.0	135.0	0.1100	Open
P4384	J34_31	J34_32	130.00	200.0	125.0	0.0709	Open
P4385	J34_31	J35_31	130.00	200.0	135.0	0.0900	Open
P4386	J34_32	J34_33	130.00	100.0	135.0	0.0413	Open
P4387	J34_32	J35_32	130.00	150.0	130.0	0.0665	Open
P4388	J34_33	J34_34	130.00	600.0	125.0	0.0013	Open
P4389	J34_33	J35_33	130.00	450.0	130.0	0.0384	Open
P4390	J34_34	J34_35	130.00	250.0	135.0	0.1474	Open
P4391	J34_34	J35_34	130.00	250.0	125.0	0.0615	Open
P4392	J34_35	J34_36	130.00	200.0	130.0	0.0590	Open
P4393	J34_35	J35_35	130.00	250.0	125.0	0.0294	Open
P4394	J34_36	J34_37	130.00	200.0	125.0	0.0446	Open
P4395	J34_36	J35_36	130.00	300.0	125.0	0.0151	Open
P4396	J34_37	J34_38	130.00	200.0	125.0	0.0425	Open
P4397	J34_37	J35_37	130.00	100.0	140.0	0.0251	Open
P4398	J34_38	J34_39	130.00	200.0	140.0	0.0373	Open
P4399	J34_38	J35_38	130.00	250.0	125.0	0.0326	Open
P4400	J34_39	J34_40	130.00	150.0	135.0	0.0083	Open
P4401	J34_39	J35_39	130.00	200.0	130.0	0.1334	Open
P4402	J34_40	J34_41	130.00	250.0	135.0	0.1096	Open
P4403	J34_40	J35_40	130.00	200.0	130.0	0.1082	Open
P4404	J34_41	J34_42	130.00	350.0	130.0	0.0039	Open
P4405	J34_41	J35_41	130.00	600.0	120.0	0.0486	Open
P4406	J34_42	J34_43	130.00	100.0	135.0	0.0478	Open
P4407	J34_42	J35_42	130.00	150.0	135.0	0.1052	Open
P4408	J34_43	J34_44	130.00	150.0	135.0	0.0809	Open
P4409	J34_43	J35_43	130.00	100.0	135.0	0.0093	Open
P4410	J34_44	J34_45	130.00	100.0	125.0	0.1168	Open
P4411	J34_44	J35_44	130.00	150.0	125.0	0.0809	Open
P4412	J34_45	J34_46	130.00	150.0	130.0	0.1257	Open
P4413	J34_45	J35_45	130.00	200.0	140.0	0.1095	Open
P4414	J34_46	J34_47	130.00	150.0	140.0	0.0213	Open
P4415	J34_46	J35_46	130.00	150.0	125.0	0.0714	Open
P4416	J34_47	J34_48	130.00	150.0	125.0	0.0398	Open
P4417	J34_47	J35_47	130.00	250.0	140.0	0.0134	Open
P4418	J34_48	J34_49	130.00	300.0	140.0	0.0802	Open
P4419	J34_48	J35_48	130.00	300.0	140.0	0.0694	Open
P4420	J34_49	J34_50	130.00	350.0	125.0	0.0344	Open
P4421	J34_49	J35_49	130.00	600.0	125.0	0.0174	Open
P4422	J34_50	J34_51	130.00	150.0	130.0	0.0596	Open
P4423	J34_50	J35_50	130.00	300.0	130.0	0.0867	Open
P4424	J34_51	J34_52	130.00	100.0	125.0	0.1063	Open
P4425	J34_51	J35_51	130.00	250.0	135.0	0.0522	Open
P4426	J34_52	J34_53	130.00	250.0	140.0	0.1085	Open
P4427	J34_52	J35_52	130.00	300.0	125.0	0.1185	Open
P4428	J34_53	J34_54	130.00	300.0	140.0	0.0205	Open
P4429	J34_53	J35_53	130.00	300.0	135.0	0.1347	Open
P4430	J34_54	J34_55	130.00	250.0	125.0	0.1062	Open
P4431	J34_54	J35_54	130.00	100.0	130.0	0.0799	Open
P4432	J34_55	J34_56	130.00	100.0	135.0	0.0039	Open
P4433	J34_55	J35_55	130.00	150.0	140.0	0.1062	Open
P4434	J34_56	J34_57	130.00	300.0	135.0	0.1281	Open
P4435	J34_56	J35_56	130.00	250.0	130.0	0.1493	Open
P4436	J34_57	J34_58	130.00	400.0	125.0	0.0108	Open
P4437	J34_57	J35_57	130.00	450.0	125.0	0.0198	Open
P4438	J34_58	J34_59	130.00	150.0	130.0	0.1056	Open
P4439	J34_58	J35_58	130.00	250.0	140.0	0.0788	Open
P4440	J34_59	J34_60	130.00	100.0	135.0	0.0966	Open
P4441	J34_59	J35_59	130.00	250.0	140.0	0.0105	Open
P4442	J34_60	J34_61	130.00	200.0	125.0	0.1460	Open
P4443	J34_60	J35_60	130.00	300.0	130.0	0.0740	Open
P4444	J34_61	J34_62	130.00	250.0	125.0	0.1136	Open
P4445	J34_61	J35_61	130.00	150.0	130.0	0.1262	Open
P4446	J34_62	J34_63	130.00	150.0	130.0	0.1285	Open
P4447	J34_62	J35_62	130.00	300.0	130.0	0.1028	Open
P4448	J34_63	J34_64	130.00	150.0	130.0	0.0818	Open
P4449	J34_63	J35_63	130.00	250.0	135.0	0.0274	Open
P4450	J34_64	J34_65	130.00	300.0	135.0	0.0461	Open
P4451	J34_64	J35_64	130.00	300.0	135.0	0.1126	Open
P4452	J34_65	J34_66	130.00	400.0	125.0	0.0163	Open
P4453	J34_65	J35_65	130.00	600.0	125.0	0.0448	Open
P4454	J34_66	J35_66	130.00	250.0	135.0	0.0575	Open
P4455	J35_1	J35_2	130.00	300.0	125.0	0.0169	Open
P4456	J35_1	J36_1	130.00	450.0	120.0	0.0287	Open
P4457	J35_2	J35_3	130.00	100.0	140.0	0.1136	Open
P4458	J35_2	J36_2	130.00	200.0	140.0	0.0015	Open
P4459	J35_3	J35_4	130.00	300.0	130.0	0.0109	Open
P4460	J35_3	J36_3	130.00	100.0	140.0	0.0208	Open
P4461	J35_4	J35_5	130.00	150.0	140.0	0.0162	Open
P4462	J35_4	J36_4	130.00	250.0	140.0	0.0482	Open
P4463	J35_5	J35_6	130.00	250.0	125.0	0.0960	Open
P4464	J35_5	J36_5	130.00	300.0	135.0	0.1387	Open
P4465	J35_6	J35_7	130.00	150.0	130.0	0.0021	Open
P4466	J35_6	J36_6	130.00	200.0	125.0	0.0687	Open
P4467	J35_7	J35_8	130.00	150.0	140.0	0.1319	Open
P4468	J35_7	J36_7	130.00	150.0	135.0	0.0340	Open
P4469	J35_8	J35_9	130.00	200.0	130.0	0.1432	Open
P4470	J35_8	J36_8	130.00	300.0	135.0	0.1161	Open
P4471	J35_9	J35_10	130.00	400.0	120.0	0.0226	Open
P4472	J35_9	J36_9	130.00	500.0	120.0	0.0379	Open
P4473	J35_10	J35_11	130.00	300.0	140.0	0.0319	Open
P4474	J35_10	J36_10	130.00	250.0	135.0	0.0638	Open
P4475	J35_11	J35_12	130.00	200.0	140.0	0.0874	Open
P4476	J35_11	J36_11	130.00	250.0	135.0	0.1019	Open
P4477	J35_12	J35_13	130.00	150.0	140.0	0.0715	Open
P4478	J35_12	J36_12	130.00	150.0	140.0	0.0732	Open
P4479	J35_13	J35_14	130.00	150.0	130.0	0.0239	Open
P4480	J35_13	J36_13	130.00	300.0	125.0	0.0602	Open
P4481	J35_14	J35_15	130.00	150.0	125.0	0.0345	Open
P4482	J35_14	J36_14	130.00	300.0	125.0	0.0999	Open
P4483	J35_15	J35_16	130.00	100.0	130.0	0.0876	Open
P4484	J35_15	J36_15	130.00	300.0	130.0	0.0678	Open
P4485	J35_16	J35_17	130.00	200.0	125.0	0.0612	Open
P4486	J35_16	J36_16	130.00	200.0	125.0	0.0962	Open
P4487	J35_17	J35_18	130.00	350.0	130.0	0.0153	Open
P4488	J35_17	J36_17	130.00	350.0	120.0	0.0047	Open
P4489	J35_18	J35_19	130.00	250.0	140.0	0.0442	Open
P4490	J35_18	J36_18	130.00	150.0	135.0	0.1346	Open
P4491	J35_19	J35_20	130.00	100.0	130.0	0.1229	Open
P4492	J35_19	J36_19	130.00	200.0	130.0	0.1219	Open
P4493	J35_20	J35_21	130.00	200.0	130.0	0.0947	Open
P4494	J35_20	J36_20	130.00	200.0	135.0	0.1350	Open
P4495	J35_21	J35_22	130.00	250.0	140.0	0.0155	Open
P4496	J35_21	J36_21	130.00	250.0	135.0	0.0514	Open
P4497	J35_22	J35_23	130.00	300.0	130.0	0.0273	Open
P4498	J35_22	J36_22	130.00	100.0	130.0	0.0621	Open
P4499	J35_23	J35_24	130.00	250.0	130.0	0.0748	Open
P4500	J35_23	J36_23	130.00	250.0	125.0	0.0069	Open
P4501	J35_24	J35_25	130.00	250.0	130.0	0.0073	Open
P4502	J35_24	J36_24	130.00	250.0	130.0	0.1318	Open
P4503	J35_25	J35_26	130.00	600.0	120.0	0.0460	Open
P4504	J35_25	J36_25	130.00	500.0	120.0	0.0452	Open
P4505	J35_26	J35_27	130.00	200.0	135.0	0.0586	Open
P4506	J35_26	J36_26	130.00	100.0	135.0	0.1275	Open
P4507	J35_27	J35_28	130.00	150.0	135.0	0.1056	Open
P4508	J35_27	J36_27	130.00	150.0	135.0	0.0464	Open
P4509	J35_28	J35_29	130.00	250.0	140.0	0.1091	Open
P4510	J35_28	J36_28	130.00	100.0	135.0	0.0844	Open
P4511	J35_29	J35_30	130.00	200.0	130.0	0.1211	Open
P4512	J35_29	J36_29	130.00	200.0	125.0	0.0212	Open
P4513	J35_30	J35_31	130.00	300.0	130.0	0.1462	Open
P4514	J35_30	J36_30	130.00	300.0	130.0	0.0511	Open
P4515	J35_31	J35_32	130.00	250.0	140.0	0.1324	Open
P4516	J35_31	J36_31	130.00	300.0	130.0	0.1408	Open
P4517	J35_32	J35_33	130.00	250.0	140.0	0.1002	Open
P4518	J35_32	J36_32	130.00	300.0	140.0	0.0227	Open
P4519	J35_33	J35_34	130.00	450.0	130.0	0.0169	Open
P4520	J35_33	J36_33	130.00	400.0	125.0	0.0135	Open
P4521	J35_34	J35_35	130.00	250.0	130.0	0.0971	Open
P4522	J35_34	J36_34	130.00	300.0	125.0	0.1433	Open
P4523	J35_35	J35_36	130.00	150.0	125.0	0.1152	Open
P4524	J35_35	J36_35	130.00	300.0	140.0	0.0262	Open
P4525	J35_36	J35_37	130.00	150.0	135.0	0.0562	Open
P4526	J35_36	J36_36	130.00	300.0	140.0	0.1364	Open
P4527	J35_37	J35_38	130.00	200.0	125.0	0.0953	Open
P4528	J35_37	J36_37	130.00	300.0	135.0	0.0706	Open
P4529	J35_38	J35_39	130.00	300.0	135.0	0.0904	Open
P4530	J35_38	J36_38	130.00	250.0	130.0	0.0464	Open
P4531	J35_39	J35_40	130.00	150.0	135.0	0.1396	Open
P4532	J35_39	J36_39	130.00	100.0	130.0	0.1330	Open
P4533	J35_40	J35_41	130.00	150.0	125.0	0.0439	Open
P4534	J35_40	J36_40	130.00	250.0	140.0	0.0627	Open
P4535	J35_41	J35_42	130.00	500.0	125.0	0.0122	Open
P4536	J35_41	J36_41	130.00	450.0	130.0	0.0440	Open
P4537	J35_42	J35_43	130.00	300.0	130.0	0.0050	Open
P4538	J35_42	J36_42	130.00	250.0	135.0	0.0013	Open
P4539	J35_43	J35_44	130.00	200.0	140.0	0.1107	Open
P4540	J35_43	J36_43	130.00	300.0	125.0	0.0457	Open
P4541	J35_44	J35_45	130.00	250.0	135.0	0.0704	Open
P4542	J35_44	J36_44	130.00	150.0	140.0	0.0452	Open
P4543	J35_45	J35_46	130.00	200.0	130.0	0.0241	Open
P4544	J35_45	J36_45	130.00	250.0	130.0	0.0769	Open
P4545	J35_46	J35_47	130.00	200.0	135.0	0.1302	Open
P4546	J35_46	J36_46	130.00	150.0	125.0	0.0921	Open
P4547	J35_47	J35_48	130.00	100.0	140.0	0.0336	Open
P4548	J35_47	J36_47	130.00	250.0	135.0	0.1152	Open
P4549	J35_48	J35_49	130.00	100.0	125.0	0.0824	Open
P4550	J35_48	J36_48	130.00	100.0	125.0	0.1148	Open
P4551	J35_49	J35_50	130.00	400.0	130.0	0.0476	Open
P4552	J35_49	J36_49	130.00	300.0	130.0	0.0164	Open
P4553	J35_50	J35_51	130.00	300.0	140.0	0.1024	Open
P4554	J35_50	J36_50	130.00	200.0	130.0	0.0826	Open
P4555	J35_51	J35_52	130.00	200.0	140.0	0.0954	Open
P4556	J35_51	J36_51	130.00	100.0	130.0	0.0399	Open
P4557	J35_52	J35_53	130.00	250.0	135.0	0.1462	Open
P4558	J35_52	J36_52	130.00	100.0	140.0	0.0561	Open
P4559	J35_53	J35_54	130.00	150.0	140.0	0.0483	Open
P4560	J35_53	J36_53	130.00	150.0	125.0	0.0467	Open
P4561	J35_54	J35_55	130.00	250.0	125.0	0.0886	Open
P4562	J35_54	J36_54	130.00	300.0	125.0	0.1227	Open
P4563	J35_55	J35_56	130.00	300.0	140.0	0.0057	Open
P4564	J35_55	J36_55	130.00	150.0	135.0	0.0816	Open
P4565	J35_56	J35_57	130.00	100.0	135.0	0.1023	Open
P4566	J35_56	J36_56	130.00	300.0	125.0	0.0065	Open
P4567	J35_57	J35_58	130.00	300.0	130.0	0.0327	Open
P4568	J35_57	J36_57	130.00	600.0	130.0	0.0273	Open
P4569	J35_58	J35_59	130.00	300.0	140.0	0.1291	Open
P4570	J35_58	J36_58	130.00	100.0	125.0	0.1000	Open
P4571	J35_59	J35_60	130.00	300.0	125.0	0.1362	Open
P4572	J35_59	J36_59	130.00	250.0	135.0	0.0496	Open
P4573	J35_60	J35_61	130.00	300.0	125.0	0.0395	Open
P4574	J35_60	J36_60	130.00	150.0	135.0	0.0085	Open
P4575	J35_61	J35_62	130.00	100.0	130.0	0.0333	Open
P4576	J35_61	J36_61	130.00	100.0	125.0	0.0489	Open
P4577	J35_62	J35_63	130.00	150.0	130.0	0.0009	Open
P4578	J35_62	J36_62	130.00	250.0	130.0	0.0430	Open
P4579	J35_63	J35_64	130.00	200.0	130.0	0.0426	Open
P4580	J35_63	J36_63	130.00	200.0	130.0	0.0994	Open
P4581	J35_64	J35_65	130.00	300.0	140.0	0.0568	Open
P4582	J35_64	J36_64	130.00	200.0	125.0	0.1314	Open
P4583	J35_65	J35_66	130.00	400.0	130.0	0.0070	Open
P4584	J35_65	J36_65	130.00	400.0	130.0	0.0098	Open
P4585	J35_66	J36_66	130.00	200.0	125.0	0.1230	Open
P4586	J36_1	J36_2	130.00	350.0	125.0	0.0491	Open
P4587	J36_1	J37_1	130.00	500.0	120.0	0.0129	Open
P4588	J36_2	J36_3	130.00	150.0	125.0	0.0047	Open
P4589	J36_2	J37_2	130.00	150.0	130.0	0.0915	Open
P4590	J36_3	J36_4	130.00	150.0	140.0	0.0237	Open
P4591	J36_3	J37_3	130.00	250.0	140.0	0.0848	Open
P4592	J36_4	J36_5	130.00	100.0	135.0	0.1436	Open
P4593	J36_4	J37_4	130.00	100.0	130.0	0.1464	Open
P4594	J36_5	J36_6	130.00	200.0	140.0	0.0819	Open
P4595	J36_5	J37_5	130.00	100.0	140.0	0.0014	Open
P4596	J36_6	J36_7	130.00	100.0	125.0	0.0921	Open
P4597	J36_6	J37_6	130.00	150.0	130.0	0.0457	Open
P4598	J36_7	J36_8	130.00	100.0	130.0	0.0686	Open
P4599	J36_7	J37_7	130.00	150.0	140.0	0.0802	Open
P4600	J36_8	J36_9	130.00	200.0	135.0	0.0730	Open
P4601	J36_8	J37_8	130.00	100.0	135.0	0.1231	Open
P4602	J36_9	J36_10	130.00	450.0	120.0	0.0342	Open
P4603	J36_9	J37_9	130.00	450.0	125.0	0.0145	Open
P4604	J36_10	J36_11	130.00	150.0	130.0	0.1482	Open
P4605	J36_10	J37_10	130.00	200.0	125.0	0.0652	Open
P4606	J36_11	J36_12	130.00	100.0	135.0	0.1449	Open
P4607	J36_11	J37_11	130.00	100.0	135.0	0.0111	Open
P4608	J36_12	J36_13	130.00	250.0	125.0	0.0370	Open
P4609	J36_12	J37_12	130.00	150.0	130.0	0.0902	Open
P4610	J36_13	J36_14	130.00	100.0	135.0	0.0711	Open
P4611	J36_13	J37_13	130.00	250.0	130.0	0.1109	Open
P4612	J36_14	J36_15	130.00	250.0	135.0	0.0347	Open
P4613	J36_14	J37_14	130.00	250.0	135.0	0.0138	Open
P4614	J36_15	J36_16	130.00	250.0	130.0	0.0050	Open
P4615	J36_15	J37_15	130.00	100.0	135.0	0.0918	Open
P4616	J36_16	J36_17	130.00	100.0	130.0	0.0084	Open
P4617	J36_16	J37_16	130.00	300.0	135.0	0.0878	Open
P4618	J36_17	J36_18	130.00	500.0	125.0	0.0246	Open
P4619	J36_17	J37_17	130.00	600.0	125.0	0.0334	Open
P4620	J36_18	J36_19	130.00	250.0	140.0	0.0948	Open
P4621	J36_18	J37_18	130.00	300.0	125.0	0.1300	Open
P4622	J36_19	J36_20	130.00	150.0	130.0	0.1254	Open
P4623	J36_19	J37_19	130.00	250.0	140.0	0.0727	Open
P4624	J36_20	J36_21	130.00	300.0	140.0	0.0113	Open
P4625	J36_20	J37_20	130.00	250.0	135.0	0.0964	Open
P4626	J36_21	J36_22	130.00	200.0	135.0	0.1089	Open
P4627	J36_21	J37_21	130.00	300.0	125.0	0.0617	Open
P4628	J36_22	J36_23	130.00	200.0	140.0	0.1116	Open
P4629	J36_22	J37_22	130.00	200.0	130.0	0.1046	Open
P4630	J36_23	J36_24	130.00	300.0	135.0	0.1485	Open
P4631	J36_23	J37_23	130.00	250.0	135.0	0.0555	Open
P4632	J36_24	J36_25	130.00	200.0	140.0	0.1462	Open
P4633	J36_24	J37_24	130.00	300.0	135.0	0.0030	Open
P4634	J36_25	J36_26	130.00	500.0	120.0	0.0479	Open
P4635	J36_25	J37_25	130.00	450.0	125.0	0.0359	Open
P4636	J36_26	J36_27	130.00	150.0	140.0	0.0110	Open
P4637	J36_26	J37_26	130.00	300.0	130.0	0.0533	Open
P4638	J36_27	J36_28	130.00	100.0	135.0	0.1103	Open
P4639	J36_27	J37_27	130.00	100.0	140.0	0.0149	Open
P4640	J36_28	J36_29	130.00	200.0	135.0	0.0244	Open
P4641	J36_28	J37_28	130.00	300.0	125.0	0.0127	Open
P4642	J36_29	J36_30	130.00	250.0	130.0	0.1373	Open
P4643	J36_29	J37_29	130.00	250.0	140.0	0.1237	Open
P4644	J36_30	J36_31	130.00	100.0	130.0	0.1261	Open
P4645	J36_30	J37_30	130.00	100.0	135.0	0.0651	Open
P4646	J36_31	J36_32	130.00	100.0	130.0	0.1229	Open
P4647	J36_31	J37_31	130.00	250.0	135.0	0.1492	Open
P4648	J36_32	J36_33	130.00	150.0	130.0	0.1487	Open
P4649	J36_32	J37_32	130.00	250.0	140.0	0.0436	Open
P4650	J36_33	J36_34	130.00	300.0	125.0	0.0083	Open
P4651	J36_33	J37_33	130.00	500.0	120.0	0.0291	Open
P4652	J36_34	J36_35	130.00	200.0	140.0	0.0050	Open
P4653	J36_34	J37_34	130.00	250.0	130.0	0.1324	Open
P4654	J36_35	J36_36	130.00	250.0	140.0	0.1032	Open
P4655	J36_35	J37_35	130.00	100.0	135.0	0.1459	Open
P4656	J36_36	J36_37	130.00	300.0	125.0	0.0624	Open
P4657	J36_36	J37_36	130.00	150.0	140.0	0.1451	Open
P4658	J36_37	J36_38	130.00	200.0	135.0	0.0541	Open
P4659	J36_37	J37_37	130.00	150.0	140.0	0.0197	Open
P4660	J36_38	J36_39	130.00	200.0	130.0	0.1457	Open
P4661	J36_38	J37_38	130.00	300.0	135.0	0.0379	Open
P4662	J36_39	J36_40	130.00	250.0	130.0	0.1060	Open
P4663	J36_39	J37_39	130.00	150.0	135.0	0.1421	Open
P4664	J36_40	J36_41	130.00	250.0	140.0	0.1456	Open
P4665	J36_40	J37_40	130.00	200.0	140.0	0.0613	Open
P4666	J36_41	J36_42	130.00	500.0	125.0	0.0052	Open
P4667	J36_41	J37_41	130.00	450.0	125.0	0.0202	Open
P4668	J36_42	J36_43	130.00	250.0	140.0	0.0778	Open
P4669	J36_42	J37_42	130.00	300.0	140.0	0.1359	Open
P4670	J36_43	J36_44	130.00	200.0	130.0	0.0421	Open
P4671	J36_43	J37_43	130.00	300.0	125.0	0.0891	Open
P4672	J36_44	J36_45	130.00	100.0	140.0	0.0051	Open
P4673	J36_44	J37_44	130.00	100.0	135.0	0.0304	Open
P4674	J36_45	J36_46	130.00	300.0	125.0	0.0469	Open
P4675	J36_45	J37_45	130.00	100.0	140.0	0.0144	Open
P4676	J36_46	J36_47	130.00	200.0	135.0	0.1279	Open
P4677	J36_46	J37_46	130.00	250.0	130.0	0.0100	Open
P4678	J36_47	J36_48	130.00	300.0	130.0	0.0577	Open
P4679	J36_47	J37_47	130.00	300.0	125.0	0.0761	Open
P4680	J36_48	J36_49	130.00	250.0	140.0	0.1060	Open
P4681	J36_48	J37_48	130.00	200.0	130.0	0.0429	Open
P4682	J36_49	J36_50	130.00	350.0	125.0	0.0065	Open
P4683	J36_49	J37_49	130.00	400.0	130.0	0.0084	Open
P4684	J36_50	J36_51	130.00	200.0	135.0	0.0623	Open
P4685	J36_50	J37_50	130.00	250.0	130.0	0.0523	Open
P4686	J36_51	J36_52	130.00	100.0	135.0	0.0656	Open
P4687	J36_51	J37_51	130.00	250.0	125.0	0.0306	Open
P4688	J36_52	J36_53	130.00	300.0	135.0	0.1178	Open
P4689	J36_52	J37_52	130.00	150.0	125.0	0.1076	Open
P4690	J36_53	J36_54	130.00	100.0	135.0	0.1372	Open
P4691	J36_53	J37_53	130.00	250.0	140.0	0.1362	Open
P4692	J36_54	J36_55	130.00	300.0	135.0	0.0801	Open
P4693	J36_54	J37_54	130.00	100.0	130.0	0.1216	Open
P4694	J36_55	J36_56	130.00	100.0	130.0	0.0356	Open
P4695	J36_55	J37_55	130.00	300.0	130.0	0.0335	Open
P4696	J36_56	J36_57	130.00	200.0	135.0	0.0155	Open
P4697	J36_56	J37_56	130.00	100.0	125.0	0.0289	Open
P4698	J36_57	J36_58	130.00	400.0	120.0	0.0428	Open
P4699	J36_57	J37_57	130.00	350.0	120.0	0.0010	Open
P4700	J36_58	J36_59	130.00	250.0	135.0	0.0129	Open
P4701	J36_58	J37_58	130.00	200.0	125.0	0.0156	Open
P4702	J36_59	J36_60	130.00	150.0	135.0	0.0758	Open
P4703	J36_59	J37_59	130.00	200.0	140.0	0.0969	Open
P4704	J36_60	J36_61	130.00	100.0	135.0	0.0460	Open
P4705	J36_60	J37_60	130.00	250.0	125.0	0.1238	Open
P4706	J36_61	J36_62	130.00	200.0	125.0	0.0074	Open
P4707	J36_61	J37_61	130.00	150.0	135.0	0.0871	Open
P4708	J36_62	J36_63	130.00	200.0	140.0	0.1317	Open
P4709	J36_62	J37_62	130.00	100.0	135.0	0.0446	Open
P4710	J36_63	J36_64	130.00	250.0	130.0	0.0729	Open
P4711	J36_63	J37_63	130.00	300.0	140.0	0.0197	Open
P4712	J36_64	J36_65	130.00	300.0	125.0	0.0515	Open
P4713	J36_64	J37_64	130.00	250.0	130.0	0.0457	Open
P4714	J36_65	J36_66	130.00	350.0	120.0	0.0357	Open
P4715	J36_65	J37_65	130.00	450.0	125.0	0.0479	Open
P4716	J36_66	J37_66	130.00	250.0	140.0	0.0841	Open
P4717	J37_1	J37_2	130.00	300.0	130.0	0.0219	Open
P4718	J37_1	J38_1	130.00	450.0	120.0	0.0213	Open
P4719	J37_2	J37_3	130.00	100.0	135.0	0.0203	Open
P4720	J37_2	J38_2	130.00	150.0	135.0	0.0275	Open
P4721	J37_3	J37_4	130.00	300.0	125.0	0.1322	Open
P4722	J37_3	J38_3	130.00	250.0	125.0	0.1138	Open
P4723	J37_4	J37_5	130.00	200.0	140.0	0.1238	Open
P4724	J37_4	J38_4	130.00	150.0	125.0	0.0175	Open
P4725	J37_5	J37_6	130.00	150.0	125.0	0.0705	Open
P4726	J37_5	J38_5	130.00	300.0	130.0	0.1324	Open
P4727	J37_6	J37_7	130.00	100.0	130.0	0.0414	Open
P4728	J37_6	J38_6	130.00	250.0	125.0	0.1259	Open
P4729	J37_7	J37_8	130.00	300.0	140.0	0.0991	Open
P4730	J37_7	J38_7	130.00	250.0	135.0	0.0624	Open
P4731	J37_8	J37_9	130.00	150.0	135.0	0.0792	Open
P4732	J37_8	J38_8	130.00	300.0	125.0	0.0228	Open
P4733	J37_9	J37_10	130.00	600.0	120.0	0.0282	Open
P4734	J37_9	J38_9	130.00	300.0	125.0	0.0315	Open
P4735	J37_10	J37_11	130.00	100.0	125.0	0.0959	Open
P4736	J37_10	J38_10	130.00	150.0	130.0	0.0007	Open
P4737	J37_11	J37_12	130.00	100.0	135.0	0.0219	Open
P4738	J37_11	J38_11	130.00	200.0	130.0	0.1265	Open
P4739	J37_12	J37_13	130.00	100.0	135.0	0.1010	Open
P4740	J37_12	J38_12	130.00	300.0	125.0	0.0878	Open
P4741	J37_13	J37_14	130.00	150.0	130.0	0.0605	Open
P4742	J37_13	J38_13	130.00	250.0	125.0	0.0447	Open
P4743	J37_14	J37_15	130.00	200.0	130.0	0.0926	Open
P4744	J37_14	J38_14	130.00	200.0	135.0	0.0765	Open
P4745	J37_15	J37_16	130.00	300.0	135.0	0.0173	Open
P4746	J37_15	J38_15	130.00	250.0	135.0	0.0728	Open
P4747	J37_16	J37_17	130.00	200.0	125.0	0.0224	Open
P4748	J37_16	J38_16	130.00	200.0	130.0	0.0252	Open
P4749	J37_17	J37_18	130.00	600.0	125.0	0.0410	Open
P4750	J37_17	J38_17	130.00	350.0	125.0	0.0164	Open
P4751	J37_18	J37_19	130.00	200.0	130.0	0.1270	Open
P4752	J37_18	J38_18	130.00	300.0	130.0	0.0787	Open
P4753	J37_19	J37_20	130.00	250.0	135.0	0.0709	Open
P4754	J37_19	J38_19	130.00	250.0	130.0	0.0944	Open
P4755	J37_20	J37_21	130.00	200.0	125.0	0.1119	Open
P4756	J37_20	J38_20	130.00	250.0	125.0	0.1115	Open
P4757	J37_21	J37_22	130.00	300.0	130.0	0.0061	Open
P4758	J37_21	J38_21	130.00	250.0	130.0	0.0393	Open
P4759	J37_22	J37_23	130.00	100.0	125.0	0.0655	Open
P4760	J37_22	J38_22	130.00	300.0	140.0	0.1228	Open
P4761	J37_23	J37_24	130.00	100.0	140.0	0.1197	Open
P4762	J37_23	J38_23	130.00	250.0	140.0	0.0974	Open
P4763	J37_24	J37_25	130.00	300.0	130.0	0.0565	Open
P4764	J37_24	J38_24	130.00	250.0	130.0	0.1499	Open
P4765	J37_25	J37_26	130.00	450.0	120.0	0.0460	Open
P4766	J37_25	J38_25	130.00	300.0	120.0	0.0403	Open
P4767	J37_26	J37_27	130.00	100.0	125.0	0.0858	Open
P4768	J37_26	J38_26	130.00	200.0	130.0	0.1443	Open
P4769	J37_27	J37_28	130.00	100.0	140.0	0.1306	Open
P4770	J37_27	J38_27	130.00	300.0	125.0	0.0637	Open
P4771	J37_28	J37_29	130.00	150.0	135.0	0.1035	Open
P4772	J37_28	J38_28	130.00	100.0	130.0	0.0408	Open
P4773	J37_29	J37_30	130.00	250.0	135.0	0.0061	Open
P4774	J37_29	J38_29	130.00	150.0	125.0	0.0076	Open
P4775	J37_30	J37_31	130.00	200.0	125.0	0.0698	Open
P4776	J37_30	J38_30	130.00	250.0	125.0	0.1466	Open
P4777	J37_31	J37_32	130.00	100.0	140.0	0.0558	Open
P4778	J37_31	J38_31	130.00	200.0	135.0	0.0640	Open
P4779	J37_32	J37_33	130.00	100.0	140.0	0.1092	Open
P4780	J37_32	J38_32	130.00	200.0	140.0	0.0673	Open
P4781	J37_33	J37_34	130.00	450.0	120.0	0.0216	Open
P4782	J37_33	J38_33	130.00	350.0	125.0	0.0172	Open
P4783	J37_34	J37_35	130.00	100.0	125.0	0.0563	Open
P4784	J37_34	J38_34	130.00	100.0	130.0	0.0828	Open
P4785	J37_35	J37_36	130.00	200.0	125.0	0.0956	Open
P4786	J37_35	J38_35	130.00	200.0	135.0	0.0260	Open
P4787	J37_36	J37_37	130.00	150.0	140.0	0.0429	Open
P4788	J37_36	J38_36	130.00	200.0	140.0	0.1356	Open
P4789	J37_37	J37_38	130.00	200.0	130.0	0.0055	Open
P4790	J37_37	J38_37	130.00	200.0	125.0	0.0772	Open
P4791	J37_38	J37_39	130.00	200.0	140.0	0.1488	Open
P4792	J37_38	J38_38	130.00	150.0	140.0	0.1447	Open
P4793	J37_39	J37_40	130.00	200.0	125.0	0.0425	Open
P4794	J37_39	J38_39	130.00	200.0	125.0	0.1094	Open
P4795	J37_40	J37_41	130.00	150.0	125.0	0.0170	Open
P4796	J37_40	J38_40	130.00	250.0	140.0	0.0445	Open
P4797	J37_41	J37_42	130.00	400.0	125.0	0.0260	Open
P4798	J37_41	J38_41	130.00	500.0	120.0	0.0431	Open
P4799	J37_42	J37_43	130.00	100.0	125.0	0.0284	Open
P4800	J37_42	J38_42	130.00	300.0	140.0	0.0039	Open
P4801	J37_43	J37_44	130.00	250.0	135.0	0.0095	Open
P4802	J37_43	J38_43	130.00	250.0	140.0	0.0840	Open
P4803	J37_44	J37_45	130.00	300.0	125.0	0.1161	Open
P4804	J37_44	J38_44	130.00	250.0	140.0	0.0577	Open
P4805	J37_45	J37_46	130.00	300.0	130.0	0.1486	Open
P4806	J37_45	J38_45	130.00	200.0	130.0	0.0673	Open
P4807	J37_46	J37_47	130.00	250.0	130.0	0.1157	Open
P4808	J37_46	J38_46	130.00	300.0	130.0	0.0944	Open
P4809	J37_47	J37_48	130.00	200.0	140.0	0.1340	Open
P4810	J37_47	J38_47	130.00	300.0	140.0	0.0313	Open
P4811	J37_48	J37_49	130.00	150.0	130.0	0.0575	Open
P4812	J37_48	J38_48	130.00	100.0	135.0	0.1310	Open
P4813	J37_49	J37_50	130.00	600.0	130.0	0.0070	Open
P4814	J37_49	J38_49	130.00	450.0	125.0	0.0468	Open
P4815	J37_50	J37_51	130.00	150.0	125.0	0.0686	Open
P4816	J37_50	J38_50	130.00	100.0	130.0	0.1134	Open
P4817	J37_51	J37_52	130.00	150.0	130.0	0.0889	Open
P4818	J37_51	J38_51	130.00	150.0	135.0	0.1117	Open
P4819	J37_52	J37_53	130.00	250.0	130.0	0.0774	Open
P4820	J37_52	J38_52	130.00	150.0	135.0	0.1378	Open
P4821	J37_53	J37_54	130.00	300.0	135.0	0.0634	Open
P4822	J37_53	J38_53	130.00	250.0	140.0	0.0944	Open
P4823	J37_54	J37_55	130.00	250.0	140.0	0.0475	Open
P4824	J37_54	J38_54	130.00	300.0	135.0	0.0104	Open
P4825	J37_55	J37_56	130.00	250.0	125.0	0.1191	Open
P4826	J37_55	J38_55	130.00	150.0	135.0	0.0807	Open
P4827	J37_56	J37_57	130.00	250.0	135.0	0.0960	Open
P4828	J37_56	J38_56	130.00	150.0	130.0	0.0783	Open
P4829	J37_57	J37_58	130.00	450.0	125.0	0.0146	Open
P4830	J37_57	J38_57	130.00	600.0	125.0	0.0089	Open
P4831	J37_58	J37_59	130.00	200.0	125.0	0.0429	Open
P4832	J37_58	J38_58	130.00	100.0	130.0	0.1110	Open
P4833	J37_59	J37_60	130.00	300.0	125.0	0.1149	Open
P4834	J37_59	J38_59	130.00	150.0	130.0	0.0044	Open
P4835	J37_60	J37_61	130.00	200.0	130.0	0.1202	Open
P4836	J37_60	J38_60	130.00	200.0	130.0	0.1003	Open
P4837	J37_61	J37_62	130.00	250.0	135.0	0.0315	Open
P4838	J37_61	J38_61	130.00	150.0	135.0	0.0389	Open
P4839	J37_62	J37_63	130.00	250.0	140.0	0.0515	Open
P4840	J37_62	J38_62	130.00	100.0	135.0	0.0887	Open
P4841	J37_63	J37_64	130.00	300.0	140.0	0.1063	Open
P4842	J37_63	J38_63	130.00	150.0	125.0	0.0894	Open
P4843	J37_64	J37_65	130.00	150.0	140.0	0.1241	Open
P4844	J37_64	J38_64	130.00	250.0	140.0	0.1189	Open
P4845	J37_65	J37_66	130.00	600.0	120.0	0.0364	Open
P4846	J37_65	J38_65	130.00	400.0	125.0	0.0305	Open
P4847	J37_66	J38_66	130.00	300.0	135.0	0.0835	Open
P4848	J38_1	J38_2	130.00	350.0	130.0	0.0483	Open
P4849	J38_1	J39_1	130.00	450.0	120.0	0.0372	Open
P4850	J38_2	J38_3	130.00	200.0	140.0	0.0996	Open
P4851	J38_2	J39_2	130.00	100.0	135.0	0.1104	Open
P4852	J38_3	J38_4	130.00	150.0	125.0	0.0458	Open
P4853	J38_3	J39_3	130.00	200.0	140.0	0.1034	Open
P4854	J38_4	J38_5	130.00	250.0	140.0	0.0666	Open
P4855	J38_4	J39_4	130.00	100.0	125.0	0.1141	Open
P4856	J38_5	J38_6	130.00	150.0	140.0	0.0571	Open
P4857	J38_5	J39_5	130.00	200.0	135.0	0.0142	Open
P4858	J38_6	J38_7	130.00	150.0	130.0	0.0291	Open
P4859	J38_6	J39_6	130.00	300.0	130.0	0.1221	Open
P4860	J38_7	J38_8	130.00	250.0	130.0	0.0954	Open
P4861	J38_7	J39_7	130.00	150.0	125.0	0.1100	Open
P4862	J38_8	J38_9	130.00	250.0	140.0	0.0800	Open
P4863	J38_8	J39_8	130.00	150.0	135.0	0.1353	Open
P4864	J38_9	J38_10	130.00	600.0	130.0	0.0117	Open
P4865	J38_9	J39_9	130.00	600.0	125.0	0.0251	Open
P4866	J38_10	J38_11	130.00	150.0	130.0	0.1103	Open
P4867	J38_10	J39_10	130.00	200.0	125.0	0.1317	Open
P4868	J38_11	J38_12	130.00	250.0	125.0	0.1477	Open
P4869	J38_11	J39_11	130.00	200.0	130.0	0.0798	Open
P4870	J38_12	J38_13	130.00	250.0	140.0	0.1394	Open
P4871	J38_12	J39_12	130.00	300.0	125.0	0.0839	Open
P4872	J38_13	J38_14	130.00	100.0	125.0	0.0458	Open
P4873	J38_13	J39_13	130.00	200.0	140.0	0.0837	Open
P4874	J38_14	J38_15	130.00	250.0	125.0	0.0878	Open
P4875	J38_14	J39_14	130.00	150.0	130.0	0.0487	Open
P4876	J38_15	J38_16	130.00	150.0	140.0	0.1005	Open
P4877	J38_15	J39_15	130.00	300.0	140.0	0.0713	Open
P4878	J38_16	J38_17	130.00	150.0	125.0	0.0083	Open
P4879	J38_16	J39_16	130.00	200.0	130.0	0.0351	Open
P4880	J38_17	J38_18	130.00	450.0	125.0	0.0265	Open
P4881	J38_17	J39_17	130.00	600.0	125.0	0.0089	Open
P4882	J38_18	J38_19	130.00	250.0	130.0	0.0098	Open
P4883	J38_18	J39_18	130.00	300.0	140.0	0.1052	Open
P4884	J38_19	J38_20	130.00	300.0	125.0	0.0408	Open
P4885	J38_19	J39_19	130.00	250.0	125.0	0.0560	Open
P4886	J38_20	J38_21	130.00	250.0	125.0	0.0687	Open
P4887	J38_20	J39_20	130.00	250.0	130.0	0.1217	Open
P4888	J38_21	J38_22	130.00	150.0	140.0	0.0467	Open
P4889	J38_21	J39_21	130.00	150.0	135.0	0.0788	Open
P4890	J38_22	J38_23	130.00	150.0	125.0	0.0560	Open
P4891	J38_22	J39_22	130.00	150.0	135.0	0.0635	Open
P4892	J38_23	J38_24	130.00	300.0	130.0	0.0274	Open
P4893	J38_23	J39_23	130.00	150.0	140.0	0.0660	Open
P4894	J38_24	J38_25	130.00	150.0	135.0	0.0979	Open
P4895	J38_24	J39_24	130.00	200.0	140.0	0.0417	Open
P4896	J38_25	J38_26	130.00	450.0	120.0	0.0278	Open
P4897	J38_25	J39_25	130.00	600.0	130.0	0.0194	Open
P4898	J38_26	J38_27	130.00	150.0	135.0	0.0068	Open
P4899	J38_26	J39_26	130.00	200.0	125.0	0.1142	Open
P4900	J38_27	J38_28	130.00	250.0	135.0	0.0249	Open
P4901	J38_27	J39_27	130.00	300.0	135.0	0.0210	Open
P4902	J38_28	J38_29	130.00	100.0	135.0	0.0354	Open
P4903	J38_28	J39_28	130.00	250.0	140.0	0.0272	Open
P4904	J38_29	J38_30	130.00	150.0	135.0	0.0351	Open
P4905	J38_29	J39_29	130.00	150.0	130.0	0.1297	Open
P4906	J38_30	J38_31	130.00	150.0	135.0	0.1202	Open
P4907	J38_30	J39_30	130.00	150.0	140.0	0.1384	Open
P4908	J38_31	J38_32	130.00	100.0	140.0	0.1088	Open
P4909	J38_31	J39_31	130.00	150.0	125.0	0.1052	Open
P4910	J38_32	J38_33	130.00	100.0	140.0	0.1378	Open
P4911	J38_32	J39_32	130.00	150.0	135.0	0.0461	Open
P4912	J38_33	J38_34	130.00	350.0	130.0	0.0113	Open
P4913	J38_33	J39_33	130.00	500.0	120.0	0.0230	Open
P4914	J38_34	J38_35	130.00	300.0	135.0	0.0599	Open
P4915	J38_34	J39_34	130.00	200.0	130.0	0.0216	Open
P4916	J38_35	J38_36	130.00	150.0	130.0	0.0459	Open
P4917	J38_35	J39_35	130.00	200.0	125.0	0.1364	Open
P4918	J38_36	J38_37	130.00	150.0	130.0	0.0666	Open
P4919	J38_36	J39_36	130.00	250.0	130.0	0.1367	Open
P4920	J38_37	J38_38	130.00	300.0	125.0	0.1321	Open
P4921	J38_37	J39_37	130.00	250.0	130.0	0.0938	Open
P4922	J38_38	J38_39	130.00	250.0	130.0	0.1333	Open
P4923	J38_38	J39_38	130.00	150.0	140.0	0.0970	Open
P4924	J38_39	J38_40	130.00	200.0	140.0	0.0554	Open
P4925	J38_39	J39_39	130.00	300.0	135.0	0.0015	Open
P4926	J38_40	J38_41	130.00	200.0	135.0	0.1416	Open
P4927	J38_40	J39_40	130.00	250.0	130.0	0.0088	Open
P4928	J38_41	J38_42	130.00	300.0	120.0	0.0100	Open
P4929	J38_41	J39_41	130.00	350.0	120.0	0.0485	Open
P4930	J38_42	J38_43	130.00	250.0	130.0	0.0081	Open
P4931	J38_42	J39_42	130.00	300.0	130.0	0.0356	Open
P4932	J38_43	J38_44	130.00	100.0	135.0	0.0059	Open
P4933	J38_43	J39_43	130.00	300.0	125.0	0.1057	Open
P4934	J38_44	J38_45	130.00	150.0	130.0	0.0968	Open
P4935	J38_44	J39_44	130.00	250.0	140.0	0.1178	Open
P4936	J38_45	J38_46	130.00	150.0	135.0	0.0885	Open
P4937	J38_45	J39_45	130.00	100.0	140.0	0.0087	Open
P4938	J38_46	J38_47	130.00	200.0	125.0	0.0682	Open
P4939	J38_46	J39_46	130.00	150.0	140.0	0.1167	Open
P4940	J38_47	J38_48	130.00	100.0	125.0	0.1309	Open
P4941	J38_47	J39_47	130.00	150.0	125.0	0.1445	Open
P4942	J38_48	J38_49	130.00	250.0	125.0	0.1349	Open
P4943	J38_48	J39_48	130.00	100.0	140.0	0.0719	Open
P4944	J38_49	J38_50	130.00	600.0	120.0	0.0446	Open
P4945	J38_49	J39_49	130.00	350.0	125.0	0.0006	Open
P4946	J38_50	J38_51	130.00	100.0	130.0	0.1420	Open
P4947	J38_50	J39_50	130.00	150.0	135.0	0.1367	Open
P4948	J38_51	J38_52	130.00	300.0	125.0	0.0787	Open
P4949	J38_51	J39_51	130.00	300.0	135.0	0.1041	Open
P4950	J38_52	J38_53	130.00	250.0	135.0	0.0376	Open
P4951	J38_52	J39_52	130.00	100.0	125.0	0.1010	Open
P4952	J38_53	J38_54	130.00	150.0	130.0	0.0409	Open
P4953	J38_53	J39_53	130.00	300.0	135.0	0.0478	Open
P4954	J38_54	J38_55	130.00	100.0	140.0	0.1126	Open
P4955	J38_54	J39_54	130.00	300.0	135.0	0.0666	Open
P4956	J38_55	J38_56	130.00	300.0	130.0	0.1467	Open
P4957	J38_55	J39_55	130.00	100.0	125.0	0.0409	Open
P4958	J38_56	J38_57	130.00	250.0	140.0	0.1104	Open
P4959	J38_56	J39_56	130.00	300.0	125.0	0.0967	Open
P4960	J38_57	J38_58	130.00	450.0	120.0	0.0113	Open
P4961	J38_57	J39_57	130.00	400.0	130.0	0.0460	Open
P4962	J38_58	J38_59	130.00	300.0	140.0	0.0261	Open
P4963	J38_58	J39_58	130.00	200.0	140.0	0.0449	Open
P4964	J38_59	J38_60	130.00	250.0	135.0	0.0711	Open
P4965	J38_59	J39_59	130.00	100.0	125.0	0.0773	Open
P4966	J38_60	J38_61	130.00	250.0	140.0	0.1122	Open
P4967	J38_60	J39_60	130.00	300.0	125.0	0.0725	Open
P4968	J38_61	J38_62	130.00	150.0	135.0	0.1439	Open
P4969	J38_61	J39_61	130.00	250.0	135.0	0.0998	Open
P4970	J38_62	J38_63	130.00	200.0	130.0	0.0103	Open
P4971	J38_62	J39_62	130.00	300.0	130.0	0.1413	Open
P4972	J38_63	J38_64	130.00	250.0	135.0	0.1247	Open
P4973	J38_63	J39_63	130.00	200.0	130.0	0.0318	Open
P4974	J38_64	J38_65	130.00	100.0	125.0	0.0624	Open
P4975	J38_64	J39_64	130.00	200.0	130.0	0.0937	Open
P4976	J38_65	J38_66	130.00	450.0	125.0	0.0405	Open
P4977	J38_65	J39_65	130.00	600.0	125.0	0.0388	Open
P4978	J38_66	J39_66	130.00	100.0	125.0	0.0890	Open
P4979	J39_1	J39_2	130.00	450.0	125.0	0.0307	Open
P4980	J39_1	J40_1	130.00	600.0	120.0	0.0270	Open
P4981	J39_2	J39_3	130.00	200.0	125.0	0.0107	Open
P4982	J39_2	J40_2	130.00	250.0	130.0	0.0050	Open
P4983	J39_3	J39_4	130.00	300.0	135.0	0.0066	Open
P4984	J39_3	J40_3	130.00	300.0	135.0	0.0859	Open
P4985	J39_4	J39_5	130.00	300.0	135.0	0.1484	Open
P4986	J39_4	J40_4	130.00	300.0	130.0	0.0576	Open
P4987	J39_5	J39_6	130.00	250.0	135.0	0.0956	Open
P4988	J39_5	J40_5	130.00	300.0	140.0	0.0137	Open
P4989	J39_6	J39_7	130.00	100.0	140.0	0.1395	Open
P4990	J39_6	J40_6	130.00	250.0	140.0	0.1348	Open
P4991	J39_7	J39_8	130.00	250.0	140.0	0.0671	Open
P4992	J39_7	J40_7	130.00	150.0	140.0	0.1356	Open
P4993	J39_8	J39_9	130.00	100.0	130.0	0.0040	Open
P4994	J39_8	J40_8	130.00	250.0	130.0	0.0569	Open
P4995	J39_9	J39_10	130.00	500.0	130.0	0.0167	Open
P4996	J39_9	J40_9	130.00	350.0	120.0	0.0002	Open
P4997	J39_10	J39_11	130.00	250.0	135.0	0.1500	Open
P4998	J39_10	J40_10	130.00	200.0	140.0	0.0123	Open
P4999	J39_11	J39_12	130.00	250.0	135.0	0.1208	Open
P5000	J39_11	J40_11	130.00	250.0	140.0	0.1387	Open
P5001	J39_12	J39_13	130.00	300.0	140.0	0.1367	Open
P5002	J39_12	J40_12	130.00	250.0	130.0	0.0996	Open
P5003	J39_13	J39_14	130.00	300.0	125.0	0.0687	Open
P5004	J39_13	J40_13	130.00	300.0	140.0	0.0946	Open
P5005	J39_14	J39_15	130.00	300.0	135.0	0.1434	Open
P5006	J39_14	J40_14	130.00	300.0	130.0	0.0878	Open
P5007	J39_15	J39_16	130.00	100.0	125.0	0.0861	Open
P5008	J39_15	J40_15	130.00	150.0	135.0	0.1099	Open
P5009	J39_16	J39_17	130.00	250.0	130.0	0.0696	Open
P5010	J39_16	J40_16	130.00	300.0	135.0	0.0418	Open
P5011	J39_17	J39_18	130.00	350.0	130.0	0.0075	Open
P5012	J39_17	J40_17	130.00	300.0	120.0	0.0494	Open
P5013	J39_18	J39_19	130.00	150.0	140.0	0.1318	Open
P5014	J39_18	J40_18	130.00	200.0	125.0	0.1089	Open
P5015	J39_19	J39_20	130.00	300.0	125.0	0.1130	Open
P5016	J39_19	J40_19	130.00	300.0	135.0	0.1095	Open
P5017	J39_20	J39_21	130.00	250.0	135.0	0.0207	Open
P5018	J39_20	J40_20	130.00	300.0	140.0	0.1057	Open
P5019	J39_21	J39_22	130.00	300.0	130.0	0.1294	Open
P5020	J39_21	J40_21	130.00	100.0	135.0	0.0897	Open
P5021	J39_22	J39_23	130.00	250.0	140.0	0.1368	Open
P5022	J39_22	J40_22	130.00	100.0	130.0	0.1230	Open
P5023	J39_23	J39_24	130.00	150.0	135.0	0.0492	Open
P5024	J39_23	J40_23	130.00	250.0	130.0	0.1088	Open
P5025	J39_24	J39_25	130.00	200.0	125.0	0.1072	Open
P5026	J39_24	J40_24	130.00	150.0	135.0	0.0620	Open
P5027	J39_25	J39_26	130.00	350.0	125.0	0.0251	Open
P5028	J39_25	J40_25	130.00	400.0	125.0	0.0012	Open
P5029	J39_26	J39_27	130.00	200.0	130.0	0.0240	Open
P5030	J39_26	J40_26	130.00	100.0	125.0	0.1261	Open
P5031	J39_27	J39_28	130.00	200.0	135.0	0.0337	Open
P5032	J39_27	J40_27	130.00	100.0	140.0	0.0887	Open
P5033	J39_28	J39_29	130.00	300.0	130.0	0.0563	Open
P5034	J39_28	J40_28	130.00	300.0	140.0	0.1159	Open
P5035	J39_29	J39_30	130.00	200.0	140.0	0.0536	Open
P5036	J39_29	J40_29	130.00	300.0	135.0	0.0056	Open
P5037	J39_30	J39_31	130.00	150.0	140.0	0.0332	Open
P5038	J39_30	J40_30	130.00	200.0	125.0	0.1159	Open
P5039	J39_31	J39_32	130.00	300.0	125.0	0.1018	Open
P5040	J39_31	J40_31	130.00	250.0	130.0	0.0060	Open
P5041	J39_32	J39_33	130.00	250.0	125.0	0.0967	Open
P5042	J39_32	J40_32	130.00	200.0	125.0	0.1250	Open
P5043	J39_33	J39_34	130.00	350.0	120.0	0.0042	Open
P5044	J39_33	J40_33	130.00	300.0	125.0	0.0199	Open
P5045	J39_34	J39_35	130.00	250.0	135.0	0.1316	Open
P5046	J39_34	J40_34	130.00	300.0	140.0	0.1046	Open
P5047	J39_35	J39_36	130.00	300.0	135.0	0.0487	Open
P5048	J39_35	J40_35	130.00	250.0	130.0	0.0398	Open
P5049	J39_36	J39_37	130.00	250.0	140.0	0.0701	Open
P5050	J39_36	J40_36	130.00	250.0	135.0	0.0700	Open
P5051	J39_37	J39_38	130.00	200.0	140.0	0.0538	Open
P5052	J39_37	J40_37	130.00	200.0	135.0	0.1397	Open
P5053	J39_38	J39_39	130.00	150.0	140.0	0.1247	Open
P5054	J39_38	J40_38	130.00	250.0	135.0	0.0485	Open
P5055	J39_39	J39_40	130.00	250.0	135.0	0.0412	Open
P5056	J39_39	J40_39	130.00	250.0	140.0	0.0209	Open
P5057	J39_40	J39_41	130.00	300.0	140.0	0.1184	Open
P5058	J39_40	J40_40	130.00	250.0	130.0	0.0593	Open
P5059	J39_41	J39_42	130.00	300.0	130.0	0.0490	Open
P5060	J39_41	J40_41	130.00	450.0	130.0	0.0043	Open
P5061	J39_42	J39_43	130.00	300.0	125.0	0.0456	Open
P5062	J39_42	J40_42	130.00	250.0	130.0	0.1111	Open
P5063	J39_43	J39_44	130.00	250.0	140.0	0.0089	Open
P5064	J39_43	J40_43	130.00	150.0	135.0	0.0418	Open
P5065	J39_44	J39_45	130.00	250.0	130.0	0.1361	Open
P5066	J39_44	J40_44	130.00	200.0	125.0	0.0872	Open
P5067	J39_45	J39_46	130.00	150.0	135.0	0.0076	Open
P5068	J39_45	J40_45	130.00	200.0	140.0	0.0651	Open
P5069	J39_46	J39_47	130.00	200.0	130.0	0.0765	Open
P5070	J39_46	J40_46	130.00	100.0	125.0	0.0145	Open
P5071	J39_47	J39_48	130.00	200.0	135.0	0.0089	Open
P5072	J39_47	J40_47	130.00	300.0	135.0	0.1433	Open
P5073	J39_48	J39_49	130.00	200.0	130.0	0.1028	Open
P5074	J39_48	J40_48	130.00	300.0	125.0	0.0549	Open
P5075	J39_49	J39_50	130.00	600.0	125.0	0.0159	Open
P5076	J39_49	J40_49	130.00	600.0	120.0	0.0230	Open
P5077	J39_50	J39_51	130.00	200.0	135.0	0.0785	Open
P5078	J39_50	J40_50	130.00	250.0	135.0	0.0083	Open
P5079	J39_51	J39_52	130.00	300.0	140.0	0.0899	Open
P5080	J39_51	J40_51	130.00	250.0	140.0	0.0459	Open
P5081	J39_52	J39_53	130.00	200.0	125.0	0.0955	Open
P5082	J39_52	J40_52	130.00	250.0	125.0	0.0614	Open
P5083	J39_53	J39_54	130.00	150.0	130.0	0.0379	Open
P5084	J39_53	J40_53	130.00	150.0	125.0	0.0147	Open
P5085	J39_54	J39_55	130.00	150.0	125.0	0.0669	Open
P5086	J39_54	J40_54	130.00	250.0	140.0	0.1367	Open
P5087	J39_55	J39_56	130.00	100.0	125.0	0.0321	Open
P5088	J39_55	J40_55	130.00	200.0	130.0	0.0905	Open
P5089	J39_56	J39_57	130.00	250.0	135.0	0.1366	Open
P5090	J39_56	J40_56	130.00	100.0	130.0	0.1360	Open
P5091	J39_57	J39_58	130.00	500.0	130.0	0.0479	Open
P5092	J39_57	J40_57	130.00	450.0	125.0	0.0420	Open
P5093	J39_58	J39_59	130.00	250.0	140.0	0.1320	Open
P5094	J39_58	J40_58	130.00	100.0	135.0	0.1425	Open
P5095	J39_59	J39_60	130.00	100.0	135.0	0.1049	Open
P5096	J39_59	J40_59	130.00	100.0	130.0	0.1270	Open
P5097	J39_60	J39_61	130.00	150.0	130.0	0.0803	Open
P5098	J39_60	J40_60	130.00	300.0	130.0	0.0567	Open
P5099	J39_61	J39_62	130.00	250.0	130.0	0.0985	Open
P5100	J39_61	J40_61	130.00	100.0	140.0	0.0766	Open
P5101	J39_62	J39_63	130.00	100.0	135.0	0.1395	Open
P5102	J39_62	J40_62	130.00	200.0	125.0	0.0900	Open
P5103	J39_63	J39_64	130.00	250.0	130.0	0.0733	Open
P5104	J39_63	J40_63	130.00	100.0	140.0	0.0123	Open
P5105	J39_64	J39_65	130.00	150.0	135.0	0.0535	Open
P5106	J39_64	J40_64	130.00	200.0	135.0	0.1407	Open
P5107	J39_65	J39_66	130.00	500.0	125.0	0.0406	Open
P5108	J39_65	J40_65	130.00	300.0	120.0	0.0500	Open
P5109	J39_66	J40_66	130.00	150.0	125.0	0.0784	Open
P5110	J40_1	J40_2	130.00	500.0	130.0	0.0413	Open
P5111	J40_1	J41_1	130.00	300.0	120.0	0.0461	Open
P5112	J40_2	J40_3	130.00	100.0	125.0	0.0539	Open
P5113	J40_2	J41_2	130.00	250.0	130.0	0.0455	Open
P5114	J40_3	J40_4	130.00	300.0	130.0	0.1240	Open
P5115	J40_3	J41_3	130.00	200.0	130.0	0.0817	Open
P5116	J40_4	J40_5	130.00	150.0	140.0	0.1078	Open
P5117	J40_4	J41_4	130.00	150.0	135.0	0.0955	Open
P5118	J40_5	J40_6	130.00	100.0	130.0	0.1041	Open
P5119	J40_5	J41_5	130.00	200.0	130.0	0.0385	Open
P5120	J40_6	J40_7	130.00	200.0	140.0	0.0168	Open
P5121	J40_6	J41_6	130.00	250.0	135.0	0.0044	Open
P5122	J40_7	J40_8	130.00	100.0	130.0	0.0135	Open
P5123	J40_7	J41_7	130.00	250.0	125.0	0.1270	Open
P5124	J40_8	J40_9	130.00	250.0	140.0	0.1208	Open
P5125	J40_8	J41_8	130.00	250.0	135.0	0.0330	Open
P5126	J40_9	J40_10	130.00	450.0	120.0	0.0079	Open
P5127	J40_9	J41_9	130.00	300.0	125.0	0.0274	Open
P5128	J40_10	J40_11	130.00	250.0	130.0	0.0948	Open
P5129	J40_10	J41_10	130.00	100.0	135.0	0.0609	Open
P5130	J40_11	J40_12	130.00	150.0	135.0	0.0133	Open
P5131	J40_11	J41_11	130.00	250.0	130.0	0.1464	Open
P5132	J40_12	J40_13	130.00	200.0	125.0	0.0525	Open
P5133	J40_12	J41_12	130.00	300.0	125.0	0.0992	Open
P5134	J40_13	J40_14	130.00	100.0	135.0	0.0055	Open
P5135	J40_13	J41_13	130.00	100.0	140.0	0.0189	Open
P5136	J40_14	J40_15	130.00	100.0	140.0	0.0892	Open
P5137	J40_14	J41_14	130.00	150.0	135.0	0.0488	Open
P5138	J40_15	J40_16	130.00	100.0	135.0	0.1114	Open
P5139	J40_15	J41_15	130.00	250.0	130.0	0.0873	Open
P5140	J40_16	J40_17	130.00	100.0	135.0	0.1475	Open
P5141	J40_16	J41_16	130.00	300.0	140.0	0.0965	Open
P5142	J40_17	J40_18	130.00	450.0	125.0	0.0253	Open
P5143	J40_17	J41_17	130.00	600.0	130.0	0.0168	Open
P5144	J40_18	J40_19	130.00	300.0	125.0	0.0359	Open
P5145	J40_18	J41_18	130.00	100.0	140.0	0.0269	Open
P5146	J40_19	J40_20	130.00	300.0	140.0	0.0209	Open
P5147	J40_19	J41_19	130.00	100.0	125.0	0.1199	Open
P5148	J40_20	J40_21	130.00	100.0	135.0	0.0897	Open
P5149	J40_20	J41_20	130.00	200.0	130.0	0.0776	Open
P5150	J40_21	J40_22	130.00	200.0	130.0	0.0638	Open
P5151	J40_21	J41_21	130.00	250.0	135.0	0.0522	Open
P5152	J40_22	J40_23	130.00	100.0	125.0	0.0353	Open
P5153	J40_22	J41_22	130.00	300.0	135.0	0.0967	Open
P5154	J40_23	J40_24	130.00	250.0	135.0	0.0007	Open
P5155	J40_23	J41_23	130.00	100.0	125.0	0.0275	Open
P5156	J40_24	J40_25	130.00	200.0	140.0	0.0549	Open
P5157	J40_24	J41_24	130.00	100.0	130.0	0.1173	Open
P5158	J40_25	J40_26	130.00	500.0	125.0	0.0110	Open
P5159	J40_25	J41_25	130.00	400.0	130.0	0.0310	Open
P5160	J40_26	J40_27	130.00	250.0	125.0	0.0377	Open
P5161	J40_26	J41_26	130.00	300.0	135.0	0.1449	Open
P5162	J40_27	J40_28	130.00	150.0	135.0	0.0468	Open
P5163	J40_27	J41_27	130.00	300.0	135.0	0.1363	Open
P5164	J40_28	J40_29	130.00	250.0	140.0	0.1176	Open
P5165	J40_28	J41_28	130.00	100.0	125.0	0.0777	Open
P5166	J40_29	J40_30	130.00	150.0	130.0	0.0483	Open
P5167	J40_29	J41_29	130.00	300.0	140.0	0.0093	Open
P5168	J40_30	J40_31	130.00	200.0	130.0	0.0037	Open
P5169	J40_30	J41_30	130.00	250.0	135.0	0.0382	Open
P5170	J40_31	J40_32	130.00	200.0	130.0	0.0550	Open
P5171	J40_31	J41_31	130.00	250.0	135.0	0.0627	Open
P5172	J40_32	J40_33	130.00	250.0	140.0	0.1100	Open
P5173	J40_32	J41_32	130.00	150.0	135.0	0.0180	Open
P5174	J40_33	J40_34	130.00	600.0	130.0	0.0440	Open
P5175	J40_33	J41_33	130.00	350.0	120.0	0.0089	Open
P5176	J40_34	J40_35	130.00	100.0	125.0	0.0616	Open
P5177	J40_34	J41_34	130.00	100.0	140.0	0.1023	Open
P5178	J40_35	J40_36	130.00	150.0	135.0	0.1146	Open
P5179	J40_35	J41_35	130.00	150.0	125.0	0.0370	Open
P5180	J40_36	J40_37	130.00	200.0	125.0	0.1189	Open
P5181	J40_36	J41_36	130.00	300.0	130.0	0.0766	Open
P5182	J40_37	J40_38	130.00	150.0	125.0	0.0899	Open
P5183	J40_37	J41_37	130.00	150.0	135.0	0.0554	Open
P5184	J40_38	J40_39	130.00	300.0	130.0	0.1345	Open
P5185	J40_38	J41_38	130.00	250.0	140.0	0.0198	Open
P5186	J40_39	J40_40	130.00	100.0	125.0	0.0367	Open
P5187	J40_39	J41_39	130.00	300.0	135.0	0.0811	Open
P5188	J40_40	J40_41	130.00	200.0	125.0	0.1360	Open
P5189	J40_40	J41_40	130.00	200.0	135.0	0.0343	Open
P5190	J40_41	J40_42	130.00	500.0	130.0	0.0049	Open
P5191	J40_41	J41_41	130.00	350.0	130.0	0.0281	Open
P5192	J40_42	J40_43	130.00	250.0	140.0	0.0159	Open
P5193	J40_42	J41_42	130.00	150.0	130.0	0.1150	Open
P5194	J40_43	J40_44	130.00	200.0	130.0	0.0074	Open
P5195	J40_43	J41_43	130.00	150.0	135.0	0.0465	Open
P5196	J40_44	J40_45	130.00	300.0	130.0	0.0244	Open
P5197	J40_44	J41_44	130.00	300.0	140.0	0.0919	Open
P5198	J40_45	J40_46	130.00	200.0	125.0	0.0948	Open
P5199	J40_45	J41_45	130.00	100.0	125.0	0.0520	Open
P5200	J40_46	J40_47	130.00	100.0	140.0	0.1017	Open
P5201	J40_46	J41_46	130.00	300.0	135.0	0.0600	Open
P5202	J40_47	J40_48	130.00	100.0	125.0	0.0048	Open
P5203	J40_47	J41_47	130.00	300.0	135.0	0.1112	Open
P5204	J40_48	J40_49	130.00	300.0	125.0	0.0340	Open
P5205	J40_48	J41_48	130.00	300.0	130.0	0.0758	Open
P5206	J40_49	J40_50	130.00	400.0	130.0	0.0112	Open
P5207	J40_49	J41_49	130.00	450.0	120.0	0.0466	Open
P5208	J40_50	J40_51	130.00	250.0	130.0	0.0249	Open
P5209	J40_50	J41_50	130.00	300.0	135.0	0.1183	Open
P5210	J40_51	J40_52	130.00	150.0	125.0	0.0820	Open
P5211	J40_51	J41_51	130.00	150.0	135.0	0.0637	Open
P5212	J40_52	J40_53	130.00	300.0	125.0	0.1430	Open
P5213	J40_52	J41_52	130.00	200.0	140.0	0.1326	Open
P5214	J40_53	J40_54	130.00	250.0	140.0	0.1079	Open
P5215	J40_53	J41_53	130.00	200.0	140.0	0.0432	Open
P5216	J40_54	J40_55	130.00	300.0	140.0	0.1019	Open
P5217	J40_54	J41_54	130.00	150.0	140.0	0.1272	Open
P5218	J40_55	J40_56	130.00	100.0	135.0	0.0405	Open
P5219	J40_55	J41_55	130.00	100.0	130.0	0.0476	Open
P5220	J40_56	J40_57	130.00	200.0	130.0	0.0035	Open
P5221	J40_56	J41_56	130.00	300.0	125.0	0.0887	Open
P5222	J40_57	J40_58	130.00	600.0	130.0	0.0043	Open
P5223	J40_57	J41_57	130.00	450.0	125.0	0.0349	Open
P5224	J40_58	J40_59	130.00	200.0	140.0	0.1416	Open
P5225	J40_58	J41_58	130.00	250.0	135.0	0.0132	Open
P5226	J40_59	J40_60	130.00	200.0	125.0	0.1030	Open
P5227	J40_59	J41_59	130.00	200.0	140.0	0.0089	Open
P5228	J40_60	J40_61	130.00	250.0	135.0	0.0551	Open
P5229	J40_60	J41_60	130.00	100.0	135.0	0.1053	Open
P5230	J40_61	J40_62	130.00	100.0	140.0	0.1348	Open
P5231	J40_61	J41_61	130.00	150.0	125.0	0.1196	Open
P5232	J40_62	J40_63	130.00	250.0	135.0	0.1008	Open
P5233	J40_62	J41_62	130.00	300.0	135.0	0.0707	Open
P5234	J40_63	J40_64	130.00	250.0	140.0	0.1397	Open
P5235	J40_63	J41_63	130.00	250.0	130.0	0.0385	Open
P5236	J40_64	J40_65	130.00	100.0	140.0	0.0859	Open
P5237	J40_64	J41_64	130.00	200.0	140.0	0.0515	Open
P5238	J40_65	J40_66	130.00	500.0	125.0	0.0230	Open
P5239	J40_65	J41_65	130.00	350.0	130.0	0.0155	Open
P5240	J40_66	J41_66	130.00	100.0	140.0	0.1297	Open
P5241	J41_1	J41_2	130.00	400.0	125.0	0.0137	Open
P5242	J41_1	J42_1	130.00	300.0	130.0	0.0443	Open
P5243	J41_2	J41_3	130.00	350.0	125.0	0.0007	Open
P5244	J41_2	J42_2	130.00	350.0	125.0	0.0457	Open
P5245	J41_3	J41_4	130.00	450.0	120.0	0.0204	Open
P5246	J41_3	J42_3	130.00	600.0	120.0	0.0061	Open
P5247	J41_4	J41_5	130.00	450.0	125.0	0.0450	Open
P5248	J41_4	J42_4	130.00	500.0	130.0	0.0103	Open
P5249	J41_5	J41_6	130.00	600.0	125.0	0.0489	Open
P5250	J41_5	J42_5	130.00	400.0	125.0	0.0248	Open
P5251	J41_6	J41_7	130.00	500.0	120.0	0.0499	Open
P5252	J41_6	J42_6	130.00	600.0	130.0	0.0374	Open
P5253	J41_7	J41_8	130.00	350.0	130.0	0.0446	Open
P5254	J41_7	J42_7	130.00	500.0	120.0	0.0499	Open
P5255	J41_8	J41_9	130.00	350.0	125.0	0.0252	Open
P5256	J41_8	J42_8	130.00	350.0	130.0	0.0067	Open
P5257	J41_9	J41_10	130.00	400.0	120.0	0.0116	Open
P5258	J41_9	J42_9	130.00	350.0	125.0	0.0475	Open
P5259	J41_10	J41_11	130.00	300.0	130.0	0.0450	Open
P5260	J41_10	J42_10	130.00	450.0	130.0	0.0255	Open
P5261	J41_11	J41_12	130.00	350.0	125.0	0.0437	Open
P5262	J41_11	J42_11	130.00	500.0	130.0	0.0480	Open
P5263	J41_12	J41_13	130.00	600.0	125.0	0.0133	Open
P5264	J41_12	J42_12	130.00	350.0	120.0	0.0435	Open
P5265	J41_13	J41_14	130.00	500.0	125.0	0.0159	Open
P5266	J41_13	J42_13	130.00	400.0	130.0	0.0233	Open
P5267	J41_14	J41_15	130.00	300.0	130.0	0.0323	Open
P5268	J41_14	J42_14	130.00	500.0	120.0	0.0467	Open
P5269	J41_15	J41_16	130.00	350.0	125.0	0.0256	Open
P5270	J41_15	J42_15	130.00	600.0	125.0	0.0041	Open
P5271	J41_16	J41_17	130.00	350.0	130.0	0.0297	Open
P5272	J41_16	J42_16	130.00	450.0	120.0	0.0257	Open
P5273	J41_17	J41_18	130.00	350.0	130.0	0.0273	Open
P5274	J41_17	J42_17	130.00	350.0	125.0	0.0311	Open
P5275	J41_18	J41_19	130.00	500.0	120.0	0.0342	Open
P5276	J41_18	J42_18	130.00	600.0	120.0	0.0109	Open
P5277	J41_19	J41_20	130.00	600.0	120.0	0.0033	Open
P5278	J41_19	J42_19	130.00	450.0	125.0	0.0074	Open
P5279	J41_20	J41_21	130.00	400.0	125.0	0.0064	Open
P5280	J41_20	J42_20	130.00	300.0	125.0	0.0319	Open
P5281	J41_21	J41_22	130.00	400.0	125.0	0.0165	Open
P5282	J41_21	J42_21	130.00	300.0	125.0	0.0069	Open
P5283	J41_22	J41_23	130.00	450.0	130.0	0.0112	Open
P5284	J41_22	J42_22	130.00	450.0	125.0	0.0317	Open
P5285	J41_23	J41_24	130.00	600.0	130.0	0.0077	Open
P5286	J41_23	J42_23	130.00	300.0	120.0	0.0324	Open
P5287	J41_24	J41_25	130.00	300.0	120.0	0.0056	Open
P5288	J41_24	J42_24	130.00	300.0	125.0	0.0424	Open
P5289	J41_25	J41_26	130.00	300.0	120.0	0.0074	Open
P5290	J41_25	J42_25	130.00	300.0	130.0	0.0499	Open
P5291	J41_26	J41_27	130.00	450.0	130.0	0.0471	Open
P5292	J41_26	J42_26	130.00	350.0	125.0	0.0279	Open
P5293	J41_27	J41_28	130.00	500.0	125.0	0.0017	Open
P5294	J41_27	J42_27	130.00	300.0	125.0	0.0346	Open
P5295	J41_28	J41_29	130.00	400.0	130.0	0.0468	Open
P5296	J41_28	J42_28	130.00	500.0	130.0	0.0108	Open
P5297	J41_29	J41_30	130.00	350.0	120.0	0.0091	Open
P5298	J41_29	J42_29	130.00	450.0	120.0	0.0029	Open
P5299	J41_30	J41_31	130.00	600.0	125.0	0.0207	Open
P5300	J41_30	J42_30	130.00	500.0	130.0	0.0420	Open
P5301	J41_31	J41_32	130.00	400.0	120.0	0.0450	Open
P5302	J41_31	J42_31	130.00	500.0	130.0	0.0296	Open
P5303	J41_32	J41_33	130.00	500.0	120.0	0.0302	Open
P5304	J41_32	J42_32	130.00	350.0	130.0	0.0193	Open
P5305	J41_33	J41_34	130.00	450.0	120.0	0.0018	Open
P5306	J41_33	J42_33	130.00	300.0	130.0	0.0214	Open
P5307	J41_34	J41_35	130.00	350.0	130.0	0.0394	Open
P5308	J41_34	J42_34	130.00	450.0	125.0	0.0194	Open
P5309	J41_35	J41_36	130.00	350.0	130.0	0.0008	Open
P5310	J41_35	J42_35	130.00	400.0	125.0	0.0002	Open
P5311	J41_36	J41_37	130.00	350.0	130.0	0.0094	Open
P5312	J41_36	J42_36	130.00	400.0	130.0	0.0069	Open
P5313	J41_37	J41_38	130.00	600.0	130.0	0.0415	Open
P5314	J41_37	J42_37	130.00	600.0	130.0	0.0218	Open
P5315	J41_38	J41_39	130.00	350.0	125.0	0.0436	Open
P5316	J41_38	J42_38	130.00	300.0	130.0	0.0229	Open
P5317	J41_39	J41_40	130.00	350.0	125.0	0.0249	Open
P5318	J41_39	J42_39	130.00	500.0	125.0	0.0474	Open
P5319	J41_40	J41_41	130.00	400.0	125.0	0.0130	Open
P5320	J41_40	J42_40	130.00	500.0	130.0	0.0054	Open
P5321	J41_41	J41_42	130.00	350.0	120.0	0.0395	Open
P5322	J41_41	J42_41	130.00	600.0	125.0	0.0373	Open
P5323	J41_42	J41_43	130.00	300.0	120.0	0.0443	Open
P5324	J41_42	J42_42	130.00	400.0	130.0	0.0036	Open
P5325	J41_43	J41_44	130.00	450.0	120.0	0.0398	Open
P5326	J41_43	J42_43	130.00	350.0	130.0	0.0372	Open
P5327	J41_44	J41_45	130.00	450.0	130.0	0.0198	Open
P5328	J41_44	J42_44	130.00	400.0	130.0	0.0313	Open
P5329	J41_45	J41_46	130.00	350.0	120.0	0.0131	Open
P5330	J41_45	J42_45	130.00	500.0	125.0	0.0323	Open
P5331	J41_46	J41_47	130.00	300.0	120.0	0.0209	Open
P5332	J41_46	J42_46	130.00	300.0	130.0	0.0045	Open
P5333	J41_47	J41_48	130.00	350.0	120.0	0.0111	Open
P5334	J41_47	J42_47	130.00	400.0	120.0	0.0083	Open
P5335	J41_48	J41_49	130.00	450.0	125.0	0.0329	Open
P5336	J41_48	J42_48	130.00	450.0	120.0	0.0109	Open
P5337	J41_49	J41_50	130.00	300.0	125.0	0.0320	Open
P5338	J41_49	J42_49	130.00	450.0	130.0	0.0188	Open
P5339	J41_50	J41_51	130.00	450.0	120.0	0.0482	Open
P5340	J41_50	J42_50	130.00	600.0	120.0	0.0164	Open
P5341	J41_51	J41_52	130.00	300.0	125.0	0.0100	Open
P5342	J41_51	J42_51	130.00	300.0	125.0	0.0032	Open
P5343	J41_52	J41_53	130.00	300.0	130.0	0.0318	Open
P5344	J41_52	J42_52	130.00	600.0	130.0	0.0196	Open
P5345	J41_53	J41_54	130.00	350.0	125.0	0.0075	Open
P5346	J41_53	J42_53	130.00	500.0	130.0	0.0388	Open
P5347	J41_54	J41_55	130.00	400.0	130.0	0.0408	Open
P5348	J41_54	J42_54	130.00	300.0	125.0	0.0135	Open
P5349	J41_55	J41_56	130.00	400.0	125.0	0.0091	Open
P5350	J41_55	J42_55	130.00	600.0	125.0	0.0191	Open
P5351	J41_56	J41_57	130.00	400.0	120.0	0.0231	Open
P5352	J41_56	J42_56	130.00	450.0	130.0	0.0248	Open
P5353	J41_57	J41_58	130.00	600.0	130.0	0.0340	Open
P5354	J41_57	J42_57	130.00	600.0	120.0	0.0384	Open
P5355	J41_58	J41_59	130.00	350.0	120.0	0.0196	Open
P5356	J41_58	J42_58	130.00	600.0	125.0	0.0282	Open
P5357	J41_59	J41_60	130.00	500.0	125.0	0.0069	Open
P5358	J41_59	J42_59	130.00	600.0	130.0	0.0467	Open
P5359	J41_60	J41_61	130.00	400.0	120.0	0.0235	Open
P5360	J41_60	J42_60	130.00	400.0	125.0	0.0251	Open
P5361	J41_61	J41_62	130.00	400.0	120.0	0.0184	Open
P5362	J41_61	J42_61	130.00	500.0	120.0	0.0243	Open
P5363	J41_62	J41_63	130.00	300.0	125.0	0.0059	Open
P5364	J41_62	J42_62	130.00	400.0	130.0	0.0085	Open
P5365	J41_63	J41_64	130.00	400.0	120.0	0.0427	Open
P5366	J41_63	J42_63	130.00	450.0	125.0	0.0074	Open
P5367	J41_64	J41_65	130.00	600.0	125.0	0.0332	Open
P5368	J41_64	J42_64	130.00	450.0	130.0	0.0101	Open
P5369	J41_65	J41_66	130.00	600.0	120.0	0.0121	Open
P5370	J41_65	J42_65	130.00	600.0	125.0	0.0464	Open
P5371	J41_66	J42_66	130.00	600.0	120.0	0.0290	Open
P5372	J42_1	J42_2	130.00	500.0	125.0	0.0207	Open
P5373	J42_1	J43_1	130.00	300.0	130.0	0.0287	Open
P5374	J42_2	J42_3	130.00	150.0	130.0	0.1424	Open
P5375	J42_2	J43_2	130.00	200.0	140.0	0.1094	Open
P5376	J42_3	J42_4	130.00	250.0	125.0	0.1005	Open
P5377	J42_3	J43_3	130.00	100.0	130.0	0.0589	Open
P5378	J42_4	J42_5	130.00	200.0	130.0	0.0981	Open
P5379	J42_4	J43_4	130.00	150.0	125.0	0.1325	Open
P5380	J42_5	J42_6	130.00	300.0	140.0	0.0778	Open
P5381	J42_5	J43_5	130.00	150.0	130.0	0.1244	Open
P5382	J42_6	J42_7	130.00	200.0	135.0	0.1482	Open
P5383	J42_6	J43_6	130.00	100.0	140.0	0.1185	Open
P5384	J42_7	J42_8	130.00	150.0	130.0	0.1172	Open
P5385	J42_7	J43_7	130.00	250.0	125.0	0.0047	Open
P5386	J42_8	J42_9	130.00	100.0	135.0	0.1296	Open
P5387	J42_8	J43_8	130.00	200.0	130.0	0.1027	Open
P5388	J42_9	J42_10	130.00	500.0	130.0	0.0067	Open
P5389	J42_9	J43_9	130.00	350.0	120.0	0.0114	Open
P5390	J42_10	J42_11	130.00	150.0	130.0	0.0724	Open
P5391	J42_10	J43_10	130.00	150.0	125.0	0.0599	Open
P5392	J42_11	J42_12	130.00	300.0	130.0	0.0852	Open
P5393	J42_11	J43_11	130.00	100.0	130.0	0.0492	Open
P5394	J42_12	J42_13	130.00	100.0	125.0	0.1232	Open
P5395	J42_12	J43_12	130.00	150.0	125.0	0.0318	Open
P5396	J42_13	J42_14	130.00	250.0	125.0	0.1041	Open
P5397	J42_13	J43_13	130.00	250.0	140.0	0.1461	Open
P5398	J42_14	J42_15	130.00	250.0	135.0	0.0118	Open
P5399	J42_14	J43_14	130.00	300.0	140.0	0.1443	Open
P5400	J42_15	J42_16	130.00	100.0	130.0	0.0022	Open
P5401	J42_15	J43_15	130.00	150.0	125.0	0.1455	Open
P5402	J42_16	J42_17	130.00	300.0	125.0	0.1042	Open
P5403	J42_16	J43_16	130.00	100.0	140.0	0.0518	Open
P5404	J42_17	J42_18	130.00	450.0	120.0	0.0251	Open
P5405	J42_17	J43_17	130.00	400.0	120.0	0.0233	Open
P5406	J42_18	J42_19	130.00	100.0	140.0	0.0817	Open
P5407	J42_18	J43_18	130.00	300.0	125.0	0.0557	Open
P5408	J42_19	J42_20	130.00	250.0	130.0	0.0477	Open
P5409	J42_19	J43_19	130.00	100.0	135.0	0.0150	Open
P5410	J42_20	J42_21	130.00	250.0	140.0	0.0562	Open
P5411	J42_20	J43_20	130.00	150.0	140.0	0.0906	Open
P5412	J42_21	J42_22	130.00	200.0	135.0	0.1022	Open
P5413	J42_21	J43_21	130.00	200.0	135.0	0.1211	Open
P5414	J42_22	J42_23	130.00	250.0	135.0	0.1072	Open
P5415	J42_22	J43_22	130.00	300.0	140.0	0.1373	Open
P5416	J42_23	J42_24	130.00	200.0	135.0	0.0023	Open
P5417	J42_23	J43_23	130.00	200.0	135.0	0.1298	Open
P5418	J42_24	J42_25	130.00	150.0	135.0	0.1288	Open
P5419	J42_24	J43_24	130.00	150.0	130.0	0.1173	Open
P5420	J42_25	J42_26	130.00	300.0	130.0	0.0004	Open
P5421	J42_25	J43_25	130.00	300.0	125.0	0.0256	Open
P5422	J42_26	J42_27	130.00	150.0	130.0	0.0361	Open
P5423	J42_26	J43_26	130.00	300.0	135.0	0.1177	Open
P5424	J42_27	J42_28	130.00	300.0	130.0	0.1458	Open
P5425	J42_27	J43_27	130.00	300.0	140.0	0.0201	Open
P5426	J42_28	J42_29	130.00	150.0	130.0	0.0208	Open
P5427	J42_28	J43_28	130.00	250.0	140.0	0.0108	Open
P5428	J42_29	J42_30	130.00	250.0	135.0	0.1028	Open
P5429	J42_29	J43_29	130.00	100.0	140.0	0.0750	Open
P5430	J42_30	J42_31	130.00	100.0	125.0	0.1347	Open
P5431	J42_30	J43_30	130.00	300.0	140.0	0.0544	Open
P5432	J42_31	J42_32	130.00	200.0	130.0	0.1251	Open
P5433	J42_31	J43_31	130.00	150.0	140.0	0.0012	Open
P5434	J42_32	J42_33	130.00	200.0	125.0	0.0346	Open
P5435	J42_32	J43_32	130.00	250.0	125.0	0.0249	Open
P5436	J42_33	J42_34	130.00	450.0	130.0	0.0282	Open
P5437	J42_33	J43_33	130.00	500.0	120.0	0.0498	Open
P5438	J42_34	J42_35	130.00	100.0	130.0	0.0050	Open
P5439	J42_34	J43_34	130.00	100.0	130.0	0.0145	Open
P5440	J42_35	J42_36	130.00	150.0	140.0	0.1112	Open
P5441	J42_35	J43_35	130.00	200.0	125.0	0.0586	Open
P5442	J42_36	J42_37	130.00	200.0	140.0	0.0182	Open
P5443	J42_36	J43_36	130.00	100.0	130.0	0.0833	Open
P5444	J42_37	J42_38	130.00	150.0	140.0	0.1152	Open
P5445	J42_37	J43_37	130.00	250.0	140.0	0.1455	Open
P5446	J42_38	J42_39	130.00	200.0	130.0	0.0606	Open
P5447	J42_38	J43_38	130.00	150.0	125.0	0.0356	Open
P5448	J42_39	J42_40	130.00	250.0	125.0	0.0397	Open
P5449	J42_39	J43_39	130.00	200.0	130.0	0.0301	Open
P5450	J42_40	J42_41	130.00	100.0	140.0	0.0659	Open
P5451	J42_40	J43_40	130.00	150.0	135.0	0.0520	Open
P5452	J42_41	J42_42	130.00	450.0	130.0	0.0353	Open
P5453	J42_41	J43_41	130.00	300.0	125.0	0.0474	Open
P5454	J42_42	J42_43	130.00	250.0	140.0	0.0130	Open
P5455	J42_42	J43_42	130.00	200.0	125.0	0.1089	Open
P5456	J42_43	J42_44	130.00	100.0	140.0	0.1227	Open
P5457	J42_43	J43_43	130.00	100.0	140.0	0.1123	Open
P5458	J42_44	J42_45	130.00	150.0	125.0	0.0402	Open
P5459	J42_44	J43_44	130.00	300.0	125.0	0.0297	Open
P5460	J42_45	J42_46	130.00	200.0	135.0	0.0718	Open
P5461	J42_45	J43_45	130.00	250.0	130.0	0.1465	Open
P5462	J42_46	J42_47	130.00	200.0	140.0	0.0572	Open
P5463	J42_46	J43_46	130.00	300.0	130.0	0.1050	Open
P5464	J42_47	J42_48	130.00	100.0	140.0	0.0836	Open
P5465	J42_47	J43_47	130.00	100.0	130.0	0.0997	Open
P5466	J42_48	J42_49	130.00	100.0	125.0	0.1256	Open
P5467	J42_48	J43_48	130.00	100.0	125.0	0.0880	Open
P5468	J42_49	J42_50	130.00	500.0	120.0	0.0403	Open
P5469	J42_49	J43_49	130.00	500.0	125.0	0.0167	Open
P5470	J42_50	J42_51	130.00	300.0	130.0	0.1060	Open
P5471	J42_50	J43_50	130.00	300.0	140.0	0.0912	Open
P5472	J42_51	J42_52	130.00	150.0	140.0	0.0408	Open
P5473	J42_51	J43_51	130.00	250.0	140.0	0.1150	Open
P5474	J42_52	J42_53	130.00	200.0	135.0	0.1204	Open
P5475	J42_52	J43_52	130.00	100.0	125.0	0.1235	Open
P5476	J42_53	J42_54	130.00	250.0	140.0	0.0566	Open
P5477	J42_53	J43_53	130.00	300.0	130.0	0.0275	Open
P5478	J42_54	J42_55	130.00	100.0	135.0	0.0909	Open
P5479	J42_54	J43_54	130.00	200.0	130.0	0.0815	Open
P5480	J42_55	J42_56	130.00	150.0	135.0	0.1380	Open
P5481	J42_55	J43_55	130.00	250.0	140.0	0.1324	Open
P5482	J42_56	J42_57	130.00	200.0	130.0	0.1039	Open
P5483	J42_56	J43_56	130.00	300.0	130.0	0.0739	Open
P5484	J42_57	J42_58	130.00	500.0	120.0	0.0219	Open
P5485	J42_57	J43_57	130.00	600.0	125.0	0.0252	Open
P5486	J42_58	J42_59	130.00	200.0	140.0	0.0700	Open
P5487	J42_58	J43_58	130.00	100.0	135.0	0.0680	Open
P5488	J42_59	J42_60	130.00	200.0	135.0	0.0128	Open
P5489	J42_59	J43_59	130.00	100.0	140.0	0.0711	Open
P5490	J42_60	J42_61	130.00	250.0	135.0	0.1467	Open
P5491	J42_60	J43_60	130.00	250.0	125.0	0.1081	Open
P5492	J42_61	J42_62	130.00	100.0	140.0	0.0506	Open
P5493	J42_61	J43_61	130.00	300.0	135.0	0.0541	Open
P5494	J42_62	J42_63	130.00	200.0	135.0	0.1077	Open
P5495	J42_62	J43_62	130.00	250.0	130.0	0.1402	Open
P5496	J42_63	J42_64	130.00	100.0	140.0	0.0581	Open
P5497	J42_63	J43_63	130.00	250.0	135.0	0.0637	Open
P5498	J42_64	J42_65	130.00	100.0	125.0	0.0196	Open
P5499	J42_64	J43_64	130.00	100.0	130.0	0.0772	Open
P5500	J42_65	J42_66	130.00	300.0	130.0	0.0349	Open
P5501	J42_65	J43_65	130.00	500.0	130.0	0.0442	Open
P5502	J42_66	J43_66	130.00	100.0	135.0	0.0624	Open
P5503	J43_1	J43_2	130.00	450.0	125.0	0.0221	Open
P5504	J43_1	J44_1	130.00	500.0	120.0	0.0491	Open
P5505	J43_2	J43_3	130.00	300.0	130.0	0.0445	Open
P5506	J43_2	J44_2	130.00	150.0	130.0	0.0242	Open
P5507	J43_3	J43_4	130.00	100.0	140.0	0.0863	Open
P5508	J43_3	J44_3	130.00	100.0	135.0	0.0649	Open
P5509	J43_4	J43_5	130.00	200.0	135.0	0.0181	Open
P5510	J43_4	J44_4	130.00	100.0	125.0	0.0765	Open
P5511	J43_5	J43_6	130.00	150.0	130.0	0.1341	Open
P5512	J43_5	J44_5	130.00	300.0	135.0	0.0475	Open
P5513	J43_6	J43_7	130.00	100.0	125.0	0.0167	Open
P5514	J43_6	J44_6	130.00	200.0	125.0	0.0952	Open
P5515	J43_7	J43_8	130.00	250.0	130.0	0.1312	Open
P5516	J43_7	J44_7	130.00	100.0	140.0	0.0567	Open
P5517	J43_8	J43_9	130.00	200.0	140.0	0.0001	Open
P5518	J43_8	J44_8	130.00	100.0	140.0	0.0772	Open
P5519	J43_9	J43_10	130.00	400.0	120.0	0.0355	Open
P5520	J43_9	J44_9	130.00	600.0	120.0	0.0075	Open
P5521	J43_10	J43_11	130.00	250.0	130.0	0.0970	Open
P5522	J43_10	J44_10	130.00	250.0	125.0	0.1068	Open
P5523	J43_11	J43_12	130.00	200.0	130.0	0.0209	Open
P5524	J43_11	J44_11	130.00	200.0	130.0	0.1380	Open
P5525	J43_12	J43_13	130.00	250.0	125.0	0.0269	Open
P5526	J43_12	J44_12	130.00	200.0	125.0	0.1258	Open
P5527	J43_13	J43_14	130.00	300.0	140.0	0.1384	Open
P5528	J43_13	J44_13	130.00	250.0	135.0	0.0699	Open
P5529	J43_14	J43_15	130.00	200.0	135.0	0.0721	Open
P5530	J43_14	J44_14	130.00	300.0	135.0	0.0731	Open
P5531	J43_15	J43_16	130.00	100.0	135.0	0.0040	Open
P5532	J43_15	J44_15	130.00	250.0	140.0	0.1452	Open
P5533	J43_16	J43_17	130.00	250.0	135.0	0.1007	Open
P5534	J43_16	J44_16	130.00	100.0	140.0	0.1163	Open
P5535	J43_17	J43_18	130.00	450.0	125.0	0.0461	Open
P5536	J43_17	J44_17	130.00	450.0	130.0	0.0063	Open
P5537	J43_18	J43_19	130.00	100.0	125.0	0.0217	Open
P5538	J43_18	J44_18	130.00	250.0	140.0	0.0519	Open
P5539	J43_19	J43_20	130.00	100.0	125.0	0.0629	Open
P5540	J43_19	J44_19	130.00	200.0	130.0	0.1277	Open
P5541	J43_20	J43_21	130.00	300.0	135.0	0.0443	Open
P5542	J43_20	J44_20	130.00	150.0	125.0	0.0052	Open
P5543	J43_21	J43_22	130.00	200.0	130.0	0.0224	Open
P5544	J43_21	J44_21	130.00	300.0	130.0	0.1267	Open
P5545	J43_22	J43_23	130.00	100.0	130.0	0.1028	Open
P5546	J43_22	J44_22	130.00	150.0	135.0	0.1497	Open
P5547	J43_23	J43_24	130.00	150.0	130.0	0.0004	Open
P5548	J43_23	J44_23	130.00	250.0	130.0	0.0154	Open
P5549	J43_24	J43_25	130.00	250.0	140.0	0.0592	Open
P5550	J43_24	J44_24	130.00	150.0	135.0	0.0661	Open
P5551	J43_25	J43_26	130.00	500.0	125.0	0.0226	Open
P5552	J43_25	J44_25	130.00	300.0	130.0	0.0336	Open
P5553	J43_26	J43_27	130.00	100.0	140.0	0.0988	Open
P5554	J43_26	J44_26	130.00	300.0	125.0	0.0468	Open
P5555	J43_27	J43_28	130.00	300.0	130.0	0.0125	Open
P5556	J43_27	J44_27	130.00	100.0	135.0	0.1263	Open
P5557	J43_28	J43_29	130.00	250.0	135.0	0.0286	Open
P5558	J43_28	J44_28	130.00	300.0	125.0	0.0441	Open
P5559	J43_29	J43_30	130.00	250.0	135.0	0.1469	Open
P5560	J43_29	J44_29	130.00	200.0	135.0	0.0227	Open
P5561	J43_30	J43_31	130.00	300.0	130.0	0.0643	Open
P5562	J43_30	J44_30	130.00	100.0	125.0	0.0063	Open
P5563	J43_31	J43_32	130.00	300.0	125.0	0.1393	Open
P5564	J43_31	J44_31	130.00	200.0	125.0	0.1282	Open
P5565	J43_32	J43_33	130.00	250.0	135.0	0.0566	Open
P5566	J43_32	J44_32	130.00	150.0	140.0	0.1021	Open
P5567	J43_33	J43_34	130.00	350.0	130.0	0.0103	Open
P5568	J43_33	J44_33	130.00	450.0	130.0	0.0472	Open
P5569	J43_34	J43_35	130.00	150.0	140.0	0.0639	Open
P5570	J43_34	J44_34	130.00	300.0	140.0	0.0823	Open
P5571	J43_35	J43_36	130.00	250.0	140.0	0.0422	Open
P5572	J43_35	J44_35	130.00	100.0	130.0	0.0956	Open
P5573	J43_36	J43_37	130.00	300.0	130.0	0.0335	Open
P5574	J43_36	J44_36	130.00	250.0	125.0	0.0123	Open
P5575	J43_37	J43_38	130.00	250.0	130.0	0.0536	Open
P5576	J43_37	J44_37	130.00	300.0	135.0	0.0633	Open
P5577	J43_38	J43_39	130.00	200.0	140.0	0.0440	Open
P5578	J43_38	J44_38	130.00	150.0	125.0	0.0792	Open
P5579	J43_39	J43_40	130.00	200.0	135.0	0.0058	Open
P5580	J43_39	J44_39	130.00	200.0	140.0	0.0259	Open
P5581	J43_40	J43_41	130.00	300.0	135.0	0.0689	Open
P5582	J43_40	J44_40	130.00	300.0	125.0	0.0863	Open
P5583	J43_41	J43_42	130.00	400.0	125.0	0.0218	Open
P5584	J43_41	J44_41	130.00	600.0	130.0	0.0417	Open
P5585	J43_42	J43_43	130.00	300.0	130.0	0.0544	Open
P5586	J43_42	J44_42	130.00	200.0	140.0	0.0835	Open
P5587	J43_43	J43_44	130.00	300.0	135.0	0.1277	Open
P5588	J43_43	J44_43	130.00	200.0	140.0	0.0325	Open
P5589	J43_44	J43_45	130.00	100.0	130.0	0.0533	Open
P5590	J43_44	J44_44	130.00	150.0	130.0	0.0475	Open
P5591	J43_45	J43_46	130.00	150.0	140.0	0.0818	Open
P5592	J43_45	J44_45	130.00	300.0	130.0	0.0835	Open
P5593	J43_46	J43_47	130.00	150.0	135.0	0.0317	Open
P5594	J43_46	J44_46	130.00	300.0	125.0	0.0258	Open
P5595	J43_47	J43_48	130.00	250.0	140.0	0.1211	Open
P5596	J43_47	J44_47	130.00	100.0	135.0	0.0635	Open
P5597	J43_48	J43_49	130.00	200.0	125.0	0.1104	Open
P5598	J43_48	J44_48	130.00	100.0	125.0	0.0371	Open
P5599	J43_49	J43_50	130.00	350.0	120.0	0.0028	Open
P5600	J43_49	J44_49	130.00	400.0	125.0	0.0039	Open
P5601	J43_50	J43_51	130.00	150.0	135.0	0.0333	Open
P5602	J43_50	J44_50	130.00	100.0	130.0	0.0128	Open
P5603	J43_51	J43_52	130.00	250.0	135.0	0.1290	Open
P5604	J43_51	J44_51	130.00	250.0	135.0	0.0899	Open
P5605	J43_52	J43_53	130.00	100.0	130.0	0.1413	Open
P5606	J43_52	J44_52	130.00	300.0	140.0	0.0583	Open
P5607	J43_53	J43_54	130.00	150.0	130.0	0.0160	Open
P5608	J43_53	J44_53	130.00	250.0	125.0	0.1000	Open
P5609	J43_54	J43_55	130.00	300.0	135.0	0.0753	Open
P5610	J43_54	J44_54	130.00	150.0	135.0	0.1040	Open
P5611	J43_55	J43_56	130.00	250.0	140.0	0.1111	Open
P5612	J43_55	J44_55	130.00	150.0	140.0	0.0856	Open
P5613	J43_56	J43_57	130.00	150.0	135.0	0.1464	Open
P5614	J43_56	J44_56	130.00	200.0	130.0	0.1304	Open
P5615	J43_57	J43_58	130.00	350.0	130.0	0.0082	Open
P5616	J43_57	J44_57	130.00	400.0	130.0	0.0315	Open
P5617	J43_58	J43_59	130.00	100.0	130.0	0.0823	Open
P5618	J43_58	J44_58	130.00	200.0	130.0	0.0516	Open
P5619	J43_59	J43_60	130.00	250.0	135.0	0.0485	Open
P5620	J43_59	J44_59	130.00	150.0	130.0	0.0743	Open
P5621	J43_60	J43_61	130.00	150.0	125.0	0.1495	Open
P5622	J43_60	J44_60	130.00	300.0	125.0	0.0180	Open
P5623	J43_61	J43_62	130.00	200.0	135.0	0.0214	Open
P5624	J43_61	J44_61	130.00	200.0	130.0	0.0714	Open
P5625	J43_62	J43_63	130.00	300.0	135.0	0.1257	Open
P5626	J43_62	J44_62	130.00	200.0	140.0	0.0075	Open
P5627	J43_63	J43_64	130.00	250.0	125.0	0.1040	Open
P5628	J43_63	J44_63	130.00	200.0	135.0	0.0140	Open
P5629	J43_64	J43_65	130.00	250.0	135.0	0.0903	Open
P5630	J43_64	J44_64	130.00	200.0	125.0	0.0822	Open
P5631	J43_65	J43_66	130.00	600.0	120.0	0.0325	Open
P5632	J43_65	J44_65	130.00	400.0	120.0	0.0348	Open
P5633	J43_66	J44_66	130.00	250.0	125.0	0.0467	Open
P5634	J44_1	J44_2	130.00	600.0	125.0	0.0273	Open
P5635	J44_1	J45_1	130.00	600.0	125.0	0.0002	Open
P5636	J44_2	J44_3	130.00	100.0	130.0	0.1427	Open
P5637	J44_2	J45_2	130.00	300.0	140.0	0.0486	Open
P5638	J44_3	J44_4	130.00	150.0	125.0	0.1068	Open
P5639	J44_3	J45_3	130.00	200.0	135.0	0.1273	Open
P5640	J44_4	J44_5	130.00	100.0	140.0	0.0646	Open
P5641	J44_4	J45_4	130.00	200.0	130.0	0.1175	Open
P5642	J44_5	J44_6	130.00	100.0	125.0	0.0898	Open
P5643	J44_5	J45_5	130.00	300.0	125.0	0.0564	Open
P5644	J44_6	J44_7	130.00	300.0	125.0	0.0765	Open
P5645	J44_6	J45_6	130.00	100.0	125.0	0.1222	Open
P5646	J44_7	J44_8	130.00	200.0	135.0	0.0184	Open
P5647	J44_7	J45_7	130.00	100.0	125.0	0.0523	Open
P5648	J44_8	J44_9	130.00	300.0	135.0	0.0275	Open
P5649	J44_8	J45_8	130.00	200.0	125.0	0.1317	Open
P5650	J44_9	J44_10	130.00	300.0	125.0	0.0212	Open
P5651	J44_9	J45_9	130.00	450.0	120.0	0.0363	Open
P5652	J44_10	J44_11	130.00	150.0	135.0	0.0083	Open
P5653	J44_10	J45_10	130.00	300.0	135.0	0.1107	Open
P5654	J44_11	J44_12	130.00	250.0	140.0	0.0526	Open
P5655	J44_11	J45_11	130.00	150.0	125.0	0.1049	Open
P5656	J44_12	J44_13	130.00	250.0	140.0	0.1073	Open
P5657	J44_12	J45_12	130.00	300.0	130.0	0.1479	Open
P5658	J44_13	J44_14	130.00	150.0	125.0	0.0055	Open
P5659	J44_13	J45_13	130.00	150.0	130.0	0.0566	Open
P5660	J44_14	J44_15	130.00	300.0	140.0	0.0326	Open
P5661	J44_14	J45_14	130.00	100.0	125.0	0.1014	Open
P5662	J44_15	J44_16	130.00	250.0	140.0	0.0438	Open
P5663	J44_15	J45_15	130.00	200.0	130.0	0.1300	Open
P5664	J44_16	J44_17	130.00	250.0	135.0	0.0434	Open
P5665	J44_16	J45_16	130.00	200.0	135.0	0.1486	Open
P5666	J44_17	J44_18	130.00	400.0	125.0	0.0419	Open
P5667	J44_17	J45_17	130.00	600.0	130.0	0.0165	Open
P5668	J44_18	J44_19	130.00	300.0	130.0	0.0883	Open
P5669	J44_18	J45_18	130.00	150.0	140.0	0.0719	Open
P5670	J44_19	J44_20	130.00	250.0	140.0	0.0508	Open
P5671	J44_19	J45_19	130.00	150.0	130.0	0.1192	Open
P5672	J44_20	J44_21	130.00	250.0	135.0	0.1343	Open
P5673	J44_20	J45_20	130.00	250.0	140.0	0.0299	Open
P5674	J44_21	J44_22	130.00	250.0	140.0	0.0304	Open
P5675	J44_21	J45_21	130.00	150.0	125.0	0.0745	Open
P5676	J44_22	J44_23	130.00	100.0	135.0	0.0501	Open
P5677	J44_22	J45_22	130.00	250.0	130.0	0.1279	Open
P5678	J44_23	J44_24	130.00	300.0	140.0	0.1224	Open
P5679	J44_23	J45_23	130.00	300.0	140.0	0.0165	Open
P5680	J44_24	J44_25	130.00	150.0	135.0	0.1311	Open
P5681	J44_24	J45_24	130.00	250.0	135.0	0.0212	Open
P5682	J44_25	J44_26	130.00	350.0	125.0	0.0044	Open
P5683	J44_25	J45_25	130.00	300.0	120.0	0.0094	Open
P5684	J44_26	J44_27	130.00	150.0	135.0	0.0093	Open
P5685	J44_26	J45_26	130.00	250.0	125.0	0.1021	Open
P5686	J44_27	J44_28	130.00	300.0	125.0	0.1269	Open
P5687	J44_27	J45_27	130.00	200.0	140.0	0.0377	Open
P5688	J44_28	J44_29	130.00	250.0	135.0	0.0276	Open
P5689	J44_28	J45_28	130.00	300.0	125.0	0.0511	Open
P5690	J44_29	J44_30	130.00	150.0	130.0	0.0541	Open
P5691	J44_29	J45_29	130.00	300.0	135.0	0.0694	Open
P5692	J44_30	J44_31	130.00	250.0	135.0	0.1053	Open
P5693	J44_30	J45_30	130.00	150.0	140.0	0.1483	Open
P5694	J44_31	J44_32	130.00	300.0	130.0	0.1062	Open
P5695	J44_31	J45_31	130.00	150.0	135.0	0.0026	Open
P5696	J44_32	J44_33	130.00	100.0	125.0	0.0907	Open
P5697	J44_32	J45_32	130.00	250.0	130.0	0.0978	Open
P5698	J44_33	J44_34	130.00	500.0	125.0	0.0135	Open
P5699	J44_33	J45_33	130.00	600.0	130.0	0.0057	Open
P5700	J44_34	J44_35	130.00	300.0	130.0	0.0371	Open
P5701	J44_34	J45_34	130.00	150.0	140.0	0.0853	Open
P5702	J44_35	J44_36	130.00	100.0	140.0	0.0159	Open
P5703	J44_35	J45_35	130.00	150.0	140.0	0.0153	Open
P5704	J44_36	J44_37	130.00	300.0	140.0	0.0910	Open
P5705	J44_36	J45_36	130.00	250.0	130.0	0.1088	Open
P5706	J44_37	J44_38	130.00	150.0	140.0	0.0978	Open
P5707	J44_37	J45_37	130.00	100.0	125.0	0.0129	Open
P5708	J44_38	J44_39	130.00	200.0	125.0	0.0827	Open
P5709	J44_38	J45_38	130.00	300.0	130.0	0.0644	Open
P5710	J44_39	J44_40	130.00	200.0	125.0	0.0452	Open
P5711	J44_39	J45_39	130.00	250.0	140.0	0.1075	Open
P5712	J44_40	J44_41	130.00	300.0	135.0	0.0296	Open
P5713	J44_40	J45_40	130.00	100.0	125.0	0.0013	Open
P5714	J44_41	J44_42	130.00	450.0	125.0	0.0115	Open
P5715	J44_41	J45_41	130.00	350.0	120.0	0.0386	Open
P5716	J44_42	J44_43	130.00	100.0	125.0	0.0945	Open
P5717	J44_42	J45_42	130.00	100.0	125.0	0.0656	Open
P5718	J44_43	J44_44	130.00	300.0	125.0	0.1483	Open
P5719	J44_43	J45_43	130.00	200.0	140.0	0.1108	Open
P5720	J44_44	J44_45	130.00	150.0	125.0	0.0150	Open
P5721	J44_44	J45_44	130.00	200.0	135.0	0.0972	Open
P5722	J44_45	J44_46	130.00	150.0	135.0	0.0813	Open
P5723	J44_45	J45_45	130.00	100.0	125.0	0.0939	Open
P5724	J44_46	J44_47	130.00	200.0	135.0	0.0592	Open
P5725	J44_46	J45_46	130.00	100.0	140.0	0.0259	Open
P5726	J44_47	J44_48	130.00	150.0	140.0	0.0785	Open
P5727	J44_47	J45_47	130.00	200.0	135.0	0.0105	Open
P5728	J44_48	J44_49	130.00	250.0	135.0	0.1202	Open
P5729	J44_48	J45_48	130.00	300.0	135.0	0.0084	Open
P5730	J44_49	J44_50	130.00	600.0	125.0	0.0369	Open
P5731	J44_49	J45_49	130.00	450.0	125.0	0.0019	Open
P5732	J44_50	J44_51	130.00	250.0	140.0	0.0097	Open
P5733	J44_50	J45_50	130.00	150.0	125.0	0.0346	Open
P5734	J44_51	J44_52	130.00	100.0	130.0	0.0820	Open
P5735	J44_51	J45_51	130.00	250.0	130.0	0.0630	Open
P5736	J44_52	J44_53	130.00	250.0	130.0	0.0992	Open
P5737	J44_52	J45_52	130.00	300.0	125.0	0.0753	Open
P5738	J44_53	J44_54	130.00	250.0	135.0	0.0185	Open
P5739	J44_53	J45_53	130.00	250.0	130.0	0.1247	Open
P5740	J44_54	J44_55	130.00	150.0	125.0	0.0107	Open
P5741	J44_54	J45_54	130.00	250.0	140.0	0.0548	Open
P5742	J44_55	J44_56	130.00	100.0	130.0	0.0884	Open
P5743	J44_55	J45_55	130.00	150.0	125.0	0.0941	Open
P5744	J44_56	J44_57	130.00	150.0	125.0	0.1360	Open
P5745	J44_56	J45_56	130.00	150.0	135.0	0.0373	Open
P5746	J44_57	J44_58	130.00	500.0	125.0	0.0483	Open
P5747	J44_57	J45_57	130.00	400.0	125.0	0.0424	Open
P5748	J44_58	J44_59	130.00	250.0	135.0	0.0165	Open
P5749	J44_58	J45_58	130.00	200.0	125.0	0.0431	Open
P5750	J44_59	J44_60	130.00	250.0	130.0	0.0484	Open
P5751	J44_59	J45_59	130.00	250.0	125.0	0.0431	Open
P5752	J44_60	J44_61	130.00	200.0	135.0	0.1033	Open
P5753	J44_60	J45_60	130.00	150.0	140.0	0.0619	Open
P5754	J44_61	J44_62	130.00	100.0	125.0	0.1425	Open
P5755	J44_61	J45_61	130.00	200.0	130.0	0.0172	Open
P5756	J44_62	J44_63	130.00	250.0	140.0	0.0528	Open
P5757	J44_62	J45_62	130.00	200.0	135.0	0.0176	Open
P5758	J44_63	J44_64	130.00	200.0	135.0	0.0642	Open
P5759	J44_63	J45_63	130.00	150.0	125.0	0.0708	Open
P5760	J44_64	J44_65	130.00	250.0	135.0	0.1294	Open
P5761	J44_64	J45_64	130.00	250.0	135.0	0.1483	Open
P5762	J44_65	J44_66	130.00	450.0	120.0	0.0416	Open
P5763	J44_65	J45_65	130.00	500.0	120.0	0.0162	Open
P5764	J44_66	J45_66	130.00	100.0	125.0	0.1349	Open
P5765	J45_1	J45_2	130.00	350.0	120.0	0.0061	Open
P5766	J45_1	J46_1	130.00	350.0	120.0	0.0150	Open
P5767	J45_2	J45_3	130.00	300.0	140.0	0.1023	Open
P5768	J45_2	J46_2	130.00	300.0	140.0	0.1204	Open
P5769	J45_3	J45_4	130.00	250.0	130.0	0.0445	Open
P5770	J45_3	J46_3	130.00	250.0	135.0	0.0639	Open
P5771	J45_4	J45_5	130.00	200.0	125.0	0.0042	Open
P5772	J45_4	J46_4	130.00	250.0	125.0	0.0901	Open
P5773	J45_5	J45_6	130.00	250.0	130.0	0.1311	Open
P5774	J45_5	J46_5	130.00	250.0	130.0	0.1141	Open
P5775	J45_6	J45_7	130.00	100.0	135.0	0.1216	Open
P5776	J45_6	J46_6	130.00	150.0	125.0	0.1428	Open
P5777	J45_7	J45_8	130.00	100.0	130.0	0.1001	Open
P5778	J45_7	J46_7	130.00	300.0	130.0	0.0841	Open
P5779	J45_8	J45_9	130.00	150.0	135.0	0.0027	Open
P5780	J45_8	J46_8	130.00	250.0	130.0	0.0010	Open
P5781	J45_9	J45_10	130.00	300.0	125.0	0.0415	Open
P5782	J45_9	J46_9	130.00	300.0	130.0	0.0111	Open
P5783	J45_10	J45_11	130.00	100.0	135.0	0.1141	Open
P5784	J45_10	J46_10	130.00	150.0	130.0	0.1070	Open
P5785	J45_11	J45_12	130.00	300.0	135.0	0.1169	Open
P5786	J45_11	J46_11	130.00	250.0	135.0	0.1318	Open
P5787	J45_12	J45_13	130.00	300.0	125.0	0.0707	Open
P5788	J45_12	J46_12	130.00	250.0	130.0	0.1327	Open
P5789	J45_13	J45_14	130.00	100.0	130.0	0.1246	Open
P5790	J45_13	J46_13	130.00	150.0	140.0	0.1114	Open
P5791	J45_14	J45_15	130.00	200.0	135.0	0.1139	Open
P5792	J45_14	J46_14	130.00	200.0	135.0	0.0290	Open
P5793	J45_15	J45_16	130.00	300.0	125.0	0.0474	Open
P5794	J45_15	J46_15	130.00	300.0	130.0	0.1017	Open
P5795	J45_16	J45_17	130.00	300.0	130.0	0.1224	Open
P5796	J45_16	J46_16	130.00	200.0	130.0	0.0496	Open
P5797	J45_17	J45_18	130.00	300.0	120.0	0.0023	Open
P5798	J45_17	J46_17	130.00	400.0	130.0	0.0104	Open
P5799	J45_18	J45_19	130.00	300.0	135.0	0.0874	Open
P5800	J45_18	J46_18	130.00	100.0	125.0	0.0105	Open
P5801	J45_19	J45_20	130.00	300.0	140.0	0.0865	Open
P5802	J45_19	J46_19	130.00	300.0	130.0	0.0748	Open
P5803	J45_20	J45_21	130.00	300.0	135.0	0.0563	Open
P5804	J45_20	J46_20	130.00	200.0	125.0	0.1455	Open
P5805	J45_21	J45_22	130.00	100.0	135.0	0.0431	Open
P5806	J45_21	J46_21	130.00	150.0	130.0	0.1341	Open
P5807	J45_22	J45_23	130.00	100.0	140.0	0.0429	Open
P5808	J45_22	J46_22	130.00	300.0	125.0	0.0047	Open
P5809	J45_23	J45_24	130.00	200.0	135.0	0.0936	Open
P5810	J45_23	J46_23	130.00	100.0	130.0	0.0423	Open
P5811	J45_24	J45_25	130.00	300.0	125.0	0.0394	Open
P5812	J45_24	J46_24	130.00	250.0	125.0	0.0789	Open
P5813	J45_25	J45_26	130.00	400.0	125.0	0.0040	Open
P5814	J45_25	J46_25	130.00	450.0	130.0	0.0390	Open
P5815	J45_26	J45_27	130.00	200.0	125.0	0.1049	Open
P5816	J45_26	J46_26	130.00	300.0	135.0	0.0819	Open
P5817	J45_27	J45_28	130.00	250.0	140.0	0.1077	Open
P5818	J45_27	J46_27	130.00	100.0	125.0	0.0188	Open
P5819	J45_28	J45_29	130.00	100.0	140.0	0.1013	Open
P5820	J45_28	J46_28	130.00	150.0	140.0	0.0375	Open
P5821	J45_29	J45_30	130.00	250.0	130.0	0.1440	Open
P5822	J45_29	J46_29	130.00	250.0	125.0	0.1222	Open
P5823	J45_30	J45_31	130.00	150.0	130.0	0.1486	Open
P5824	J45_30	J46_30	130.00	200.0	135.0	0.0765	Open
P5825	J45_31	J45_32	130.00	150.0	130.0	0.1220	Open
P5826	J45_31	J46_31	130.00	200.0	125.0	0.0079	Open
P5827	J45_32	J45_33	130.00	300.0	135.0	0.0964	Open
P5828	J45_32	J46_32	130.00	150.0	135.0	0.1430	Open
P5829	J45_33	J45_34	130.00	450.0	130.0	0.0312	Open
P5830	J45_33	J46_33	130.00	350.0	130.0	0.0403	Open
P5831	J45_34	J45_35	130.00	100.0	125.0	0.1121	Open
P5832	J45_34	J46_34	130.00	150.0	130.0	0.0652	Open
P5833	J45_35	J45_36	130.00	250.0	135.0	0.1255	Open
P5834	J45_35	J46_35	130.00	250.0	135.0	0.1473	Open
P5835	J45_36	J45_37	130.00	100.0	125.0	0.0569	Open
P5836	J45_36	J46_36	130.00	250.0	130.0	0.1421	Open
P5837	J45_37	J45_38	130.00	300.0	135.0	0.1219	Open
P5838	J45_37	J46_37	130.00	150.0	130.0	0.0067	Open
P5839	J45_38	J45_39	130.00	200.0	130.0	0.0377	Open
P5840	J45_38	J46_38	130.00	300.0	140.0	0.0051	Open
P5841	J45_39	J45_40	130.00	150.0	125.0	0.0492	Open
P5842	J45_39	J46_39	130.00	300.0	140.0	0.1366	Open
P5843	J45_40	J45_41	130.00	100.0	130.0	0.0032	Open
P5844	J45_40	J46_40	130.00	250.0	135.0	0.0706	Open
P5845	J45_41	J45_42	130.00	400.0	125.0	0.0382	Open
P5846	J45_41	J46_41	130.00	350.0	125.0	0.0403	Open
P5847	J45_42	J45_43	130.00	150.0	130.0	0.0420	Open
P5848	J45_42	J46_42	130.00	250.0	140.0	0.1078	Open
P5849	J45_43	J45_44	130.00	300.0	135.0	0.0392	Open
P5850	J45_43	J46_43	130.00	200.0	140.0	0.1387	Open
P5851	J45_44	J45_45	130.00	250.0	135.0	0.0759	Open
P5852	J45_44	J46_44	130.00	100.0	125.0	0.0246	Open
P5853	J45_45	J45_46	130.00	250.0	125.0	0.1437	Open
P5854	J45_45	J46_45	130.00	150.0	135.0	0.0691	Open
P5855	J45_46	J45_47	130.00	250.0	140.0	0.1194	Open
P5856	J45_46	J46_46	130.00	200.0	140.0	0.1065	Open
P5857	J45_47	J45_48	130.00	150.0	125.0	0.0301	Open
P5858	J45_47	J46_47	130.00	150.0	140.0	0.0787	Open
P5859	J45_48	J45_49	130.00	150.0	140.0	0.1332	Open
P5860	J45_48	J46_48	130.00	250.0	130.0	0.0294	Open
P5861	J45_49	J45_50	130.00	350.0	125.0	0.0472	Open
P5862	J45_49	J46_49	130.00	300.0	125.0	0.0236	Open
P5863	J45_50	J45_51	130.00	250.0	140.0	0.0909	Open
P5864	J45_50	J46_50	130.00	300.0	135.0	0.1166	Open
P5865	J45_51	J45_52	130.00	150.0	140.0	0.0209	Open
P5866	J45_51	J46_51	130.00	100.0	130.0	0.0571	Open
P5867	J45_52	J45_53	130.00	300.0	125.0	0.0507	Open
P5868	J45_52	J46_52	130.00	250.0	130.0	0.1444	Open
P5869	J45_53	J45_54	130.00	100.0	140.0	0.1460	Open
P5870	J45_53	J46_53	130.00	300.0	130.0	0.1265	Open
P5871	J45_54	J45_55	130.00	200.0	135.0	0.0465	Open
P5872	J45_54	J46_54	130.00	150.0	135.0	0.0755	Open
P5873	J45_55	J45_56	130.00	100.0	125.0	0.0206	Open
P5874	J45_55	J46_55	130.00	300.0	135.0	0.1058	Open
P5875	J45_56	J45_57	130.00	200.0	140.0	0.0372	Open
P5876	J45_56	J46_56	130.00	300.0	125.0	0.0795	Open
P5877	J45_57	J45_58	130.00	400.0	125.0	0.0402	Open
P5878	J45_57	J46_57	130.00	400.0	125.0	0.0038	Open
P5879	J45_58	J45_59	130.00	150.0	135.0	0.0776	Open
P5880	J45_58	J46_58	130.00	100.0	130.0	0.0294	Open
P5881	J45_59	J45_60	130.00	250.0	125.0	0.1195	Open
P5882	J45_59	J46_59	130.00	200.0	125.0	0.0741	Open
P5883	J45_60	J45_61	130.00	200.0	130.0	0.1353	Open
P5884	J45_60	J46_60	130.00	150.0	125.0	0.0428	Open
P5885	J45_61	J45_62	130.00	150.0	140.0	0.0455	Open
P5886	J45_61	J46_61	130.00	300.0	125.0	0.0822	Open
P5887	J45_62	J45_63	130.00	150.0	125.0	0.1374	Open
P5888	J45_62	J46_62	130.00	200.0	125.0	0.1363	Open
P5889	J45_63	J45_64	130.00	250.0	140.0	0.0399	Open
P5890	J45_63	J46_63	130.00	300.0	135.0	0.1455	Open
P5891	J45_64	J45_65	130.00	100.0	125.0	0.0091	Open
P5892	J45_64	J46_64	130.00	100.0	130.0	0.0868	Open
P5893	J45_65	J45_66	130.00	500.0	120.0	0.0170	Open
P5894	J45_65	J46_65	130.00	600.0	120.0	0.0319	Open
P5895	J45_66	J46_66	130.00	100.0	135.0	0.1254	Open
P5896	J46_1	J46_2	130.00	500.0	125.0	0.0069	Open
P5897	J46_1	J47_1	130.00	400.0	130.0	0.0243	Open
P5898	J46_2	J46_3	130.00	300.0	140.0	0.0558	Open
P5899	J46_2	J47_2	130.00	250.0	130.0	0.0776	Open
P5900	J46_3	J46_4	130.00	150.0	130.0	0.0105	Open
P5901	J46_3	J47_3	130.00	200.0	125.0	0.1132	Open
P5902	J46_4	J46_5	130.00	200.0	140.0	0.0258	Open
P5903	J46_4	J47_4	130.00	250.0	135.0	0.0907	Open
P5904	J46_5	J46_6	130.00	250.0	135.0	0.0383	Open
P5905	J46_5	J47_5	130.00	150.0	135.0	0.0037	Open
P5906	J46_6	J46_7	130.00	250.0	125.0	0.1122	Open
P5907	J46_6	J47_6	130.00	250.0	125.0	0.1175	Open
P5908	J46_7	J46_8	130.00	300.0	140.0	0.0620	Open
P5909	J46_7	J47_7	130.00	100.0	135.0	0.0431	Open
P5910	J46_8	J46_9	130.00	250.0	130.0	0.1466	Open
P5911	J46_8	J47_8	130.00	150.0	130.0	0.0704	Open
P5912	J46_9	J46_10	130.00	300.0	130.0	0.0244	Open
P5913	J46_9	J47_9	130.00	300.0	120.0	0.0043	Open
P5914	J46_10	J46_11	130.00	300.0	135.0	0.0204	Open
P5915	J46_10	J47_10	130.00	100.0	130.0	0.0773	Open
P5916	J46_11	J46_12	130.00	100.0	140.0	0.0940	Open
P5917	J46_11	J47_11	130.00	150.0	130.0	0.1423	Open
P5918	J46_12	J46_13	130.00	150.0	135.0	0.1370	Open
P5919	J46_12	J47_12	130.00	150.0	130.0	0.0549	Open
P5920	J46_13	J46_14	130.00	200.0	135.0	0.1273	Open
P5921	J46_13	J47_13	130.00	250.0	135.0	0.1180	Open
P5922	J46_14	J46_15	130.00	100.0	125.0	0.0138	Open
P5923	J46_14	J47_14	130.00	200.0	125.0	0.0118	Open
P5924	J46_15	J46_16	130.00	250.0	140.0	0.0385	Open
P5925	J46_15	J47_15	130.00	200.0	140.0	0.0755	Open
P5926	J46_16	J46_17	130.00	200.0	125.0	0.1337	Open
P5927	J46_16	J47_16	130.00	250.0	130.0	0.0639	Open
P5928	J46_17	J46_18	130.00	300.0	130.0	0.0324	Open
P5929	J46_17	J47_17	130.00	450.0	130.0	0.0335	Open
P5930	J46_18	J46_19	130.00	200.0	135.0	0.1329	Open
P5931	J46_18	J47_18	130.00	100.0	135.0	0.0017	Open
P5932	J46_19	J46_20	130.00	150.0	140.0	0.1090	Open
P5933	J46_19	J47_19	130.00	300.0	130.0	0.1155	Open
P5934	J46_20	J46_21	130.00	300.0	125.0	0.0129	Open
P5935	J46_20	J47_20	130.00	200.0	125.0	0.0739	Open
P5936	J46_21	J46_22	130.00	150.0	130.0	0.0276	Open
P5937	J46_21	J47_21	130.00	250.0	125.0	0.0214	Open
P5938	J46_22	J46_23	130.00	250.0	130.0	0.0310	Open
P5939	J46_22	J47_22	130.00	100.0	140.0	0.0220	Open
P5940	J46_23	J46_24	130.00	250.0	135.0	0.1031	Open
P5941	J46_23	J47_23	130.00	300.0	135.0	0.0894	Open
P5942	J46_24	J46_25	130.00	100.0	135.0	0.0273	Open
P5943	J46_24	J47_24	130.00	200.0	140.0	0.0884	Open
P5944	J46_25	J46_26	130.00	600.0	125.0	0.0215	Open
P5945	J46_25	J47_25	130.00	600.0	130.0	0.0205	Open
P5946	J46_26	J46_27	130.00	300.0	140.0	0.1340	Open
P5947	J46_26	J47_26	130.00	150.0	135.0	0.0894	Open
P5948	J46_27	J46_28	130.00	200.0	130.0	0.0392	Open
P5949	J46_27	J47_27	130.00	200.0	140.0	0.0650	Open
P5950	J46_28	J46_29	130.00	200.0	135.0	0.0323	Open
P5951	J46_28	J47_28	130.00	150.0	135.0	0.1172	Open
P5952	J46_29	J46_30	130.00	150.0	140.0	0.1390	Open
P5953	J46_29	J47_29	130.00	100.0	140.0	0.0552	Open
P5954	J46_30	J46_31	130.00	300.0	130.0	0.0293	Open
P5955	J46_30	J47_30	130.00	250.0	125.0	0.1052	Open
P5956	J46_31	J46_32	130.00	200.0	140.0	0.1103	Open
P5957	J46_31	J47_31	130.00	200.0	125.0	0.1093	Open
P5958	J46_32	J46_33	130.00	250.0	135.0	0.1040	Open
P5959	J46_32	J47_32	130.00	300.0	140.0	0.1144	Open
P5960	J46_33	J46_34	130.00	450.0	120.0	0.0363	Open
P5961	J46_33	J47_33	130.00	600.0	125.0	0.0411	Open
P5962	J46_34	J46_35	130.00	250.0	125.0	0.1336	Open
P5963	J46_34	J47_34	130.00	150.0	125.0	0.0965	Open
P5964	J46_35	J46_36	130.00	100.0	135.0	0.0372	Open
P5965	J46_35	J47_35	130.00	250.0	125.0	0.0556	Open
P5966	J46_36	J46_37	130.00	150.0	140.0	0.0289	Open
P5967	J46_36	J47_36	130.00	200.0	125.0	0.0300	Open
P5968	J46_37	J46_38	130.00	150.0	135.0	0.0920	Open
P5969	J46_37	J47_37	130.00	150.0	125.0	0.0957	Open
P5970	J46_38	J46_39	130.00	250.0	130.0	0.1209	Open
P5971	J46_38	J47_38	130.00	100.0	130.0	0.1467	Open
P5972	J46_39	J46_40	130.00	200.0	135.0	0.0137	Open
P5973	J46_39	J47_39	130.00	300.0	135.0	0.0981	Open
P5974	J46_40	J46_41	130.00	200.0	130.0	0.0469	Open
P5975	J46_40	J47_40	130.00	250.0	130.0	0.1493	Open
P5976	J46_41	J46_42	130.00	450.0	130.0	0.0220	Open
P5977	J46_41	J47_41	130.00	500.0	130.0	0.0226	Open
P5978	J46_42	J46_43	130.00	300.0	125.0	0.0066	Open
P5979	J46_42	J47_42	130.00	300.0	135.0	0.1182	Open
P5980	J46_43	J46_44	130.00	100.0	130.0	0.0656	Open
P5981	J46_43	J47_43	130.00	150.0	140.0	0.0945	Open
P5982	J46_44	J46_45	130.00	200.0	140.0	0.1422	Open
P5983	J46_44	J47_44	130.00	100.0	135.0	0.0736	Open
P5984	J46_45	J46_46	130.00	200.0	130.0	0.1361	Open
P5985	J46_45	J47_45	130.00	200.0	125.0	0.1473	Open
P5986	J46_46	J46_47	130.00	300.0	130.0	0.0855	Open
P5987	J46_46	J47_46	130.00	200.0	130.0	0.0251	Open
P5988	J46_47	J46_48	130.00	100.0	135.0	0.0866	Open
P5989	J46_47	J47_47	130.00	300.0	130.0	0.0576	Open
P5990	J46_48	J46_49	130.00	300.0	135.0	0.0246	Open
P5991	J46_48	J47_48	130.00	150.0	130.0	0.0765	Open
P5992	J46_49	J46_50	130.00	300.0	130.0	0.0007	Open
P5993	J46_49	J47_49	130.00	600.0	125.0	0.0345	Open
P5994	J46_50	J46_51	130.00	200.0	140.0	0.0819	Open
P5995	J46_50	J47_50	130.00	250.0	125.0	0.0646	Open
P5996	J46_51	J46_52	130.00	200.0	130.0	0.1018	Open
P5997	J46_51	J47_51	130.00	150.0	125.0	0.0476	Open
P5998	J46_52	J46_53	130.00	300.0	130.0	0.1273	Open
P5999	J46_52	J47_52	130.00	150.0	125.0	0.0707	Open
P6000	J46_53	J46_54	130.00	200.0	140.0	0.0708	Open
P6001	J46_53	J47_53	130.00	300.0	130.0	0.1268	Open
P6002	J46_54	J46_55	130.00	250.0	130.0	0.1476	Open
P6003	J46_54	J47_54	130.00	200.0	140.0	0.1419	Open
P6004	J46_55	J46_56	130.00	150.0	130.0	0.0721	Open
P6005	J46_55	J47_55	130.00	300.0	135.0	0.0854	Open
P6006	J46_56	J46_57	130.00	300.0	135.0	0.0792	Open
P6007	J46_56	J47_56	130.00	100.0	125.0	0.0297	Open
P6008	J46_57	J46_58	130.00	500.0	125.0	0.0302	Open
P6009	J46_57	J47_57	130.00	600.0	130.0	0.0265	Open
P6010	J46_58	J46_59	130.00	200.0	135.0	0.0264	Open
P6011	J46_58	J47_58	130.00	150.0	135.0	0.0392	Open
P6012	J46_59	J46_60	130.00	100.0	135.0	0.0693	Open
P6013	J46_59	J47_59	130.00	300.0	125.0	0.1484	Open
P6014	J46_60	J46_61	130.00	300.0	130.0	0.1296	Open
P6015	J46_60	J47_60	130.00	300.0	140.0	0.0984	Open
P6016	J46_61	J46_62	130.00	100.0	140.0	0.0061	Open
P6017	J46_61	J47_61	130.00	250.0	130.0	0.1129	Open
P6018	J46_62	J46_63	130.00	300.0	140.0	0.0957	Open
P6019	J46_62	J47_62	130.00	300.0	125.0	0.0102	Open
P6020	J46_63	J46_64	130.00	100.0	130.0	0.0735	Open
P6021	J46_63	J47_63	130.00	200.0	135.0	0.0738	Open
P6022	J46_64	J46_65	130.00	200.0	130.0	0.0369	Open
P6023	J46_64	J47_64	130.00	150.0	135.0	0.0697	Open
P6024	J46_65	J46_66	130.00	400.0	130.0	0.0278	Open
P6025	J46_65	J47_65	130.00	450.0	130.0	0.0029	Open
P6026	J46_66	J47_66	130.00	200.0	125.0	0.0877	Open
P6027	J47_1	J47_2	130.00	400.0	120.0	0.0288	Open
P6028	J47_1	J48_1	130.00	400.0	120.0	0.0490	Open
P6029	J47_2	J47_3	130.00	100.0	135.0	0.1122	Open
P6030	J47_2	J48_2	130.00	150.0	135.0	0.0283	Open
P6031	J47_3	J47_4	130.00	100.0	140.0	0.0931	Open
P6032	J47_3	J48_3	130.00	300.0	135.0	0.0630	Open
P6033	J47_4	J47_5	130.00	250.0	135.0	0.1284	Open
P6034	J47_4	J48_4	130.00	250.0	135.0	0.0709	Open
P6035	J47_5	J47_6	130.00	200.0	135.0	0.0614	Open
P6036	J47_5	J48_5	130.00	150.0	125.0	0.0582	Open
P6037	J47_6	J47_7	130.00	200.0	125.0	0.0967	Open
P6038	J47_6	J48_6	130.00	100.0	135.0	0.0558	Open
P6039	J47_7	J47_8	130.00	250.0	140.0	0.0740	Open
P6040	J47_7	J48_7	130.00	150.0	130.0	0.0513	Open
P6041	J47_8	J47_9	130.00	200.0	135.0	0.0038	Open
P6042	J47_8	J48_8	130.00	300.0	140.0	0.0932	Open
P6043	J47_9	J47_10	130.00	350.0	130.0	0.0316	Open
P6044	J47_9	J48_9	130.00	450.0	120.0	0.0213	Open
P6045	J47_10	J47_11	130.00	250.0	135.0	0.0966	Open
P6046	J47_10	J48_10	130.00	150.0	140.0	0.0498	Open
P6047	J47_11	J47_12	130.00	300.0	135.0	0.1450	Open
P6048	J47_11	J48_11	130.00	200.0	140.0	0.0250	Open
P6049	J47_12	J47_13	130.00	200.0	140.0	0.0811	Open
P6050	J47_12	J48_12	130.00	300.0	135.0	0.0890	Open
P6051	J47_13	J47_14	130.00	200.0	125.0	0.0024	Open
P6052	J47_13	J48_13	130.00	300.0	135.0	0.0095	Open
P6053	J47_14	J47_15	130.00	200.0	140.0	0.1463	Open
P6054	J47_14	J48_14	130.00	250.0	135.0	0.0283	Open
P6055	J47_15	J47_16	130.00	200.0	140.0	0.0950	Open
P6056	J47_15	J48_15	130.00	100.0	125.0	0.0725	Open
P6057	J47_16	J47_17	130.00	150.0	135.0	0.0357	Open
P6058	J47_16	J48_16	130.00	300.0	135.0	0.1066	Open
P6059	J47_17	J47_18	130.00	500.0	130.0	0.0431	Open
P6060	J47_17	J48_17	130.00	450.0	125.0	0.0442	Open
P6061	J47_18	J47_19	130.00	250.0	135.0	0.0685	Open
P6062	J47_18	J48_18	130.00	300.0	130.0	0.1099	Open
P6063	J47_19	J47_20	130.00	200.0	130.0	0.0378	Open
P6064	J47_19	J48_19	130.00	100.0	135.0	0.0620	Open
P6065	J47_20	J47_21	130.00	300.0	140.0	0.0537	Open
P6066	J47_20	J48_20	130.00	200.0	125.0	0.0206	Open
P6067	J47_21	J47_22	130.00	150.0	125.0	0.0802	Open
P6068	J47_21	J48_21	130.00	300.0	130.0	0.1095	Open
P6069	J47_22	J47_23	130.00	200.0	130.0	0.0522	Open
P6070	J47_22	J48_22	130.00	200.0	125.0	0.1474	Open
P6071	J47_23	J47_24	130.00	150.0	140.0	0.1481	Open
P6072	J47_23	J48_23	130.00	150.0	130.0	0.0545	Open
P6073	J47_24	J47_25	130.00	100.0	135.0	0.0159	Open
P6074	J47_24	J48_24	130.00	100.0	140.0	0.0552	Open
P6075	J47_25	J47_26	130.00	500.0	120.0	0.0336	Open
P6076	J47_25	J48_25	130.00	300.0	130.0	0.0060	Open
P6077	J47_26	J47_27	130.00	300.0	130.0	0.0350	Open
P6078	J47_26	J48_26	130.00	200.0	140.0	0.1393	Open
P6079	J47_27	J47_28	130.00	150.0	125.0	0.0731	Open
P6080	J47_27	J48_27	130.00	250.0	125.0	0.0472	Open
P6081	J47_28	J47_29	130.00	100.0	135.0	0.1265	Open
P6082	J47_28	J48_28	130.00	100.0	125.0	0.0686	Open
P6083	J47_29	J47_30	130.00	300.0	130.0	0.0488	Open
P6084	J47_29	J48_29	130.00	200.0	140.0	0.0423	Open
P6085	J47_30	J47_31	130.00	250.0	125.0	0.1036	Open
P6086	J47_30	J48_30	130.00	150.0	135.0	0.1002	Open
P6087	J47_31	J47_32	130.00	300.0	130.0	0.0070	Open
P6088	J47_31	J48_31	130.00	300.0	140.0	0.0587	Open
P6089	J47_32	J47_33	130.00	100.0	130.0	0.0419	Open
P6090	J47_32	J48_32	130.00	100.0	135.0	0.0813	Open
P6091	J47_33	J47_34	130.00	500.0	130.0	0.0095	Open
P6092	J47_33	J48_33	130.00	500.0	125.0	0.0184	Open
P6093	J47_34	J47_35	130.00	300.0	125.0	0.0206	Open
P6094	J47_34	J48_34	130.00	200.0	140.0	0.0891	Open
P6095	J47_35	J47_36	130.00	100.0	125.0	0.0844	Open
P6096	J47_35	J48_35	130.00	250.0	135.0	0.0786	Open
P6097	J47_36	J47_37	130.00	250.0	140.0	0.0269	Open
P6098	J47_36	J48_36	130.00	100.0	140.0	0.0108	Open
P6099	J47_37	J47_38	130.00	300.0	140.0	0.0970	Open
P6100	J47_37	J48_37	130.00	100.0	130.0	0.0110	Open
P6101	J47_38	J47_39	130.00	100.0	135.0	0.0779	Open
P6102	J47_38	J48_38	130.00	250.0	130.0	0.0770	Open
P6103	J47_39	J47_40	130.00	100.0	130.0	0.0625	Open
P6104	J47_39	J48_39	130.00	200.0	125.0	0.0325	Open
P6105	J47_40	J47_41	130.00	250.0	135.0	0.1059	Open
P6106	J47_40	J48_40	130.00	300.0	135.0	0.0116	Open
P6107	J47_41	J47_42	130.00	450.0	130.0	0.0307	Open
P6108	J47_41	J48_41	130.00	500.0	130.0	0.0374	Open
P6109	J47_42	J47_43	130.00	150.0	135.0	0.0610	Open
P6110	J47_42	J48_42	130.00	150.0	125.0	0.0336	Open
P6111	J47_43	J47_44	130.00	200.0	140.0	0.0184	Open
P6112	J47_43	J48_43	130.00	250.0	125.0	0.1274	Open
P6113	J47_44	J47_45	130.00	150.0	140.0	0.0231	Open
P6114	J47_44	J48_44	130.00	150.0	130.0	0.1181	Open
P6115	J47_45	J47_46	130.00	250.0	130.0	0.0673	Open
P6116	J47_45	J48_45	130.00	150.0	125.0	0.0277	Open
P6117	J47_46	J47_47	130.00	200.0	130.0	0.1380	Open
P6118	J47_46	J48_46	130.00	150.0	135.0	0.0998	Open
P6119	J47_47	J47_48	130.00	250.0	140.0	0.1058	Open
P6120	J47_47	J48_47	130.00	100.0	130.0	0.0347	Open
P6121	J47_48	J47_49	130.00	250.0	140.0	0.0639	Open
P6122	J47_48	J48_48	130.00	250.0	130.0	0.0151	Open
P6123	J47_49	J47_50	130.00	450.0	125.0	0.0119	Open
P6124	J47_49	J48_49	130.00	500.0	120.0	0.0458	Open
P6125	J47_50	J47_51	130.00	150.0	140.0	0.1047	Open
P6126	J47_50	J48_50	130.00	150.0	135.0	0.1457	Open
P6127	J47_51	J47_52	130.00	300.0	130.0	0.1049	Open
P6128	J47_51	J48_51	130.00	100.0	130.0	0.1362	Open
P6129	J47_52	J47_53	130.00	200.0	130.0	0.0906	Open
P6130	J47_52	J48_52	130.00	150.0	125.0	0.0388	Open
P6131	J47_53	J47_54	130.00	250.0	130.0	0.1019	Open
P6132	J47_53	J48_53	130.00	300.0	130.0	0.0660	Open
P6133	J47_54	J47_55	130.00	200.0	135.0	0.0136	Open
P6134	J47_54	J48_54	130.00	300.0	135.0	0.0458	Open
P6135	J47_55	J47_56	130.00	100.0	130.0	0.0592	Open
P6136	J47_55	J48_55	130.00	200.0	130.0	0.0676	Open
P6137	J47_56	J47_57	130.00	100.0	130.0	0.1246	Open
P6138	J47_56	J48_56	130.00	300.0	135.0	0.0508	Open
P6139	J47_57	J47_58	130.00	450.0	120.0	0.0272	Open
P6140	J47_57	J48_57	130.00	300.0	120.0	0.0184	Open
P6141	J47_58	J47_59	130.00	200.0	135.0	0.0446	Open
P6142	J47_58	J48_58	130.00	200.0	135.0	0.0845	Open
P6143	J47_59	J47_60	130.00	100.0	125.0	0.0287	Open
P6144	J47_59	J48_59	130.00	300.0	135.0	0.1114	Open
P6145	J47_60	J47_61	130.00	200.0	130.0	0.0842	Open
P6146	J47_60	J48_60	130.00	200.0	135.0	0.0121	Open
P6147	J47_61	J47_62	130.00	250.0	140.0	0.1317	Open
P6148	J47_61	J48_61	130.00	200.0	130.0	0.0075	Open
P6149	J47_62	J47_63	130.00	300.0	130.0	0.0572	Open
P6150	J47_62	J48_62	130.00	300.0	140.0	0.0736	Open
P6151	J47_63	J47_64	130.00	150.0	130.0	0.1157	Open
P6152	J47_63	J48_63	130.00	300.0	135.0	0.1364	Open
P6153	J47_64	J47_65	130.00	100.0	125.0	0.1347	Open
P6154	J47_64	J48_64	130.00	300.0	130.0	0.1027	Open
P6155	J47_65	J47_66	130.00	400.0	120.0	0.0347	Open
P6156	J47_65	J48_65	130.00	400.0	120.0	0.0025	Open
P6157	J47_66	J48_66	130.00	150.0	140.0	0.0083	Open
P6158	J48_1	J48_2	130.00	500.0	125.0	0.0428	Open
P6159	J48_1	J49_1	130.00	500.0	120.0	0.0250	Open
P6160	J48_2	J48_3	130.00	100.0	140.0	0.0856	Open
P6161	J48_2	J49_2	130.00	100.0	135.0	0.0540	Open
P6162	J48_3	J48_4	130.00	300.0	130.0	0.0984	Open
P6163	J48_3	J49_3	130.00	200.0	125.0	0.0769	Open
P6164	J48_4	J48_5	130.00	150.0	125.0	0.0818	Open
P6165	J48_4	J49_4	130.00	150.0	135.0	0.0451	Open
P6166	J48_5	J48_6	130.00	150.0	135.0	0.0972	Open
P6167	J48_5	J49_5	130.00	300.0	135.0	0.1118	Open
P6168	J48_6	J48_7	130.00	100.0	135.0	0.1363	Open
P6169	J48_6	J49_6	130.00	200.0	135.0	0.0254	Open
P6170	J48_7	J48_8	130.00	200.0	130.0	0.0077	Open
P6171	J48_7	J49_7	130.00	200.0	125.0	0.1076	Open
P6172	J48_8	J48_9	130.00	150.0	140.0	0.0947	Open
P6173	J48_8	J49_8	130.00	300.0	125.0	0.0586	Open
P6174	J48_9	J48_10	130.00	300.0	130.0	0.0303	Open
P6175	J48_9	J49_9	130.00	300.0	130.0	0.0456	Open
P6176	J48_10	J48_11	130.00	150.0	125.0	0.1377	Open
P6177	J48_10	J49_10	130.00	300.0	140.0	0.0451	Open
P6178	J48_11	J48_12	130.00	100.0	130.0	0.1284	Open
P6179	J48_11	J49_11	130.00	200.0	140.0	0.0508	Open
P6180	J48_12	J48_13	130.00	100.0	140.0	0.1359	Open
P6181	J48_12	J49_12	130.00	150.0	140.0	0.0046	Open
P6182	J48_13	J48_14	130.00	250.0	130.0	0.1224	Open
P6183	J48_13	J49_13	130.00	250.0	130.0	0.1485	Open
P6184	J48_14	J48_15	130.00	150.0	125.0	0.0955	Open
P6185	J48_14	J49_14	130.00	150.0	140.0	0.0068	Open
P6186	J48_15	J48_16	130.00	300.0	135.0	0.0829	Open
P6187	J48_15	J49_15	130.00	250.0	130.0	0.0068	Open
P6188	J48_16	J48_17	130.00	150.0	130.0	0.1466	Open
P6189	J48_16	J49_16	130.00	100.0	130.0	0.0439	Open
P6190	J48_17	J48_18	130.00	500.0	120.0	0.0158	Open
P6191	J48_17	J49_17	130.00	350.0	125.0	0.0402	Open
P6192	J48_18	J48_19	130.00	150.0	140.0	0.0371	Open
P6193	J48_18	J49_18	130.00	250.0	140.0	0.0528	Open
P6194	J48_19	J48_20	130.00	150.0	140.0	0.0923	Open
P6195	J48_19	J49_19	130.00	250.0	140.0	0.0706	Open
P6196	J48_20	J48_21	130.00	300.0	140.0	0.1409	Open
P6197	J48_20	J49_20	130.00	100.0	140.0	0.1146	Open
P6198	J48_21	J48_22	130.00	300.0	130.0	0.0403	Open
P6199	J48_21	J49_21	130.00	200.0	130.0	0.0032	Open
P6200	J48_22	J48_23	130.00	250.0	130.0	0.0751	Open
P6201	J48_22	J49_22	130.00	300.0	125.0	0.0063	Open
P6202	J48_23	J48_24	130.00	300.0	135.0	0.0448	Open
P6203	J48_23	J49_23	130.00	300.0	135.0	0.0713	Open
P6204	J48_24	J48_25	130.00	100.0	130.0	0.0933	Open
P6205	J48_24	J49_24	130.00	200.0	125.0	0.1105	Open
P6206	J48_25	J48_26	130.00	350.0	125.0	0.0027	Open
P6207	J48_25	J49_25	130.00	350.0	120.0	0.0470	Open
P6208	J48_26	J48_27	130.00	200.0	130.0	0.1430	Open
P6209	J48_26	J49_26	130.00	100.0	135.0	0.0300	Open
P6210	J48_27	J48_28	130.00	150.0	130.0	0.1072	Open
P6211	J48_27	J49_27	130.00	100.0	135.0	0.1108	Open
P6212	J48_28	J48_29	130.00	300.0	130.0	0.0151	Open
P6213	J48_28	J49_28	130.00	200.0	135.0	0.1188	Open
P6214	J48_29	J48_30	130.00	150.0	125.0	0.0349	Open
P6215	J48_29	J49_29	130.00	200.0	125.0	0.1286	Open
P6216	J48_30	J48_31	130.00	250.0	130.0	0.0790	Open
P6217	J48_30	J49_30	130.00	250.0	140.0	0.0480	Open
P6218	J48_31	J48_32	130.00	150.0	125.0	0.0764	Open
P6219	J48_31	J49_31	130.00	200.0	125.0	0.0630	Open
P6220	J48_32	J48_33	130.00	150.0	140.0	0.0102	Open
P6221	J48_32	J49_32	130.00	200.0	125.0	0.1401	Open
P6222	J48_33	J48_34	130.00	300.0	120.0	0.0240	Open
P6223	J48_33	J49_33	130.00	450.0	120.0	0.0478	Open
P6224	J48_34	J48_35	130.00	250.0	125.0	0.0496	Open
P6225	J48_34	J49_34	130.00	300.0	135.0	0.0898	Open
P6226	J48_35	J48_36	130.00	150.0	130.0	0.1026	Open
P6227	J48_35	J49_35	130.00	200.0	130.0	0.1084	Open
P6228	J48_36	J48_37	130.00	300.0	125.0	0.1220	Open
P6229	J48_36	J49_36	130.00	100.0	125.0	0.0171	Open
P6230	J48_37	J48_38	130.00	300.0	125.0	0.0236	Open
P6231	J48_37	J49_37	130.00	100.0	135.0	0.0508	Open
P6232	J48_38	J48_39	130.00	250.0	135.0	0.1208	Open
P6233	J48_38	J49_38	130.00	250.0	125.0	0.1017	Open
P6234	J48_39	J48_40	130.00	200.0	130.0	0.1274	Open
P6235	J48_39	J49_39	130.00	100.0	125.0	0.1124	Open
P6236	J48_40	J48_41	130.00	300.0	130.0	0.1165	Open
P6237	J48_40	J49_40	130.00	200.0	130.0	0.0171	Open
P6238	J48_41	J48_42	130.00	350.0	125.0	0.0125	Open
P6239	J48_41	J49_41	130.00	350.0	125.0	0.0489	Open
P6240	J48_42	J48_43	130.00	200.0	140.0	0.0297	Open
P6241	J48_42	J49_42	130.00	150.0	125.0	0.1494	Open
P6242	J48_43	J48_44	130.00	150.0	135.0	0.1130	Open
P6243	J48_43	J49_43	130.00	150.0	140.0	0.0228	Open
P6244	J48_44	J48_45	130.00	300.0	125.0	0.0897	Open
P6245	J48_44	J49_44	130.00	200.0	135.0	0.0305	Open
P6246	J48_45	J48_46	130.00	150.0	125.0	0.0223	Open
P6247	J48_45	J49_45	130.00	100.0	125.0	0.0436	Open
P6248	J48_46	J48_47	130.00	300.0	125.0	0.0281	Open
P6249	J48_46	J49_46	130.00	100.0	130.0	0.0896	Open
P6250	J48_47	J48_48	130.00	200.0	130.0	0.0412	Open
P6251	J48_47	J49_47	130.00	250.0	135.0	0.0235	Open
P6252	J48_48	J48_49	130.00	250.0	140.0	0.0280	Open
P6253	J48_48	J49_48	130.00	200.0	125.0	0.0868	Open
P6254	J48_49	J48_50	130.00	300.0	125.0	0.0208	Open
P6255	J48_49	J49_49	130.00	600.0	125.0	0.0420	Open
P6256	J48_50	J48_51	130.00	200.0	130.0	0.1461	Open
P6257	J48_50	J49_50	130.00	150.0	130.0	0.0903	Open
P6258	J48_51	J48_52	130.00	150.0	135.0	0.0134	Open
P6259	J48_51	J49_51	130.00	300.0	135.0	0.0958	Open
P6260	J48_52	J48_53	130.00	100.0	125.0	0.1484	Open
P6261	J48_52	J49_52	130.00	200.0	130.0	0.0083	Open
P6262	J48_53	J48_54	130.00	150.0	130.0	0.1035	Open
P6263	J48_53	J49_53	130.00	250.0	125.0	0.0864	Open
P6264	J48_54	J48_55	130.00	100.0	125.0	0.1403	Open
P6265	J48_54	J49_54	130.00	200.0	130.0	0.0700	Open
P6266	J48_55	J48_56	130.00	250.0	140.0	0.1459	Open
P6267	J48_55	J49_55	130.00	100.0	135.0	0.1028	Open
P6268	J48_56	J48_57	130.00	200.0	130.0	0.0908	Open
P6269	J48_56	J49_56	130.00	100.0	125.0	0.1264	Open
P6270	J48_57	J48_58	130.00	400.0	125.0	0.0253	Open
P6271	J48_57	J49_57	130.00	600.0	120.0	0.0260	Open
P6272	J48_58	J48_59	130.00	150.0	125.0	0.0194	Open
P6273	J48_58	J49_58	130.00	200.0	140.0	0.0900	Open
P6274	J48_59	J48_60	130.00	100.0	130.0	0.1117	Open
P6275	J48_59	J49_59	130.00	250.0	125.0	0.1034	Open
P6276	J48_60	J48_61	130.00	150.0	140.0	0.0059	Open
P6277	J48_60	J49_60	130.00	150.0	135.0	0.0246	Open
P6278	J48_61	J48_62	130.00	100.0	135.0	0.0990	Open
P6279	J48_61	J49_61	130.00	150.0	140.0	0.1108	Open
P6280	J48_62	J48_63	130.00	300.0	140.0	0.1229	Open
P6281	J48_62	J49_62	130.00	100.0	125.0	0.0686	Open
P6282	J48_63	J48_64	130.00	200.0	130.0	0.1165	Open
P6283	J48_63	J49_63	130.00	250.0	135.0	0.0063	Open
P6284	J48_64	J48_65	130.00	100.0	140.0	0.0187	Open
P6285	J48_64	J49_64	130.00	100.0	140.0	0.1013	Open
P6286	J48_65	J48_66	130.00	600.0	120.0	0.0038	Open
P6287	J48_65	J49_65	130.00	450.0	120.0	0.0404	Open
P6288	J48_66	J49_66	130.00	100.0	130.0	0.0445	Open
P6289	J49_1	J49_2	130.00	400.0	125.0	0.0496	Open
P6290	J49_1	J50_1	130.00	400.0	120.0	0.0127	Open
P6291	J49_2	J49_3	130.00	400.0	130.0	0.0146	Open
P6292	J49_2	J50_2	130.00	350.0	120.0	0.0249	Open
P6293	J49_3	J49_4	130.00	350.0	130.0	0.0491	Open
P6294	J49_3	J50_3	130.00	500.0	125.0	0.0045	Open
P6295	J49_4	J49_5	130.00	400.0	130.0	0.0248	Open
P6296	J49_4	J50_4	130.00	300.0	125.0	0.0383	Open
P6297	J49_5	J49_6	130.00	450.0	130.0	0.0206	Open
P6298	J49_5	J50_5	130.00	500.0	125.0	0.0447	Open
P6299	J49_6	J49_7	130.00	450.0	130.0	0.0175	Open
P6300	J49_6	J50_6	130.00	450.0	130.0	0.0497	Open
P6301	J49_7	J49_8	130.00	600.0	125.0	0.0382	Open
P6302	J49_7	J50_7	130.00	350.0	125.0	0.0138	Open
P6303	J49_8	J49_9	130.00	600.0	125.0	0.0246	Open
P6304	J49_8	J50_8	130.00	500.0	125.0	0.0471	Open
P6305	J49_9	J49_10	130.00	600.0	130.0	0.0440	Open
P6306	J49_9	J50_9	130.00	300.0	125.0	0.0303	Open
P6307	J49_10	J49_11	130.00	450.0	130.0	0.0367	Open
P6308	J49_10	J50_10	130.00	350.0	120.0	0.0052	Open
P6309	J49_11	J49_12	130.00	450.0	130.0	0.0472	Open
P6310	J49_11	J50_11	130.00	600.0	120.0	0.0257	Open
P6311	J49_12	J49_13	130.00	300.0	125.0	0.0380	Open
P6312	J49_12	J50_12	130.00	350.0	130.0	0.0363	Open
P6313	J49_13	J49_14	130.00	300.0	125.0	0.0107	Open
P6314	J49_13	J50_13	130.00	300.0	120.0	0.0023	Open
P6315	J49_14	J49_15	130.00	500.0	120.0	0.0371	Open
P6316	J49_14	J50_14	130.00	450.0	120.0	0.0295	Open
P6317	J49_15	J49_16	130.00	500.0	125.0	0.0408	Open
P6318	J49_15	J50_15	130.00	300.0	125.0	0.0481	Open
P6319	J49_16	J49_17	130.00	450.0	125.0	0.0383	Open
P6320	J49_16	J50_16	130.00	500.0	120.0	0.0428	Open
P6321	J49_17	J49_18	130.00	450.0	130.0	0.0427	Open
P6322	J49_17	J50_17	130.00	350.0	130.0	0.0078	Open
P6323	J49_18	J49_19	130.00	350.0	130.0	0.0036	Open
P6324	J49_18	J50_18	130.00	300.0	130.0	0.0256	Open
P6325	J49_19	J49_20	130.00	500.0	130.0	0.0131	Open
P6326	J49_19	J50_19	130.00	400.0	120.0	0.0271	Open
P6327	J49_20	J49_21	130.00	400.0	130.0	0.0331	Open
P6328	J49_20	J50_20	130.00	300.0	130.0	0.0426	Open
P6329	J49_21	J49_22	130.00	400.0	130.0	0.0096	Open
P6330	J49_21	J50_21	130.00	450.0	130.0	0.0224	Open
P6331	J49_22	J49_23	130.00	600.0	125.0	0.0010	Open
P6332	J49_22	J50_22	130.00	400.0	130.0	0.0401	Open
P6333	J49_23	J49_24	130.00	300.0	125.0	0.0260	Open
P6334	J49_23	J50_23	130.00	450.0	130.0	0.0247	Open
P6335	J49_24	J49_25	130.00	450.0	120.0	0.0110	Open
P6336	J49_24	J50_24	130.00	400.0	120.0	0.0388	Open
P6337	J49_25	J49_26	130.00	600.0	125.0	0.0161	Open
P6338	J49_25	J50_25	130.00	500.0	120.0	0.0078	Open
P6339	J49_26	J49_27	130.00	450.0	120.0	0.0048	Open
P6340	J49_26	J50_26	130.00	500.0	130.0	0.0115	Open
P6341	J49_27	J49_28	130.00	450.0	130.0	0.0012	Open
P6342	J49_27	J50_27	130.00	600.0	125.0	0.0416	Open
P6343	J49_28	J49_29	130.00	300.0	125.0	0.0048	Open
P6344	J49_28	J50_28	130.00	500.0	125.0	0.0199	Open
P6345	J49_29	J49_30	130.00	500.0	130.0	0.0284	Open
P6346	J49_29	J50_29	130.00	600.0	120.0	0.0342	Open
P6347	J49_30	J49_31	130.00	350.0	120.0	0.0064	Open
P6348	J49_30	J50_30	130.00	450.0	120.0	0.0005	Open
P6349	J49_31	J49_32	130.00	600.0	130.0	0.0265	Open
P6350	J49_31	J50_31	130.00	300.0	125.0	0.0104	Open
P6351	J49_32	J49_33	130.00	400.0	120.0	0.0322	Open
P6352	J49_32	J50_32	130.00	600.0	130.0	0.0410	Open
P6353	J49_33	J49_34	130.00	300.0	130.0	0.0177	Open
P6354	J49_33	J50_33	130.00	600.0	125.0	0.0189	Open
P6355	J49_34	J49_35	130.00	300.0	120.0	0.0484	Open
P6356	J49_34	J50_34	130.00	600.0	130.0	0.0134	Open
P6357	J49_35	J49_36	130.00	400.0	120.0	0.0209	Open
P6358	J49_35	J50_35	130.00	400.0	130.0	0.0028	Open
P6359	J49_36	J49_37	130.00	600.0	130.0	0.0326	Open
P6360	J49_36	J50_36	130.00	400.0	125.0	0.0461	Open
P6361	J49_37	J49_38	130.00	500.0	120.0	0.0289	Open
P6362	J49_37	J50_37	130.00	450.0	130.0	0.0148	Open
P6363	J49_38	J49_39	130.00	600.0	120.0	0.0263	Open
P6364	J49_38	J50_38	130.00	300.0	120.0	0.0484	Open
P6365	J49_39	J49_40	130.00	400.0	120.0	0.0085	Open
P6366	J49_39	J50_39	130.00	500.0	130.0	0.0241	Open
P6367	J49_40	J49_41	130.00	500.0	120.0	0.0109	Open
P6368	J49_40	J50_40	130.00	600.0	120.0	0.0333	Open
P6369	J49_41	J49_42	130.00	600.0	130.0	0.0137	Open
P6370	J49_41	J50_41	130.00	450.0	125.0	0.0295	Open
P6371	J49_42	J49_43	130.00	400.0	125.0	0.0216	Open
P6372	J49_42	J50_42	130.00	400.0	120.0	0.0262	Open
P6373	J49_43	J49_44	130.00	350.0	120.0	0.0395	Open
P6374	J49_43	J50_43	130.00	450.0	130.0	0.0012	Open
P6375	J49_44	J49_45	130.00	350.0	130.0	0.0222	Open
P6376	J49_44	J50_44	130.00	500.0	130.0	0.0170	Open
P6377	J49_45	J49_46	130.00	600.0	130.0	0.0286	Open
P6378	J49_45	J50_45	130.00	600.0	120.0	0.0361	Open
P6379	J49_46	J49_47	130.00	600.0	130.0	0.0309	Open
P6380	J49_46	J50_46	130.00	300.0	130.0	0.0386	Open
P6381	J49_47	J49_48	130.00	600.0	125.0	0.0344	Open
P6382	J49_47	J50_47	130.00	350.0	125.0	0.0438	Open
P6383	J49_48	J49_49	130.00	350.0	130.0	0.0207	Open
P6384	J49_48	J50_48	130.00	450.0	130.0	0.0385	Open
P6385	J49_49	J49_50	130.00	450.0	125.0	0.0270	Open
P6386	J49_49	J50_49	130.00	500.0	120.0	0.0370	Open
P6387	J49_50	J49_51	130.00	400.0	130.0	0.0226	Open
P6388	J49_50	J50_50	130.00	600.0	125.0	0.0070	Open
P6389	J49_51	J49_52	130.00	350.0	125.0	0.0339	Open
P6390	J49_51	J50_51	130.00	400.0	120.0	0.0420	Open
P6391	J49_52	J49_53	130.00	350.0	130.0	0.0442	Open
P6392	J49_52	J50_52	130.00	300.0	130.0	0.0138	Open
P6393	J49_53	J49_54	130.00	300.0	120.0	0.0483	Open
P6394	J49_53	J50_53	130.00	300.0	125.0	0.0071	Open
P6395	J49_54	J49_55	130.00	500.0	125.0	0.0084	Open
P6396	J49_54	J50_54	130.00	300.0	125.0	0.0033	Open
P6397	J49_55	J49_56	130.00	500.0	120.0	0.0242	Open
P6398	J49_55	J50_55	130.00	600.0	125.0	0.0476	Open
P6399	J49_56	J49_57	130.00	450.0	130.0	0.0132	Open
P6400	J49_56	J50_56	130.00	600.0	130.0	0.0171	Open
P6401	J49_57	J49_58	130.00	600.0	130.0	0.0384	Open
P6402	J49_57	J50_57	130.00	400.0	130.0	0.0104	Open
P6403	J49_58	J49_59	130.00	300.0	125.0	0.0098	Open
P6404	J49_58	J50_58	130.00	400.0	120.0	0.0375	Open
P6405	J49_59	J49_60	130.00	500.0	120.0	0.0173	Open
P6406	J49_59	J50_59	130.00	350.0	125.0	0.0268	Open
P6407	J49_60	J49_61	130.00	400.0	120.0	0.0473	Open
P6408	J49_60	J50_60	130.00	300.0	120.0	0.0360	Open
P6409	J49_61	J49_62	130.00	300.0	125.0	0.0133	Open
P6410	J49_61	J50_61	130.00	300.0	130.0	0.0461	Open
P6411	J49_62	J49_63	130.00	300.0	125.0	0.0336	Open
P6412	J49_62	J50_62	130.00	450.0	130.0	0.0232	Open
P6413	J49_63	J49_64	130.00	350.0	120.0	0.0118	Open
P6414	J49_63	J50_63	130.00	600.0	130.0	0.0482	Open
P6415	J49_64	J49_65	130.00	400.0	120.0	0.0288	Open
P6416	J49_64	J50_64	130.00	450.0	120.0	0.0312	Open
P6417	J49_65	J49_66	130.00	400.0	130.0	0.0459	Open
P6418	J49_65	J50_65	130.00	400.0	125.0	0.0153	Open
P6419	J49_66	J50_66	130.00	500.0	130.0	0.0287	Open
P6420	J50_1	J50_2	130.00	500.0	120.0	0.0313	Open
P6421	J50_1	J51_1	130.00	350.0	130.0	0.0081	Open
P6422	J50_2	J50_3	130.00	100.0	125.0	0.1252	Open
P6423	J50_2	J51_2	130.00	300.0	135.0	0.0407	Open
P6424	J50_3	J50_4	130.00	100.0	130.0	0.1469	Open
P6425	J50_3	J51_3	130.00	250.0	135.0	0.0130	Open
P6426	J50_4	J50_5	130.00	100.0	140.0	0.1354	Open
P6427	J50_4	J51_4	130.00	300.0	135.0	0.0558	Open
P6428	J50_5	J50_6	130.00	300.0	140.0	0.0217	Open
P6429	J50_5	J51_5	130.00	150.0	140.0	0.0991	Open
P6430	J50_6	J50_7	130.00	250.0	135.0	0.0329	Open
P6431	J50_6	J51_6	130.00	200.0	130.0	0.0831	Open
P6432	J50_7	J50_8	130.00	150.0	140.0	0.0872	Open
P6433	J50_7	J51_7	130.00	100.0	130.0	0.1364	Open
P6434	J50_8	J50_9	130.00	100.0	130.0	0.0594	Open
P6435	J50_8	J51_8	130.00	300.0	130.0	0.0366	Open
P6436	J50_9	J50_10	130.00	300.0	130.0	0.0009	Open
P6437	J50_9	J51_9	130.00	500.0	125.0	0.0138	Open
P6438	J50_10	J50_11	130.00	100.0	125.0	0.0373	Open
P6439	J50_10	J51_10	130.00	200.0	125.0	0.1376	Open
P6440	J50_11	J50_12	130.00	300.0	125.0	0.0581	Open
P6441	J50_11	J51_11	130.00	150.0	140.0	0.0887	Open
P6442	J50_12	J50_13	130.00	100.0	125.0	0.1390	Open
P6443	J50_12	J51_12	130.00	300.0	125.0	0.1256	Open
P6444	J50_13	J50_14	130.00	100.0	135.0	0.1152	Open
P6445	J50_13	J51_13	130.00	200.0	135.0	0.1359	Open
P6446	J50_14	J50_15	130.00	300.0	125.0	0.0809	Open
P6447	J50_14	J51_14	130.00	100.0	140.0	0.0203	Open
P6448	J50_15	J50_16	130.00	200.0	135.0	0.0158	Open
P6449	J50_15	J51_15	130.00	100.0	140.0	0.0266	Open
P6450	J50_16	J50_17	130.00	200.0	130.0	0.0570	Open
P6451	J50_16	J51_16	130.00	300.0	125.0	0.1267	Open
P6452	J50_17	J50_18	130.00	600.0	120.0	0.0260	Open
P6453	J50_17	J51_17	130.00	600.0	125.0	0.0407	Open
P6454	J50_18	J50_19	130.00	100.0	125.0	0.0390	Open
P6455	J50_18	J51_18	130.00	200.0	130.0	0.0159	Open
P6456	J50_19	J50_20	130.00	250.0	140.0	0.0542	Open
P6457	J50_19	J51_19	130.00	100.0	130.0	0.0096	Open
P6458	J50_20	J50_21	130.00	250.0	125.0	0.0598	Open
P6459	J50_20	J51_20	130.00	300.0	135.0	0.0138	Open
P6460	J50_21	J50_22	130.00	200.0	130.0	0.1186	Open
P6461	J50_21	J51_21	130.00	100.0	125.0	0.1268	Open
P6462	J50_22	J50_23	130.00	200.0	135.0	0.0923	Open
P6463	J50_22	J51_22	130.00	100.0	140.0	0.0815	Open
P6464	J50_23	J50_24	130.00	100.0	135.0	0.1324	Open
P6465	J50_23	J51_23	130.00	300.0	135.0	0.1296	Open
P6466	J50_24	J50_25	130.00	150.0	130.0	0.0908	Open
P6467	J50_24	J51_24	130.00	150.0	140.0	0.1375	Open
P6468	J50_25	J50_26	130.00	450.0	120.0	0.0124	Open
P6469	J50_25	J51_25	130.00	350.0	125.0	0.0088	Open
P6470	J50_26	J50_27	130.00	100.0	140.0	0.1380	Open
P6471	J50_26	J51_26	130.00	200.0	125.0	0.1425	Open
P6472	J50_27	J50_28	130.00	100.0	125.0	0.1224	Open
P6473	J50_27	J51_27	130.00	200.0	125.0	0.0413	Open
P6474	J50_28	J50_29	130.00	250.0	125.0	0.0776	Open
P6475	J50_28	J51_28	130.00	300.0	140.0	0.1276	Open
P6476	J50_29	J50_30	130.00	300.0	140.0	0.1462	Open
P6477	J50_29	J51_29	130.00	200.0	135.0	0.0892	Open
P6478	J50_30	J50_31	130.00	150.0	135.0	0.0824	Open
P6479	J50_30	J51_30	130.00	250.0	135.0	0.0813	Open
P6480	J50_31	J50_32	130.00	200.0	130.0	0.1427	Open
P6481	J50_31	J51_31	130.00	300.0	135.0	0.0332	Open
P6482	J50_32	J50_33	130.00	150.0	135.0	0.1116	Open
P6483	J50_32	J51_32	130.00	150.0	140.0	0.0577	Open
P6484	J50_33	J50_34	130.00	300.0	130.0	0.0350	Open
P6485	J50_33	J51_33	130.00	400.0	130.0	0.0130	Open
P6486	J50_34	J50_35	130.00	200.0	140.0	0.0098	Open
P6487	J50_34	J51_34	130.00	300.0	130.0	0.0789	Open
P6488	J50_35	J50_36	130.00	100.0	130.0	0.0717	Open
P6489	J50_35	J51_35	130.00	300.0	130.0	0.1359	Open
P6490	J50_36	J50_37	130.00	250.0	140.0	0.1389	Open
P6491	J50_36	J51_36	130.00	250.0	125.0	0.0012	Open
P6492	J50_37	J50_38	130.00	150.0	130.0	0.1136	Open
P6493	J50_37	J51_37	130.00	300.0	135.0	0.0832	Open
P6494	J50_38	J50_39	130.00	250.0	130.0	0.0669	Open
P6495	J50_38	J51_38	130.00	250.0	125.0	0.0108	Open
P6496	J50_39	J50_40	130.00	200.0	125.0	0.0584	Open
P6497	J50_39	J51_39	130.00	200.0	130.0	0.0208	Open
P6498	J50_40	J50_41	130.00	100.0	140.0	0.0904	Open
P6499	J50_40	J51_40	130.00	200.0	135.0	0.1131	Open
P6500	J50_41	J50_42	130.00	400.0	120.0	0.0156	Open
P6501	J50_41	J51_41	130.00	300.0	130.0	0.0376	Open
P6502	J50_42	J50_43	130.00	150.0	125.0	0.1009	Open
P6503	J50_42	J51_42	130.00	100.0	135.0	0.1348	Open
P6504	J50_43	J50_44	130.00	100.0	125.0	0.0723	Open
P6505	J50_43	J51_43	130.00	100.0	140.0	0.1006	Open
P6506	J50_44	J50_45	130.00	150.0	135.0	0.0823	Open
P6507	J50_44	J51_44	130.00	150.0	140.0	0.0938	Open
P6508	J50_45	J50_46	130.00	200.0	140.0	0.1146	Open
P6509	J50_45	J51_45	130.00	150.0	140.0	0.0474	Open
P6510	J50_46	J50_47	130.00	150.0	130.0	0.1481	Open
P6511	J50_46	J51_46	130.00	150.0	130.0	0.0937	Open
P6512	J50_47	J50_48	130.00	100.0	140.0	0.0733	Open
P6513	J50_47	J51_47	130.00	200.0	140.0	0.0422	Open
P6514	J50_48	J50_49	130.00	100.0	130.0	0.0972	Open
P6515	J50_48	J51_48	130.00	200.0	125.0	0.1478	Open
P6516	J50_49	J50_50	130.00	500.0	120.0	0.0442	Open
P6517	J50_49	J51_49	130.00	600.0	125.0	0.0249	Open
P6518	J50_50	J50_51	130.00	250.0	130.0	0.1063	Open
P6519	J50_50	J51_50	130.00	300.0	130.0	0.0441	Open
P6520	J50_51	J50_52	130.00	100.0	125.0	0.0650	Open
P6521	J50_51	J51_51	130.00	100.0	135.0	0.0507	Open
P6522	J50_52	J50_53	130.00	150.0	135.0	0.0112	Open
P6523	J50_52	J51_52	130.00	200.0	135.0	0.1258	Open
P6524	J50_53	J50_54	130.00	150.0	125.0	0.1186	Open
P6525	J50_53	J51_53	130.00	150.0	135.0	0.0261	Open
P6526	J50_54	J50_55	130.00	150.0	135.0	0.0879	Open
P6527	J50_54	J51_54	130.00	250.0	130.0	0.1017	Open
P6528	J50_55	J50_56	130.00	300.0	125.0	0.0743	Open
P6529	J50_55	J51_55	130.00	150.0	130.0	0.0385	Open
P6530	J50_56	J50_57	130.00	150.0	140.0	0.0888	Open
P6531	J50_56	J51_56	130.00	200.0	130.0	0.1491	Open
P6532	J50_57	J50_58	130.00	450.0	125.0	0.0323	Open
P6533	J50_57	J51_57	130.00	500.0	130.0	0.0170	Open
P6534	J50_58	J50_59	130.00	300.0	140.0	0.1263	Open
P6535	J50_58	J51_58	130.00	250.0	125.0	0.1266	Open
P6536	J50_59	J50_60	130.00	300.0	130.0	0.0465	Open
P6537	J50_59	J51_59	130.00	100.0	140.0	0.1461	Open
P6538	J50_60	J50_61	130.00	150.0	140.0	0.0504	Open
P6539	J50_60	J51_60	130.00	200.0	140.0	0.1322	Open
P6540	J50_61	J50_62	130.00	200.0	140.0	0.1427	Open
P6541	J50_61	J51_61	130.00	100.0	130.0	0.0484	Open
P6542	J50_62	J50_63	130.00	100.0	125.0	0.0554	Open
P6543	J50_62	J51_62	130.00	300.0	125.0	0.1437	Open
P6544	J50_63	J50_64	130.00	300.0	130.0	0.0305	Open
P6545	J50_63	J51_63	130.00	100.0	140.0	0.0836	Open
P6546	J50_64	J50_65	130.00	200.0	125.0	0.1340	Open
P6547	J50_64	J51_64	130.00	100.0	125.0	0.0001	Open
P6548	J50_65	J50_66	130.00	500.0	125.0	0.0467	Open
P6549	J50_65	J51_65	130.00	500.0	130.0	0.0088	Open
P6550	J50_66	J51_66	130.00	100.0	130.0	0.0760	Open
P6551	J51_1	J51_2	130.00	350.0	125.0	0.0413	Open
P6552	J51_1	J52_1	130.00	400.0	130.0	0.0059	Open
P6553	J51_2	J51_3	130.00	150.0	135.0	0.1260	Open
P6554	J51_2	J52_2	130.00	200.0	125.0	0.0222	Open
P6555	J51_3	J51_4	130.00	150.0	125.0	0.0974	Open
P6556	J51_3	J52_3	130.00	100.0	140.0	0.0194	Open
P6557	J51_4	J51_5	130.00	300.0	130.0	0.1368	Open
P6558	J51_4	J52_4	130.00	200.0	135.0	0.1203	Open
P6559	J51_5	J51_6	130.00	250.0	125.0	0.1407	Open
P6560	J51_5	J52_5	130.00	200.0	135.0	0.0980	Open
P6561	J51_6	J51_7	130.00	250.0	130.0	0.1360	Open
P6562	J51_6	J52_6	130.00	100.0	140.0	0.1127	Open
P6563	J51_7	J51_8	130.00	200.0	140.0	0.1010	Open
P6564	J51_7	J52_7	130.00	100.0	135.0	0.1120	Open
P6565	J51_8	J51_9	130.00	150.0	140.0	0.0561	Open
P6566	J51_8	J52_8	130.00	100.0	130.0	0.1261	Open
P6567	J51_9	J51_10	130.00	450.0	120.0	0.0242	Open
P6568	J51_9	J52_9	130.00	300.0	130.0	0.0476	Open
P6569	J51_10	J51_11	130.00	150.0	135.0	0.1070	Open
P6570	J51_10	J52_10	130.00	200.0	130.0	0.0131	Open
P6571	J51_11	J51_12	130.00	100.0	125.0	0.0861	Open
P6572	J51_11	J52_11	130.00	150.0	125.0	0.0232	Open
P6573	J51_12	J51_13	130.00	250.0	125.0	0.0888	Open
P6574	J51_12	J52_12	130.00	200.0	125.0	0.0381	Open
P6575	J51_13	J51_14	130.00	150.0	125.0	0.1314	Open
P6576	J51_13	J52_13	130.00	200.0	130.0	0.1097	Open
P6577	J51_14	J51_15	130.00	300.0	140.0	0.1157	Open
P6578	J51_14	J52_14	130.00	200.0	140.0	0.1496	Open
P6579	J51_15	J51_16	130.00	300.0	130.0	0.0024	Open
P6580	J51_15	J52_15	130.00	100.0	135.0	0.1158	Open
P6581	J51_16	J51_17	130.00	200.0	135.0	0.0378	Open
P6582	J51_16	J52_16	130.00	250.0	135.0	0.0325	Open
P6583	J51_17	J51_18	130.00	350.0	130.0	0.0205	Open
P6584	J51_17	J52_17	130.00	600.0	120.0	0.0456	Open
P6585	J51_18	J51_19	130.00	200.0	125.0	0.0721	Open
P6586	J51_18	J52_18	130.00	200.0	125.0	0.1244	Open
P6587	J51_19	J51_20	130.00	200.0	140.0	0.1132	Open
P6588	J51_19	J52_19	130.00	100.0	140.0	0.1188	Open
P6589	J51_20	J51_21	130.00	150.0	135.0	0.0582	Open
P6590	J51_20	J52_20	130.00	300.0	125.0	0.0920	Open
P6591	J51_21	J51_22	130.00	150.0	125.0	0.0077	Open
P6592	J51_21	J52_21	130.00	300.0	135.0	0.1442	Open
P6593	J51_22	J51_23	130.00	100.0	140.0	0.1335	Open
P6594	J51_22	J52_22	130.00	200.0	125.0	0.0109	Open
P6595	J51_23	J51_24	130.00	250.0	125.0	0.1440	Open
P6596	J51_23	J52_23	130.00	150.0	125.0	0.1117	Open
P6597	J51_24	J51_25	130.00	150.0	125.0	0.0409	Open
P6598	J51_24	J52_24	130.00	150.0	130.0	0.0847	Open
P6599	J51_25	J51_26	130.00	500.0	125.0	0.0470	Open
P6600	J51_25	J52_25	130.00	350.0	125.0	0.0215	Open
P6601	J51_26	J51_27	130.00	250.0	125.0	0.0496	Open
P6602	J51_26	J52_26	130.00	200.0	140.0	0.0597	Open
P6603	J51_27	J51_28	130.00	150.0	140.0	0.0975	Open
P6604	J51_27	J52_27	130.00	250.0	140.0	0.1100	Open
P6605	J51_28	J51_29	130.00	200.0	125.0	0.1197	Open
P6606	J51_28	J52_28	130.00	300.0	130.0	0.0996	Open
P6607	J51_29	J51_30	130.00	250.0	135.0	0.1340	Open
P6608	J51_29	J52_29	130.00	150.0	140.0	0.0021	Open
P6609	J51_30	J51_31	130.00	150.0	135.0	0.1158	Open
P6610	J51_30	J52_30	130.00	150.0	135.0	0.0703	Open
P6611	J51_31	J51_32	130.00	100.0	125.0	0.0846	Open
P6612	J51_31	J52_31	130.00	200.0	125.0	0.0305	Open
P6613	J51_32	J51_33	130.00	150.0	140.0	0.0082	Open
P6614	J51_32	J52_32	130.00	150.0	130.0	0.0934	Open
P6615	J51_33	J51_34	130.00	500.0	130.0	0.0357	Open
P6616	J51_33	J52_33	130.00	350.0	130.0	0.0469	Open
P6617	J51_34	J51_35	130.00	200.0	140.0	0.0831	Open
P6618	J51_34	J52_34	130.00	300.0	125.0	0.1078	Open
P6619	J51_35	J51_36	130.00	150.0	130.0	0.0025	Open
P6620	J51_35	J52_35	130.00	150.0	140.0	0.0033	Open
P6621	J51_36	J51_37	130.00	300.0	130.0	0.1364	Open
P6622	J51_36	J52_36	130.00	200.0	135.0	0.0888	Open
P6623	J51_37	J51_38	130.00	300.0	130.0	0.0921	Open
P6624	J51_37	J52_37	130.00	300.0	135.0	0.0111	Open
P6625	J51_38	J51_39	130.00	250.0	130.0	0.0952	Open
P6626	J51_38	J52_38	130.00	250.0	140.0	0.0456	Open
P6627	J51_39	J51_40	130.00	150.0	130.0	0.0045	Open
P6628	J51_39	J52_39	130.00	200.0	125.0	0.1455	Open
P6629	J51_40	J51_41	130.00	150.0	140.0	0.1355	Open
P6630	J51_40	J52_40	130.00	100.0	125.0	0.0463	Open
P6631	J51_41	J51_42	130.00	300.0	130.0	0.0145	Open
P6632	J51_41	J52_41	130.00	450.0	120.0	0.0331	Open
P6633	J51_42	J51_43	130.00	300.0	130.0	0.1036	Open
P6634	J51_42	J52_42	130.00	100.0	125.0	0.0636	Open
P6635	J51_43	J51_44	130.00	300.0	130.0	0.0475	Open
P6636	J51_43	J52_43	130.00	200.0	125.0	0.0558	Open
P6637	J51_44	J51_45	130.00	300.0	140.0	0.1016	Open
P6638	J51_44	J52_44	130.00	250.0	135.0	0.0806	Open
P6639	J51_45	J51_46	130.00	200.0	135.0	0.0238	Open
P6640	J51_45	J52_45	130.00	100.0	125.0	0.0160	Open
P6641	J51_46	J51_47	130.00	250.0	125.0	0.1067	Open
P6642	J51_46	J52_46	130.00	100.0	140.0	0.0654	Open
P6643	J51_47	J51_48	130.00	150.0	125.0	0.0269	Open
P6644	J51_47	J52_47	130.00	100.0	125.0	0.0933	Open
P6645	J51_48	J51_49	130.00	250.0	130.0	0.0200	Open
P6646	J51_48	J52_48	130.00	300.0	140.0	0.0749	Open
P6647	J51_49	J51_50	130.00	400.0	120.0	0.0004	Open
P6648	J51_49	J52_49	130.00	500.0	130.0	0.0000	Open
P6649	J51_50	J51_51	130.00	250.0	125.0	0.0204	Open
P6650	J51_50	J52_50	130.00	150.0	130.0	0.1452	Open
P6651	J51_51	J51_52	130.00	250.0	140.0	0.0354	Open
P6652	J51_51	J52_51	130.00	300.0	125.0	0.1104	Open
P6653	J51_52	J51_53	130.00	300.0	135.0	0.1359	Open
P6654	J51_52	J52_52	130.00	200.0	125.0	0.0077	Open
P6655	J51_53	J51_54	130.00	100.0	130.0	0.0809	Open
P6656	J51_53	J52_53	130.00	200.0	140.0	0.0281	Open
P6657	J51_54	J51_55	130.00	300.0	130.0	0.1419	Open
P6658	J51_54	J52_54	130.00	200.0	130.0	0.1382	Open
P6659	J51_55	J51_56	130.00	200.0	140.0	0.0820	Open
P6660	J51_55	J52_55	130.00	250.0	130.0	0.0975	Open
P6661	J51_56	J51_57	130.00	200.0	135.0	0.0590	Open
P6662	J51_56	J52_56	130.00	300.0	135.0	0.0484	Open
P6663	J51_57	J51_58	130.00	350.0	125.0	0.0000	Open
P6664	J51_57	J52_57	130.00	450.0	125.0	0.0443	Open
P6665	J51_58	J51_59	130.00	250.0	135.0	0.0208	Open
P6666	J51_58	J52_58	130.00	150.0	125.0	0.0729	Open
P6667	J51_59	J51_60	130.00	250.0	140.0	0.1112	Open
P6668	J51_59	J52_59	130.00	200.0	140.0	0.1090	Open
P6669	J51_60	J51_61	130.00	250.0	130.0	0.0746	Open
P6670	J51_60	J52_60	130.00	200.0	140.0	0.0324	Open
P6671	J51_61	J51_62	130.00	250.0	125.0	0.0010	Open
P6672	J51_61	J52_61	130.00	150.0	135.0	0.1097	Open
P6673	J51_62	J51_63	130.00	250.0	125.0	0.1497	Open
P6674	J51_62	J52_62	130.00	300.0	140.0	0.1319	Open
P6675	J51_63	J51_64	130.00	150.0	140.0	0.0572	Open
P6676	J51_63	J52_63	130.00	300.0	125.0	0.0106	Open
P6677	J51_64	J51_65	130.00	250.0	140.0	0.0346	Open
P6678	J51_64	J52_64	130.00	300.0	125.0	0.0841	Open
P6679	J51_65	J51_66	130.00	600.0	120.0	0.0324	Open
P6680	J51_65	J52_65	130.00	400.0	130.0	0.0010	Open
P6681	J51_66	J52_66	130.00	250.0	130.0	0.0478	Open
P6682	J52_1	J52_2	130.00	500.0	120.0	0.0477	Open
P6683	J52_1	J53_1	130.00	400.0	125.0	0.0193	Open
P6684	J52_2	J52_3	130.00	300.0	130.0	0.0506	Open
P6685	J52_2	J53_2	130.00	200.0	135.0	0.0506	Open
P6686	J52_3	J52_4	130.00	200.0	140.0	0.1479	Open
P6687	J52_3	J53_3	130.00	100.0	125.0	0.1417	Open
P6688	J52_4	J52_5	130.00	200.0	130.0	0.0760	Open
P6689	J52_4	J53_4	130.00	200.0	125.0	0.1057	Open
P6690	J52_5	J52_6	130.00	100.0	130.0	0.0699	Open
P6691	J52_5	J53_5	130.00	200.0	140.0	0.0143	Open
P6692	J52_6	J52_7	130.00	100.0	140.0	0.0547	Open
P6693	J52_6	J53_6	130.00	100.0	140.0	0.1348	Open
P6694	J52_7	J52_8	130.00	150.0	125.0	0.1154	Open
P6695	J52_7	J53_7	130.00	150.0	125.0	0.0166	Open
P6696	J52_8	J52_9	130.00	300.0	125.0	0.1349	Open
P6697	J52_8	J53_8	130.00	100.0	135.0	0.0371	Open
P6698	J52_9	J52_10	130.00	500.0	130.0	0.0241	Open
P6699	J52_9	J53_9	130.00	400.0	130.0	0.0092	Open
P6700	J52_10	J52_11	130.00	300.0	130.0	0.0955	Open
P6701	J52_10	J53_10	130.00	200.0	125.0	0.0604	Open
P6702	J52_11	J52_12	130.00	300.0	130.0	0.1275	Open
P6703	J52_11	J53_11	130.00	300.0	125.0	0.1113	Open
P6704	J52_12	J52_13	130.00	250.0	130.0	0.0454	Open
P6705	J52_12	J53_12	130.00	100.0	125.0	0.1394	Open
P6706	J52_13	J52_14	130.00	250.0	125.0	0.0865	Open
P6707	J52_13	J53_13	130.00	250.0	140.0	0.1154	Open
P6708	J52_14	J52_15	130.00	250.0	135.0	0.0018	Open
P6709	J52_14	J53_14	130.00	250.0	140.0	0.0596	Open
P6710	J52_15	J52_16	130.00	250.0	130.0	0.1071	Open
P6711	J52_15	J53_15	130.00	300.0	130.0	0.0947	Open
P6712	J52_16	J52_17	130.00	150.0	135.0	0.0574	Open
P6713	J52_16	J53_16	130.00	150.0	125.0	0.1186	Open
P6714	J52_17	J52_18	130.00	350.0	120.0	0.0224	Open
P6715	J52_17	J53_17	130.00	450.0	120.0	0.0352	Open
P6716	J52_18	J52_19	130.00	100.0	140.0	0.0130	Open
P6717	J52_18	J53_18	130.00	250.0	140.0	0.0724	Open
P6718	J52_19	J52_20	130.00	250.0	125.0	0.0398	Open
P6719	J52_19	J53_19	130.00	150.0	130.0	0.0070	Open
P6720	J52_20	J52_21	130.00	250.0	125.0	0.0914	Open
P6721	J52_20	J53_20	130.00	200.0	135.0	0.0929	Open
P6722	J52_21	J52_22	130.00	250.0	130.0	0.1226	Open
P6723	J52_21	J53_21	130.00	200.0	140.0	0.0332	Open
P6724	J52_22	J52_23	130.00	250.0	125.0	0.0515	Open
P6725	J52_22	J53_22	130.00	150.0	140.0	0.0074	Open
P6726	J52_23	J52_24	130.00	100.0	130.0	0.0576	Open
P6727	J52_23	J53_23	130.00	250.0	140.0	0.0782	Open
P6728	J52_24	J52_25	130.00	100.0	135.0	0.1073	Open
P6729	J52_24	J53_24	130.00	300.0	135.0	0.1292	Open
P6730	J52_25	J52_26	130.00	300.0	125.0	0.0090	Open
P6731	J52_25	J53_25	130.00	450.0	120.0	0.0288	Open
P6732	J52_26	J52_27	130.00	250.0	125.0	0.1409	Open
P6733	J52_26	J53_26	130.00	150.0	140.0	0.0032	Open
P6734	J52_27	J52_28	130.00	300.0	130.0	0.1037	Open
P6735	J52_27	J53_27	130.00	100.0	130.0	0.0475	Open
P6736	J52_28	J52_29	130.00	150.0	140.0	0.1462	Open
P6737	J52_28	J53_28	130.00	300.0	130.0	0.0680	Open
P6738	J52_29	J52_30	130.00	250.0	140.0	0.0278	Open
P6739	J52_29	J53_29	130.00	150.0	130.0	0.0928	Open
P6740	J52_30	J52_31	130.00	250.0	130.0	0.0167	Open
P6741	J52_30	J53_30	130.00	250.0	125.0	0.0116	Open
P6742	J52_31	J52_32	130.00	150.0	130.0	0.1415	Open
P6743	J52_31	J53_31	130.00	150.0	130.0	0.1148	Open
P6744	J52_32	J52_33	130.00	250.0	135.0	0.1382	Open
P6745	J52_32	J53_32	130.00	150.0	140.0	0.1161	Open
P6746	J52_33	J52_34	130.00	600.0	125.0	0.0137	Open
P6747	J52_33	J53_33	130.00	300.0	130.0	0.0300	Open
P6748	J52_34	J52_35	130.00	250.0	140.0	0.0255	Open
P6749	J52_34	J53_34	130.00	100.0	125.0	0.1235	Open
P6750	J52_35	J52_36	130.00	150.0	140.0	0.1086	Open
P6751	J52_35	J53_35	130.00	300.0	140.0	0.0301	Open
P6752	J52_36	J52_37	130.00	250.0	130.0	0.1149	Open
P6753	J52_36	J53_36	130.00	150.0	135.0	0.0051	Open
P6754	J52_37	J52_38	130.00	300.0	140.0	0.0026	Open
P6755	J52_37	J53_37	130.00	200.0	125.0	0.1370	Open
P6756	J52_38	J52_39	130.00	150.0	135.0	0.0378	Open
P6757	J52_38	J53_38	130.00	300.0	130.0	0.0773	Open
P6758	J52_39	J52_40	130.00	200.0	140.0	0.0557	Open
P6759	J52_39	J53_39	130.00	300.0	125.0	0.0104	Open
P6760	J52_40	J52_41	130.00	100.0	125.0	0.1340	Open
P6761	J52_40	J53_40	130.00	150.0	130.0	0.1346	Open
P6762	J52_41	J52_42	130.00	300.0	120.0	0.0032	Open
P6763	J52_41	J53_41	130.00	600.0	130.0	0.0306	Open
P6764	J52_42	J52_43	130.00	250.0	135.0	0.0517	Open
P6765	J52_42	J53_42	130.00	150.0	125.0	0.0865	Open
P6766	J52_43	J52_44	130.00	250.0	135.0	0.0113	Open
P6767	J52_43	J53_43	130.00	250.0	125.0	0.0482	Open
P6768	J52_44	J52_45	130.00	200.0	135.0	0.1175	Open
P6769	J52_44	J53_44	130.00	200.0	125.0	0.0269	Open
P6770	J52_45	J52_46	130.00	250.0	135.0	0.0097	Open
P6771	J52_45	J53_45	130.00	200.0	140.0	0.0485	Open
P6772	J52_46	J52_47	130.00	300.0	130.0	0.0543	Open
P6773	J52_46	J53_46	130.00	200.0	130.0	0.0918	Open
P6774	J52_47	J52_48	130.00	150.0	140.0	0.1419	Open
P6775	J52_47	J53_47	130.00	300.0	125.0	0.1211	Open
P6776	J52_48	J52_49	130.00	150.0	140.0	0.1393	Open
P6777	J52_48	J53_48	130.00	200.0	135.0	0.0579	Open
P6778	J52_49	J52_50	130.00	600.0	120.0	0.0211	Open
P6779	J52_49	J53_49	130.00	450.0	125.0	0.0323	Open
P6780	J52_50	J52_51	130.00	200.0	130.0	0.1337	Open
P6781	J52_50	J53_50	130.00	200.0	140.0	0.1408	Open
P6782	J52_51	J52_52	130.00	300.0	140.0	0.0107	Open
P6783	J52_51	J53_51	130.00	250.0	125.0	0.1095	Open
P6784	J52_52	J52_53	130.00	150.0	135.0	0.1356	Open
P6785	J52_52	J53_52	130.00	250.0	125.0	0.0771	Open
P6786	J52_53	J52_54	130.00	300.0	135.0	0.0106	Open
P6787	J52_53	J53_53	130.00	150.0	140.0	0.0726	Open
P6788	J52_54	J52_55	130.00	250.0	125.0	0.0042	Open
P6789	J52_54	J53_54	130.00	100.0	125.0	0.0998	Open
P6790	J52_55	J52_56	130.00	150.0	135.0	0.0283	Open
P6791	J52_55	J53_55	130.00	300.0	130.0	0.1031	Open
P6792	J52_56	J52_57	130.00	150.0	135.0	0.0091	Open
P6793	J52_56	J53_56	130.00	250.0	125.0	0.1446	Open
P6794	J52_57	J52_58	130.00	400.0	125.0	0.0252	Open
P6795	J52_57	J53_57	130.00	350.0	130.0	0.0073	Open
P6796	J52_58	J52_59	130.00	100.0	140.0	0.1315	Open
P6797	J52_58	J53_58	130.00	200.0	135.0	0.0799	Open
P6798	J52_59	J52_60	130.00	150.0	140.0	0.0238	Open
P6799	J52_59	J53_59	130.00	250.0	130.0	0.0249	Open
P6800	J52_60	J52_61	130.00	200.0	140.0	0.0389	Open
P6801	J52_60	J53_60	130.00	200.0	135.0	0.0767	Open
P6802	J52_61	J52_62	130.00	250.0	135.0	0.0226	Open
P6803	J52_61	J53_61	130.00	150.0	135.0	0.0819	Open
P6804	J52_62	J52_63	130.00	300.0	125.0	0.1185	Open
P6805	J52_62	J53_62	130.00	100.0	140.0	0.0922	Open
P6806	J52_63	J52_64	130.00	200.0	135.0	0.0029	Open
P6807	J52_63	J53_63	130.00	100.0	125.0	0.1047	Open
P6808	J52_64	J52_65	130.00	200.0	135.0	0.0806	Open
P6809	J52_64	J53_64	130.00	200.0	135.0	0.1376	Open
P6810	J52_65	J52_66	130.00	350.0	130.0	0.0336	Open
P6811	J52_65	J53_65	130.00	600.0	130.0	0.0216	Open
P6812	J52_66	J53_66	130.00	200.0	140.0	0.0135	Open
P6813	J53_1	J53_2	130.00	600.0	120.0	0.0399	Open
P6814	J53_1	J54_1	130.00	450.0	120.0	0.0239	Open
P6815	J53_2	J53_3	130.00	150.0	125.0	0.0951	Open
P6816	J53_2	J54_2	130.00	300.0	125.0	0.0709	Open
P6817	J53_3	J53_4	130.00	250.0	135.0	0.0451	Open
P6818	J53_3	J54_3	130.00	100.0	135.0	0.0088	Open
P6819	J53_4	J53_5	130.00	300.0	125.0	0.1139	Open
P6820	J53_4	J54_4	130.00	300.0	125.0	0.0117	Open
P6821	J53_5	J53_6	130.00	300.0	130.0	0.1124	Open
P6822	J53_5	J54_5	130.00	250.0	140.0	0.0355	Open
P6823	J53_6	J53_7	130.00	150.0	130.0	0.0541	Open
P6824	J53_6	J54_6	130.00	100.0	135.0	0.0023	Open
P6825	J53_7	J53_8	130.00	200.0	140.0	0.0072	Open
P6826	J53_7	J54_7	130.00	300.0	135.0	0.0067	Open
P6827	J53_8	J53_9	130.00	100.0	125.0	0.1179	Open
P6828	J53_8	J54_8	130.00	250.0	125.0	0.1268	Open
P6829	J53_9	J53_10	130.00	300.0	120.0	0.0285	Open
P6830	J53_9	J54_9	130.00	500.0	125.0	0.0316	Open
P6831	J53_10	J53_11	130.00	200.0	140.0	0.1108	Open
P6832	J53_10	J54_10	130.00	100.0	140.0	0.1175	Open
P6833	J53_11	J53_12	130.00	300.0	135.0	0.1157	Open
P6834	J53_11	J54_11	130.00	100.0	130.0	0.0715	Open
P6835	J53_12	J53_13	130.00	200.0	135.0	0.0215	Open
P6836	J53_12	J54_12	130.00	250.0	135.0	0.0205	Open
P6837	J53_13	J53_14	130.00	200.0	130.0	0.1136	Open
P6838	J53_13	J54_13	130.00	250.0	140.0	0.0635	Open
P6839	J53_14	J53_15	130.00	100.0	140.0	0.1270	Open
P6840	J53_14	J54_14	130.00	300.0	140.0	0.0624	Open
P6841	J53_15	J53_16	130.00	250.0	140.0	0.0519	Open
P6842	J53_15	J54_15	130.00	100.0	140.0	0.0869	Open
P6843	J53_16	J53_17	130.00	150.0	125.0	0.0722	Open
P6844	J53_16	J54_16	130.00	250.0	140.0	0.0563	Open
P6845	J53_17	J53_18	130.00	450.0	130.0	0.0127	Open
P6846	J53_17	J54_17	130.00	350.0	130.0	0.0413	Open
P6847	J53_18	J53_19	130.00	100.0	135.0	0.1111	Open
P6848	J53_18	J54_18	130.00	200.0	130.0	0.1022	Open
P6849	J53_19	J53_20	130.00	100.0	130.0	0.0417	Open
P6850	J53_19	J54_19	130.00	100.0	130.0	0.0212	Open
P6851	J53_20	J53_21	130.00	150.0	135.0	0.0811	Open
P6852	J53_20	J54_20	130.00	150.0	130.0	0.0690	Open
P6853	J53_21	J53_22	130.00	100.0	135.0	0.0628	Open
P6854	J53_21	J54_21	130.00	300.0	125.0	0.0187	Open
P6855	J53_22	J53_23	130.00	300.0	135.0	0.0579	Open
P6856	J53_22	J54_22	130.00	200.0	125.0	0.1158	Open
P6857	J53_23	J53_24	130.00	150.0	125.0	0.0829	Open
P6858	J53_23	J54_23	130.00	250.0	135.0	0.0554	Open
P6859	J53_24	J53_25	130.00	150.0	135.0	0.0629	Open
P6860	J53_24	J54_24	130.00	200.0	125.0	0.0436	Open
P6861	J53_25	J53_26	130.00	300.0	120.0	0.0472	Open
P6862	J53_25	J54_25	130.00	600.0	125.0	0.0144	Open
P6863	J53_26	J53_27	130.00	300.0	140.0	0.1188	Open
P6864	J53_26	J54_26	130.00	150.0	130.0	0.0396	Open
P6865	J53_27	J53_28	130.00	300.0	125.0	0.1166	Open
P6866	J53_27	J54_27	130.00	250.0	130.0	0.1306	Open
P6867	J53_28	J53_29	130.00	150.0	130.0	0.1186	Open
P6868	J53_28	J54_28	130.00	100.0	130.0	0.0590	Open
P6869	J53_29	J53_30	130.00	150.0	135.0	0.1348	Open
P6870	J53_29	J54_29	130.00	150.0	125.0	0.0650	Open
P6871	J53_30	J53_31	130.00	150.0	125.0	0.0091	Open
P6872	J53_30	J54_30	130.00	150.0	130.0	0.0871	Open
P6873	J53_31	J53_32	130.00	150.0	140.0	0.1088	Open
P6874	J53_31	J54_31	130.00	200.0	140.0	0.0576	Open
P6875	J53_32	J53_33	130.00	150.0	125.0	0.0415	Open
P6876	J53_32	J54_32	130.00	250.0	140.0	0.0083	Open
P6877	J53_33	J53_34	130.00	350.0	120.0	0.0204	Open
P6878	J53_33	J54_33	130.00	350.0	125.0	0.0347	Open
P6879	J53_34	J53_35	130.00	300.0	140.0	0.1072	Open
P6880	J53_34	J54_34	130.00	300.0	140.0	0.0357	Open
P6881	J53_35	J53_36	130.00	150.0	125.0	0.0473	Open
P6882	J53_35	J54_35	130.00	250.0	140.0	0.0178	Open
P6883	J53_36	J53_37	130.00	250.0	135.0	0.0819	Open
P6884	J53_36	J54_36	130.00	250.0	140.0	0.0182	Open
P6885	J53_37	J53_38	130.00	250.0	140.0	0.0437	Open
P6886	J53_37	J54_37	130.00	250.0	130.0	0.0301	Open
P6887	J53_38	J53_39	130.00	300.0	135.0	0.1216	Open
P6888	J53_38	J54_38	130.00	250.0	125.0	0.0903	Open
P6889	J53_39	J53_40	130.00	300.0	125.0	0.0274	Open
P6890	J53_39	J54_39	130.00	100.0	135.0	0.1212	Open
P6891	J53_40	J53_41	130.00	250.0	125.0	0.0074	Open
P6892	J53_40	J54_40	130.00	300.0	125.0	0.0946	Open
P6893	J53_41	J53_42	130.00	300.0	130.0	0.0029	Open
P6894	J53_41	J54_41	130.00	500.0	130.0	0.0029	Open
P6895	J53_42	J53_43	130.00	150.0	140.0	0.0977	Open
P6896	J53_42	J54_42	130.00	300.0	125.0	0.0316	Open
P6897	J53_43	J53_44	130.00	100.0	140.0	0.1177	Open
P6898	J53_43	J54_43	130.00	250.0	140.0	0.1012	Open
P6899	J53_44	J53_45	130.00	250.0	130.0	0.0854	Open
P6900	J53_44	J54_44	130.00	200.0	125.0	0.0686	Open
P6901	J53_45	J53_46	130.00	150.0	125.0	0.1413	Open
P6902	J53_45	J54_45	130.00	300.0	135.0	0.0837	Open
P6903	J53_46	J53_47	130.00	100.0	140.0	0.0073	Open
P6904	J53_46	J54_46	130.00	200.0	140.0	0.1221	Open
P6905	J53_47	J53_48	130.00	250.0	130.0	0.0509	Open
P6906	J53_47	J54_47	130.00	200.0	135.0	0.0460	Open
P6907	J53_48	J53_49	130.00	100.0	125.0	0.1011	Open
P6908	J53_48	J54_48	130.00	100.0	130.0	0.0864	Open
P6909	J53_49	J53_50	130.00	450.0	125.0	0.0390	Open
P6910	J53_49	J54_49	130.00	500.0	120.0	0.0432	Open
P6911	J53_50	J53_51	130.00	250.0	130.0	0.0789	Open
P6912	J53_50	J54_50	130.00	200.0	140.0	0.1480	Open
P6913	J53_51	J53_52	130.00	100.0	135.0	0.0623	Open
P6914	J53_51	J54_51	130.00	250.0	135.0	0.1497	Open
P6915	J53_52	J53_53	130.00	250.0	135.0	0.0735	Open
P6916	J53_52	J54_52	130.00	250.0	140.0	0.1154	Open
P6917	J53_53	J53_54	130.00	150.0	135.0	0.1258	Open
P6918	J53_53	J54_53	130.00	300.0	140.0	0.1434	Open
P6919	J53_54	J53_55	130.00	300.0	130.0	0.0831	Open
P6920	J53_54	J54_54	130.00	150.0	140.0	0.0637	Open
P6921	J53_55	J53_56	130.00	150.0	125.0	0.1309	Open
P6922	J53_55	J54_55	130.00	100.0	125.0	0.0469	Open
P6923	J53_56	J53_57	130.00	200.0	130.0	0.0077	Open
P6924	J53_56	J54_56	130.00	300.0	125.0	0.0991	Open
P6925	J53_57	J53_58	130.00	350.0	130.0	0.0376	Open
P6926	J53_57	J54_57	130.00	500.0	130.0	0.0219	Open
P6927	J53_58	J53_59	130.00	300.0	135.0	0.0005	Open
P6928	J53_58	J54_58	130.00	150.0	130.0	0.0636	Open
P6929	J53_59	J53_60	130.00	250.0	125.0	0.0716	Open
P6930	J53_59	J54_59	130.00	150.0	130.0	0.0207	Open
P6931	J53_60	J53_61	130.00	100.0	125.0	0.1477	Open
P6932	J53_60	J54_60	130.00	150.0	140.0	0.1293	Open
P6933	J53_61	J53_62	130.00	150.0	125.0	0.1490	Open
P6934	J53_61	J54_61	130.00	100.0	130.0	0.0999	Open
P6935	J53_62	J53_63	130.00	250.0	130.0	0.1309	Open
P6936	J53_62	J54_62	130.00	300.0	125.0	0.0345	Open
P6937	J53_63	J53_64	130.00	100.0	135.0	0.1018	Open
P6938	J53_63	J54_63	130.00	300.0	135.0	0.0138	Open
P6939	J53_64	J53_65	130.00	300.0	135.0	0.0621	Open
P6940	J53_64	J54_64	130.00	300.0	135.0	0.1304	Open
P6941	J53_65	J53_66	130.00	400.0	125.0	0.0002	Open
P6942	J53_65	J54_65	130.00	600.0	120.0	0.0173	Open
P6943	J53_66	J54_66	130.00	200.0	125.0	0.0984	Open
P6944	J54_1	J54_2	130.00	300.0	125.0	0.0030	Open
P6945	J54_1	J55_1	130.00	600.0	120.0	0.0082	Open
P6946	J54_2	J54_3	130.00	200.0	130.0	0.1400	Open
P6947	J54_2	J55_2	130.00	300.0	125.0	0.0198	Open
P6948	J54_3	J54_4	130.00	250.0	125.0	0.0419	Open
P6949	J54_3	J55_3	130.00	250.0	125.0	0.1313	Open
P6950	J54_4	J54_5	130.00	100.0	140.0	0.1026	Open
P6951	J54_4	J55_4	130.00	150.0	130.0	0.0927	Open
P6952	J54_5	J54_6	130.00	150.0	130.0	0.0284	Open
P6953	J54_5	J55_5	130.00	300.0	125.0	0.1124	Open
P6954	J54_6	J54_7	130.00	150.0	135.0	0.1347	Open
P6955	J54_6	J55_6	130.00	300.0	130.0	0.0930	Open
P6956	J54_7	J54_8	130.00	100.0	135.0	0.0240	Open
P6957	J54_7	J55_7	130.00	250.0	140.0	0.0471	Open
P6958	J54_8	J54_9	130.00	200.0	140.0	0.0083	Open
P6959	J54_8	J55_8	130.00	250.0	130.0	0.0396	Open
P6960	J54_9	J54_10	130.00	500.0	120.0	0.0005	Open
P6961	J54_9	J55_9	130.00	450.0	130.0	0.0365	Open
P6962	J54_10	J54_11	130.00	300.0	135.0	0.0669	Open
P6963	J54_10	J55_10	130.00	150.0	140.0	0.0304	Open
P6964	J54_11	J54_12	130.00	150.0	125.0	0.0127	Open
P6965	J54_11	J55_11	130.00	300.0	140.0	0.1179	Open
P6966	J54_12	J54_13	130.00	100.0	135.0	0.0440	Open
P6967	J54_12	J55_12	130.00	150.0	140.0	0.0161	Open
P6968	J54_13	J54_14	130.00	200.0	130.0	0.1500	Open
P6969	J54_13	J55_13	130.00	300.0	125.0	0.0990	Open
P6970	J54_14	J54_15	130.00	250.0	135.0	0.0399	Open
P6971	J54_14	J55_14	130.00	100.0	130.0	0.1222	Open
P6972	J54_15	J54_16	130.00	200.0	135.0	0.0118	Open
P6973	J54_15	J55_15	130.00	150.0	140.0	0.0981	Open
P6974	J54_16	J54_17	130.00	300.0	125.0	0.0521	Open
P6975	J54_16	J55_16	130.00	200.0	130.0	0.0707	Open
P6976	J54_17	J54_18	130.00	400.0	130.0	0.0445	Open
P6977	J54_17	J55_17	130.00	500.0	130.0	0.0372	Open
P6978	J54_18	J54_19	130.00	300.0	140.0	0.1049	Open
P6979	J54_18	J55_18	130.00	250.0	125.0	0.1082	Open
P6980	J54_19	J54_20	130.00	100.0	135.0	0.1319	Open
P6981	J54_19	J55_19	130.00	250.0	140.0	0.0059	Open
P6982	J54_20	J54_21	130.00	200.0	135.0	0.0775	Open
P6983	J54_20	J55_20	130.00	300.0	135.0	0.0790	Open
P6984	J54_21	J54_22	130.00	100.0	125.0	0.0886	Open
P6985	J54_21	J55_21	130.00	200.0	130.0	0.0451	Open
P6986	J54_22	J54_23	130.00	150.0	135.0	0.0301	Open
P6987	J54_22	J55_22	130.00	150.0	130.0	0.1230	Open
P6988	J54_23	J54_24	130.00	250.0	140.0	0.0846	Open
P6989	J54_23	J55_23	130.00	250.0	130.0	0.0800	Open
P6990	J54_24	J54_25	130.00	250.0	130.0	0.0905	Open
P6991	J54_24	J55_24	130.00	150.0	125.0	0.0552	Open
P6992	J54_25	J54_26	130.00	450.0	120.0	0.0429	Open
P6993	J54_25	J55_25	130.00	350.0	130.0	0.0392	Open
P6994	J54_26	J54_27	130.00	100.0	125.0	0.0136	Open
P6995	J54_26	J55_26	130.00	150.0	140.0	0.0820	Open
P6996	J54_27	J54_28	130.00	100.0	140.0	0.1399	Open
P6997	J54_27	J55_27	130.00	100.0	130.0	0.0386	Open
P6998	J54_28	J54_29	130.00	250.0	140.0	0.0758	Open
P6999	J54_28	J55_28	130.00	200.0	140.0	0.0823	Open
P7000	J54_29	J54_30	130.00	200.0	125.0	0.0118	Open
P7001	J54_29	J55_29	130.00	100.0	125.0	0.0282	Open
P7002	J54_30	J54_31	130.00	300.0	140.0	0.1073	Open
P7003	J54_30	J55_30	130.00	200.0	135.0	0.0362	Open
P7004	J54_31	J54_32	130.00	100.0	135.0	0.0731	Open
P7005	J54_31	J55_31	130.00	300.0	140.0	0.1371	Open
P7006	J54_32	J54_33	130.00	200.0	140.0	0.0468	Open
P7007	J54_32	J55_32	130.00	200.0	135.0	0.0470	Open
P7008	J54_33	J54_34	130.00	450.0	125.0	0.0201	Open
P7009	J54_33	J55_33	130.00	300.0	120.0	0.0245	Open
P7010	J54_34	J54_35	130.00	300.0	140.0	0.1290	Open
P7011	J54_34	J55_34	130.00	250.0	135.0	0.0647	Open
P7012	J54_35	J54_36	130.00	150.0	130.0	0.1163	Open
P7013	J54_35	J55_35	130.00	300.0	125.0	0.0196	Open
P7014	J54_36	J54_37	130.00	150.0	140.0	0.1149	Open
P7015	J54_36	J55_36	130.00	100.0	125.0	0.0169	Open
P7016	J54_37	J54_38	130.00	100.0	135.0	0.0089	Open
P7017	J54_37	J55_37	130.00	250.0	125.0	0.0321	Open
P7018	J54_38	J54_39	130.00	200.0	135.0	0.0944	Open
P7019	J54_38	J55_38	130.00	150.0	125.0	0.0595	Open
P7020	J54_39	J54_40	130.00	300.0	140.0	0.1259	Open
P7021	J54_39	J55_39	130.00	150.0	140.0	0.0857	Open
P7022	J54_40	J54_41	130.00	200.0	140.0	0.0537	Open
P7023	J54_40	J55_40	130.00	150.0	135.0	0.0576	Open
P7024	J54_41	J54_42	130.00	300.0	130.0	0.0384	Open
P7025	J54_41	J55_41	130.00	500.0	120.0	0.0298	Open
P7026	J54_42	J54_43	130.00	200.0	130.0	0.1042	Open
P7027	J54_42	J55_42	130.00	150.0	135.0	0.0004	Open
P7028	J54_43	J54_44	130.00	250.0	140.0	0.0604	Open
P7029	J54_43	J55_43	130.00	200.0	135.0	0.0089	Open
P7030	J54_44	J54_45	130.00	200.0	130.0	0.0038	Open
P7031	J54_44	J55_44	130.00	300.0	130.0	0.1334	Open
P7032	J54_45	J54_46	130.00	150.0	130.0	0.0450	Open
P7033	J54_45	J55_45	130.00	200.0	130.0	0.0940	Open
P7034	J54_46	J54_47	130.00	200.0	130.0	0.1160	Open
P7035	J54_46	J55_46	130.00	250.0	125.0	0.0241	Open
P7036	J54_47	J54_48	130.00	150.0	125.0	0.1152	Open
P7037	J54_47	J55_47	130.00	200.0	135.0	0.0459	Open
P7038	J54_48	J54_49	130.00	100.0	130.0	0.0357	Open
P7039	J54_48	J55_48	130.00	150.0	140.0	0.1438	Open
P7040	J54_49	J54_50	130.00	500.0	125.0	0.0382	Open
P7041	J54_49	J55_49	130.00	500.0	125.0	0.0325	Open
P7042	J54_50	J54_51	130.00	150.0	125.0	0.0025	Open
P7043	J54_50	J55_50	130.00	300.0	125.0	0.1195	Open
P7044	J54_51	J54_52	130.00	300.0	140.0	0.0887	Open
P7045	J54_51	J55_51	130.00	250.0	135.0	0.1397	Open
P7046	J54_52	J54_53	130.00	300.0	130.0	0.0260	Open
P7047	J54_52	J55_52	130.00	300.0	130.0	0.0466	Open
P7048	J54_53	J54_54	130.00	300.0	130.0	0.1443	Open
P7049	J54_53	J55_53	130.00	100.0	125.0	0.1378	Open
P7050	J54_54	J54_55	130.00	150.0	135.0	0.0167	Open
P7051	J54_54	J55_54	130.00	200.0	125.0	0.0695	Open
P7052	J54_55	J54_56	130.00	250.0	140.0	0.0390	Open
P7053	J54_55	J55_55	130.00	150.0	135.0	0.0432	Open
P7054	J54_56	J54_57	130.00	100.0	125.0	0.1389	Open
P7055	J54_56	J55_56	130.00	300.0	140.0	0.0370	Open
P7056	J54_57	J54_58	130.00	450.0	125.0	0.0247	Open
P7057	J54_57	J55_57	130.00	400.0	130.0	0.0291	Open
P7058	J54_58	J54_59	130.00	300.0	130.0	0.0752	Open
P7059	J54_58	J55_58	130.00	100.0	140.0	0.0858	Open
P7060	J54_59	J54_60	130.00	300.0	140.0	0.1051	Open
P7061	J54_59	J55_59	130.00	200.0	125.0	0.0017	Open
P7062	J54_60	J54_61	130.00	250.0	135.0	0.0596	Open
P7063	J54_60	J55_60	130.00	300.0	130.0	0.0090	Open
P7064	J54_61	J54_62	130.00	150.0	140.0	0.0322	Open
P7065	J54_61	J55_61	130.00	150.0	140.0	0.0840	Open
P7066	J54_62	J54_63	130.00	200.0	135.0	0.1146	Open
P7067	J54_62	J55_62	130.00	150.0	125.0	0.0605	Open
P7068	J54_63	J54_64	130.00	300.0	135.0	0.0138	Open
P7069	J54_63	J55_63	130.00	200.0	130.0	0.1359	Open
P7070	J54_64	J54_65	130.00	150.0	135.0	0.1069	Open
P7071	J54_64	J55_64	130.00	300.0	125.0	0.0307	Open
P7072	J54_65	J54_66	130.00	500.0	120.0	0.0179	Open
P7073	J54_65	J55_65	130.00	600.0	130.0	0.0015	Open
P7074	J54_66	J55_66	130.00	150.0	130.0	0.1006	Open
P7075	J55_1	J55_2	130.00	600.0	130.0	0.0048	Open
P7076	J55_1	J56_1	130.00	600.0	130.0	0.0054	Open
P7077	J55_2	J55_3	130.00	150.0	135.0	0.1449	Open
P7078	J55_2	J56_2	130.00	150.0	130.0	0.0296	Open
P7079	J55_3	J55_4	130.00	200.0	130.0	0.0403	Open
P7080	J55_3	J56_3	130.00	250.0	125.0	0.1321	Open
P7081	J55_4	J55_5	130.00	100.0	125.0	0.0936	Open
P7082	J55_4	J56_4	130.00	150.0	135.0	0.0474	Open
P7083	J55_5	J55_6	130.00	150.0	140.0	0.0658	Open
P7084	J55_5	J56_5	130.00	150.0	135.0	0.0952	Open
P7085	J55_6	J55_7	130.00	100.0	140.0	0.0586	Open
P7086	J55_6	J56_6	130.00	200.0	135.0	0.1476	Open
P7087	J55_7	J55_8	130.00	100.0	130.0	0.1193	Open
P7088	J55_7	J56_7	130.00	200.0	125.0	0.1485	Open
P7089	J55_8	J55_9	130.00	100.0	125.0	0.0062	Open
P7090	J55_8	J56_8	130.00	300.0	125.0	0.0462	Open
P7091	J55_9	J55_10	130.00	350.0	125.0	0.0153	Open
P7092	J55_9	J56_9	130.00	450.0	120.0	0.0036	Open
P7093	J55_10	J55_11	130.00	200.0	135.0	0.0312	Open
P7094	J55_10	J56_10	130.00	300.0	130.0	0.0234	Open
P7095	J55_11	J55_12	130.00	200.0	135.0	0.0634	Open
P7096	J55_11	J56_11	130.00	150.0	140.0	0.0556	Open
P7097	J55_12	J55_13	130.00	300.0	125.0	0.0653	Open
P7098	J55_12	J56_12	130.00	150.0	140.0	0.0584	Open
P7099	J55_13	J55_14	130.00	200.0	140.0	0.1442	Open
P7100	J55_13	J56_13	130.00	100.0	135.0	0.1344	Open
P7101	J55_14	J55_15	130.00	200.0	135.0	0.1115	Open
P7102	J55_14	J56_14	130.00	300.0	135.0	0.0661	Open
P7103	J55_15	J55_16	130.00	150.0	140.0	0.1044	Open
P7104	J55_15	J56_15	130.00	200.0	130.0	0.0853	Open
P7105	J55_16	J55_17	130.00	300.0	125.0	0.1211	Open
P7106	J55_16	J56_16	130.00	200.0	125.0	0.0507	Open
P7107	J55_17	J55_18	130.00	500.0	120.0	0.0247	Open
P7108	J55_17	J56_17	130.00	350.0	125.0	0.0006	Open
P7109	J55_18	J55_19	130.00	250.0	130.0	0.0737	Open
P7110	J55_18	J56_18	130.00	250.0	140.0	0.0004	Open
P7111	J55_19	J55_20	130.00	300.0	125.0	0.0003	Open
P7112	J55_19	J56_19	130.00	150.0	130.0	0.0851	Open
P7113	J55_20	J55_21	130.00	250.0	130.0	0.1430	Open
P7114	J55_20	J56_20	130.00	150.0	125.0	0.1408	Open
P7115	J55_21	J55_22	130.00	250.0	135.0	0.0412	Open
P7116	J55_21	J56_21	130.00	100.0	125.0	0.0850	Open
P7117	J55_22	J55_23	130.00	250.0	135.0	0.1442	Open
P7118	J55_22	J56_22	130.00	300.0	135.0	0.0191	Open
P7119	J55_23	J55_24	130.00	150.0	135.0	0.1144	Open
P7120	J55_23	J56_23	130.00	300.0	135.0	0.0778	Open
P7121	J55_24	J55_25	130.00	300.0	130.0	0.1062	Open
P7122	J55_24	J56_24	130.00	300.0	140.0	0.0906	Open
P7123	J55_25	J55_26	130.00	350.0	125.0	0.0471	Open
P7124	J55_25	J56_25	130.00	600.0	120.0	0.0089	Open
P7125	J55_26	J55_27	130.00	300.0	125.0	0.0243	Open
P7126	J55_26	J56_26	130.00	100.0	130.0	0.1346	Open
P7127	J55_27	J55_28	130.00	300.0	140.0	0.0222	Open
P7128	J55_27	J56_27	130.00	200.0	140.0	0.1400	Open
P7129	J55_28	J55_29	130.00	200.0	125.0	0.0994	Open
P7130	J55_28	J56_28	130.00	250.0	135.0	0.1345	Open
P7131	J55_29	J55_30	130.00	150.0	140.0	0.0575	Open
P7132	J55_29	J56_29	130.00	100.0	125.0	0.1262	Open
P7133	J55_30	J55_31	130.00	200.0	130.0	0.0256	Open
P7134	J55_30	J56_30	130.00	150.0	130.0	0.0522	Open
P7135	J55_31	J55_32	130.00	250.0	140.0	0.1050	Open
P7136	J55_31	J56_31	130.00	200.0	130.0	0.0423	Open
P7137	J55_32	J55_33	130.00	300.0	130.0	0.0569	Open
P7138	J55_32	J56_32	130.00	100.0	140.0	0.0944	Open
P7139	J55_33	J55_34	130.00	300.0	125.0	0.0111	Open
P7140	J55_33	J56_33	130.00	450.0	125.0	0.0019	Open
P7141	J55_34	J55_35	130.00	300.0	125.0	0.1288	Open
P7142	J55_34	J56_34	130.00	150.0	140.0	0.0098	Open
P7143	J55_35	J55_36	130.00	150.0	125.0	0.1060	Open
P7144	J55_35	J56_35	130.00	250.0	130.0	0.0704	Open
P7145	J55_36	J55_37	130.00	250.0	125.0	0.0884	Open
P7146	J55_36	J56_36	130.00	200.0	125.0	0.0979	Open
P7147	J55_37	J55_38	130.00	250.0	130.0	0.1046	Open
P7148	J55_37	J56_37	130.00	300.0	125.0	0.0038	Open
P7149	J55_38	J55_39	130.00	250.0	125.0	0.1242	Open
P7150	J55_38	J56_38	130.00	150.0	130.0	0.0129	Open
P7151	J55_39	J55_40	130.00	250.0	135.0	0.1245	Open
P7152	J55_39	J56_39	130.00	100.0	130.0	0.0401	Open
P7153	J55_40	J55_41	130.00	100.0	130.0	0.0823	Open
P7154	J55_40	J56_40	130.00	300.0	140.0	0.1272	Open
P7155	J55_41	J55_42	130.00	600.0	120.0	0.0152	Open
P7156	J55_41	J56_41	130.00	400.0	130.0	0.0495	Open
P7157	J55_42	J55_43	130.00	100.0	140.0	0.0108	Open
P7158	J55_42	J56_42	130.00	100.0	125.0	0.0584	Open
P7159	J55_43	J55_44	130.00	300.0	140.0	0.1293	Open
P7160	J55_43	J56_43	130.00	150.0	130.0	0.0661	Open
P7161	J55_44	J55_45	130.00	250.0	135.0	0.0105	Open
P7162	J55_44	J56_44	130.00	150.0	135.0	0.0937	Open
P7163	J55_45	J55_46	130.00	150.0	125.0	0.1399	Open
P7164	J55_45	J56_45	130.00	200.0	140.0	0.0862	Open
P7165	J55_46	J55_47	130.00	200.0	130.0	0.1275	Open
P7166	J55_46	J56_46	130.00	150.0	135.0	0.0093	Open
P7167	J55_47	J55_48	130.00	200.0	125.0	0.1482	Open
P7168	J55_47	J56_47	130.00	100.0	140.0	0.0425	Open
P7169	J55_48	J55_49	130.00	100.0	125.0	0.0125	Open
P7170	J55_48	J56_48	130.00	250.0	140.0	0.0693	Open
P7171	J55_49	J55_50	130.00	600.0	130.0	0.0427	Open
P7172	J55_49	J56_49	130.00	400.0	130.0	0.0173	Open
P7173	J55_50	J55_51	130.00	300.0	135.0	0.0577	Open
P7174	J55_50	J56_50	130.00	200.0	135.0	0.0119	Open
P7175	J55_51	J55_52	130.00	150.0	135.0	0.0999	Open
P7176	J55_51	J56_51	130.00	300.0	130.0	0.0567	Open
P7177	J55_52	J55_53	130.00	200.0	140.0	0.0784	Open
P7178	J55_52	J56_52	130.00	250.0	135.0	0.0821	Open
P7179	J55_53	J55_54	130.00	150.0	135.0	0.0324	Open
P7180	J55_53	J56_53	130.00	200.0	130.0	0.0198	Open
P7181	J55_54	J55_55	130.00	250.0	140.0	0.0319	Open
P7182	J55_54	J56_54	130.00	200.0	140.0	0.0166	Open
P7183	J55_55	J55_56	130.00	100.0	130.0	0.0848	Open
P7184	J55_55	J56_55	130.00	150.0	135.0	0.0951	Open
P7185	J55_56	J55_57	130.00	250.0	130.0	0.0917	Open
P7186	J55_56	J56_56	130.00	200.0	135.0	0.0947	Open
P7187	J55_57	J55_58	130.00	400.0	125.0	0.0278	Open
P7188	J55_57	J56_57	130.00	350.0	120.0	0.0074	Open
P7189	J55_58	J55_59	130.00	150.0	125.0	0.0360	Open
P7190	J55_58	J56_58	130.00	300.0	125.0	0.1323	Open
P7191	J55_59	J55_60	130.00	150.0	130.0	0.1286	Open
P7192	J55_59	J56_59	130.00	100.0	125.0	0.0567	Open
P7193	J55_60	J55_61	130.00	200.0	140.0	0.1046	Open
P7194	J55_60	J56_60	130.00	200.0	140.0	0.0580	Open
P7195	J55_61	J55_62	130.00	250.0	125.0	0.1116	Open
P7196	J55_61	J56_61	130.00	300.0	125.0	0.0787	Open
P7197	J55_62	J55_63	130.00	300.0	140.0	0.0366	Open
P7198	J55_62	J56_62	130.00	200.0	140.0	0.0659	Open
P7199	J55_63	J55_64	130.00	100.0	125.0	0.0004	Open
P7200	J55_63	J56_63	130.00	100.0	140.0	0.1437	Open
P7201	J55_64	J55_65	130.00	100.0	140.0	0.0344	Open
P7202	J55_64	J56_64	130.00	250.0	140.0	0.0343	Open
P7203	J55_65	J55_66	130.00	350.0	120.0	0.0155	Open
P7204	J55_65	J56_65	130.00	350.0	125.0	0.0074	Open
P7205	J55_66	J56_66	130.00	100.0	125.0	0.0346	Open
P7206	J56_1	J56_2	130.00	600.0	130.0	0.0323	Open
P7207	J56_1	J57_1	130.00	600.0	120.0	0.0160	Open
P7208	J56_2	J56_3	130.00	100.0	125.0	0.0149	Open
P7209	J56_2	J57_2	130.00	250.0	130.0	0.0573	Open
P7210	J56_3	J56_4	130.00	100.0	135.0	0.0869	Open
P7211	J56_3	J57_3	130.00	300.0	125.0	0.1002	Open
P7212	J56_4	J56_5	130.00	250.0	135.0	0.0636	Open
P7213	J56_4	J57_4	130.00	100.0	130.0	0.0594	Open
P7214	J56_5	J56_6	130.00	250.0	130.0	0.0675	Open
P7215	J56_5	J57_5	130.00	250.0	130.0	0.0432	Open
P7216	J56_6	J56_7	130.00	300.0	130.0	0.1084	Open
P7217	J56_6	J57_6	130.00	250.0	125.0	0.0146	Open
P7218	J56_7	J56_8	130.00	300.0	130.0	0.0095	Open
P7219	J56_7	J57_7	130.00	300.0	135.0	0.1496	Open
P7220	J56_8	J56_9	130.00	200.0	135.0	0.0121	Open
P7221	J56_8	J57_8	130.00	100.0	140.0	0.0148	Open
P7222	J56_9	J56_10	130.00	500.0	130.0	0.0437	Open
P7223	J56_9	J57_9	130.00	400.0	125.0	0.0218	Open
P7224	J56_10	J56_11	130.00	300.0	130.0	0.0398	Open
P7225	J56_10	J57_10	130.00	200.0	140.0	0.1012	Open
P7226	J56_11	J56_12	130.00	200.0	140.0	0.0330	Open
P7227	J56_11	J57_11	130.00	100.0	135.0	0.0930	Open
P7228	J56_12	J56_13	130.00	150.0	140.0	0.0693	Open
P7229	J56_12	J57_12	130.00	250.0	135.0	0.0817	Open
P7230	J56_13	J56_14	130.00	150.0	140.0	0.0028	Open
P7231	J56_13	J57_13	130.00	300.0	140.0	0.1454	Open
P7232	J56_14	J56_15	130.00	200.0	140.0	0.1044	Open
P7233	J56_14	J57_14	130.00	150.0	130.0	0.0914	Open
P7234	J56_15	J56_16	130.00	300.0	140.0	0.0483	Open
P7235	J56_15	J57_15	130.00	250.0	130.0	0.0596	Open
P7236	J56_16	J56_17	130.00	100.0	140.0	0.0473	Open
P7237	J56_16	J57_16	130.00	150.0	140.0	0.1367	Open
P7238	J56_17	J56_18	130.00	500.0	130.0	0.0419	Open
P7239	J56_17	J57_17	130.00	300.0	125.0	0.0459	Open
P7240	J56_18	J56_19	130.00	250.0	135.0	0.0950	Open
P7241	J56_18	J57_18	130.00	200.0	135.0	0.1204	Open
P7242	J56_19	J56_20	130.00	300.0	130.0	0.1497	Open
P7243	J56_19	J57_19	130.00	300.0	125.0	0.1219	Open
P7244	J56_20	J56_21	130.00	300.0	125.0	0.0393	Open
P7245	J56_20	J57_20	130.00	100.0	130.0	0.0116	Open
P7246	J56_21	J56_22	130.00	200.0	135.0	0.0958	Open
P7247	J56_21	J57_21	130.00	200.0	130.0	0.0456	Open
P7248	J56_22	J56_23	130.00	200.0	140.0	0.0368	Open
P7249	J56_22	J57_22	130.00	100.0	140.0	0.1462	Open
P7250	J56_23	J56_24	130.00	250.0	125.0	0.1412	Open
P7251	J56_23	J57_23	130.00	150.0	135.0	0.0504	Open
P7252	J56_24	J56_25	130.00	200.0	125.0	0.1352	Open
P7253	J56_24	J57_24	130.00	200.0	140.0	0.0510	Open
P7254	J56_25	J56_26	130.00	450.0	120.0	0.0305	Open
P7255	J56_25	J57_25	130.00	600.0	130.0	0.0064	Open
P7256	J56_26	J56_27	130.00	100.0	135.0	0.1055	Open
P7257	J56_26	J57_26	130.00	250.0	140.0	0.0356	Open
P7258	J56_27	J56_28	130.00	200.0	140.0	0.1487	Open
P7259	J56_27	J57_27	130.00	250.0	125.0	0.1372	Open
P7260	J56_28	J56_29	130.00	250.0	130.0	0.0293	Open
P7261	J56_28	J57_28	130.00	150.0	135.0	0.0211	Open
P7262	J56_29	J56_30	130.00	200.0	140.0	0.1393	Open
P7263	J56_29	J57_29	130.00	200.0	130.0	0.0630	Open
P7264	J56_30	J56_31	130.00	100.0	140.0	0.1243	Open
P7265	J56_30	J57_30	130.00	200.0	130.0	0.0122	Open
P7266	J56_31	J56_32	130.00	300.0	135.0	0.0138	Open
P7267	J56_31	J57_31	130.00	200.0	140.0	0.0160	Open
P7268	J56_32	J56_33	130.00	150.0	130.0	0.1251	Open
P7269	J56_32	J57_32	130.00	250.0	130.0	0.0054	Open
P7270	J56_33	J56_34	130.00	300.0	125.0	0.0416	Open
P7271	J56_33	J57_33	130.00	450.0	130.0	0.0442	Open
P7272	J56_34	J56_35	130.00	200.0	130.0	0.0643	Open
P7273	J56_34	J57_34	130.00	200.0	125.0	0.0689	Open
P7274	J56_35	J56_36	130.00	300.0	135.0	0.0386	Open
P7275	J56_35	J57_35	130.00	150.0	140.0	0.0777	Open
P7276	J56_36	J56_37	130.00	100.0	125.0	0.0585	Open
P7277	J56_36	J57_36	130.00	100.0	130.0	0.1325	Open
P7278	J56_37	J56_38	130.00	200.0	140.0	0.0927	Open
P7279	J56_37	J57_37	130.00	100.0	125.0	0.0912	Open
P7280	J56_38	J56_39	130.00	300.0	130.0	0.0570	Open
P7281	J56_38	J57_38	130.00	100.0	135.0	0.0117	Open
P7282	J56_39	J56_40	130.00	200.0	130.0	0.1017	Open
P7283	J56_39	J57_39	130.00	100.0	125.0	0.1123	Open
P7284	J56_40	J56_41	130.00	100.0	130.0	0.0264	Open
P7285	J56_40	J57_40	130.00	250.0	125.0	0.1116	Open
P7286	J56_41	J56_42	130.00	350.0	130.0	0.0330	Open
P7287	J56_41	J57_41	130.00	500.0	120.0	0.0333	Open
P7288	J56_42	J56_43	130.00	100.0	130.0	0.1004	Open
P7289	J56_42	J57_42	130.00	250.0	125.0	0.0353	Open
P7290	J56_43	J56_44	130.00	150.0	130.0	0.0277	Open
P7291	J56_43	J57_43	130.00	150.0	140.0	0.0965	Open
P7292	J56_44	J56_45	130.00	250.0	125.0	0.0055	Open
P7293	J56_44	J57_44	130.00	300.0	125.0	0.0672	Open
P7294	J56_45	J56_46	130.00	200.0	140.0	0.0600	Open
P7295	J56_45	J57_45	130.00	200.0	140.0	0.0925	Open
P7296	J56_46	J56_47	130.00	250.0	125.0	0.1203	Open
P7297	J56_46	J57_46	130.00	200.0	140.0	0.1222	Open
P7298	J56_47	J56_48	130.00	100.0	135.0	0.1247	Open
P7299	J56_47	J57_47	130.00	250.0	130.0	0.0750	Open
P7300	J56_48	J56_49	130.00	250.0	135.0	0.0205	Open
P7301	J56_48	J57_48	130.00	200.0	125.0	0.0220	Open
P7302	J56_49	J56_50	130.00	300.0	120.0	0.0119	Open
P7303	J56_49	J57_49	130.00	450.0	130.0	0.0404	Open
P7304	J56_50	J56_51	130.00	250.0	130.0	0.0024	Open
P7305	J56_50	J57_50	130.00	200.0	135.0	0.0391	Open
P7306	J56_51	J56_52	130.00	100.0	140.0	0.0454	Open
P7307	J56_51	J57_51	130.00	300.0	135.0	0.0647	Open
P7308	J56_52	J56_53	130.00	100.0	130.0	0.0827	Open
P7309	J56_52	J57_52	130.00	100.0	130.0	0.0190	Open
P7310	J56_53	J56_54	130.00	250.0	125.0	0.1109	Open
P7311	J56_53	J57_53	130.00	100.0	140.0	0.1303	Open
P7312	J56_54	J56_55	130.00	300.0	130.0	0.0684	Open
P7313	J56_54	J57_54	130.00	200.0	130.0	0.1067	Open
P7314	J56_55	J56_56	130.00	300.0	135.0	0.1362	Open
P7315	J56_55	J57_55	130.00	200.0	140.0	0.0076	Open
P7316	J56_56	J56_57	130.00	300.0	140.0	0.1069	Open
P7317	J56_56	J57_56	130.00	100.0	125.0	0.1194	Open
P7318	J56_57	J56_58	130.00	500.0	125.0	0.0020	Open
P7319	J56_57	J57_57	130.00	400.0	125.0	0.0033	Open
P7320	J56_58	J56_59	130.00	100.0	140.0	0.1130	Open
P7321	J56_58	J57_58	130.00	100.0	130.0	0.0514	Open
P7322	J56_59	J56_60	130.00	250.0	125.0	0.0528	Open
P7323	J56_59	J57_59	130.00	100.0	135.0	0.0058	Open
P7324	J56_60	J56_61	130.00	250.0	125.0	0.0957	Open
P7325	J56_60	J57_60	130.00	100.0	125.0	0.0421	Open
P7326	J56_61	J56_62	130.00	300.0	125.0	0.0871	Open
P7327	J56_61	J57_61	130.00	200.0	135.0	0.1014	Open
P7328	J56_62	J56_63	130.00	150.0	140.0	0.0435	Open
P7329	J56_62	J57_62	130.00	200.0	125.0	0.0929	Open
P7330	J56_63	J56_64	130.00	300.0	135.0	0.0138	Open
P7331	J56_63	J57_63	130.00	300.0	125.0	0.0263	Open
P7332	J56_64	J56_65	130.00	200.0	140.0	0.0962	Open
P7333	J56_64	J57_64	130.00	250.0	140.0	0.0976	Open
P7334	J56_65	J56_66	130.00	300.0	125.0	0.0414	Open
P7335	J56_65	J57_65	130.00	350.0	120.0	0.0412	Open
P7336	J56_66	J57_66	130.00	250.0	135.0	0.0148	Open
P7337	J57_1	J57_2	130.00	450.0	125.0	0.0140	Open
P7338	J57_1	J58_1	130.00	600.0	120.0	0.0250	Open
P7339	J57_2	J57_3	130.00	300.0	120.0	0.0100	Open
P7340	J57_2	J58_2	130.00	300.0	130.0	0.0080	Open
P7341	J57_3	J57_4	130.00	450.0	125.0	0.0422	Open
P7342	J57_3	J58_3	130.00	400.0	130.0	0.0086	Open
P7343	J57_4	J57_5	130.00	400.0	125.0	0.0401	Open
P7344	J57_4	J58_4	130.00	350.0	125.0	0.0231	Open
P7345	J57_5	J57_6	130.00	350.0	130.0	0.0046	Open
P7346	J57_5	J58_5	130.00	500.0	130.0	0.0268	Open
P7347	J57_6	J57_7	130.00	450.0	120.0	0.0317	Open
P7348	J57_6	J58_6	130.00	350.0	120.0	0.0367	Open
P7349	J57_7	J57_8	130.00	300.0	125.0	0.0298	Open
P7350	J57_7	J58_7	130.00	400.0	125.0	0.0137	Open
P7351	J57_8	J57_9	130.00	500.0	125.0	0.0215	Open
P7352	J57_8	J58_8	130.00	500.0	125.0	0.0240	Open
P7353	J57_9	J57_10	130.00	450.0	125.0	0.0358	Open
P7354	J57_9	J58_9	130.00	600.0	120.0	0.0103	Open
P7355	J57_10	J57_11	130.00	450.0	130.0	0.0327	Open
P7356	J57_10	J58_10	130.00	450.0	125.0	0.0121	Open
P7357	J57_11	J57_12	130.00	600.0	125.0	0.0266	Open
P7358	J57_11	J58_11	130.00	400.0	120.0	0.0057	Open
P7359	J57_12	J57_13	130.00	600.0	130.0	0.0102	Open
P7360	J57_12	J58_12	130.00	400.0	125.0	0.0238	Open
P7361	J57_13	J57_14	130.00	300.0	125.0	0.0411	Open
P7362	J57_13	J58_13	130.00	500.0	125.0	0.0428	Open
P7363	J57_14	J57_15	130.00	400.0	120.0	0.0431	Open
P7364	J57_14	J58_14	130.00	350.0	120.0	0.0267	Open
P7365	J57_15	J57_16	130.00	400.0	125.0	0.0001	Open
P7366	J57_15	J58_15	130.00	600.0	130.0	0.0464	Open
P7367	J57_16	J57_17	130.00	350.0	125.0	0.0380	Open
P7368	J57_16	J58_16	130.00	350.0	120.0	0.0182	Open
P7369	J57_17	J57_18	130.00	600.0	130.0	0.0427	Open
P7370	J57_17	J58_17	130.00	350.0	130.0	0.0183	Open
P7371	J57_18	J57_19	130.00	500.0	130.0	0.0389	Open
P7372	J57_18	J58_18	130.00	400.0	130.0	0.0232	Open
P7373	J57_19	J57_20	130.00	350.0	125.0	0.0441	Open
P7374	J57_19	J58_19	130.00	350.0	120.0	0.0328	Open
P7375	J57_20	J57_21	130.00	500.0	130.0	0.0497	Open
P7376	J57_20	J58_20	130.00	500.0	120.0	0.0066	Open
P7377	J57_21	J57_22	130.00	350.0	120.0	0.0171	Open
P7378	J57_21	J58_21	130.00	500.0	125.0	0.0118	Open
P7379	J57_22	J57_23	130.00	450.0	120.0	0.0285	Open
P7380	J57_22	J58_22	130.00	500.0	130.0	0.0116	Open
P7381	J57_23	J57_24	130.00	600.0	125.0	0.0111	Open
P7382	J57_23	J58_23	130.00	500.0	120.0	0.0177	Open
P7383	J57_24	J57_25	130.00	350.0	120.0	0.0043	Open
P7384	J57_24	J58_24	130.00	450.0	125.0	0.0057	Open
P7385	J57_25	J57_26	130.00	600.0	120.0	0.0390	Open
P7386	J57_25	J58_25	130.00	600.0	130.0	0.0324	Open
P7387	J57_26	J57_27	130.00	350.0	130.0	0.0497	Open
P7388	J57_26	J58_26	130.00	400.0	120.0	0.0429	Open
P7389	J57_27	J57_28	130.00	500.0	120.0	0.0022	Open
P7390	J57_27	J58_27	130.00	350.0	120.0	0.0065	Open
P7391	J57_28	J57_29	130.00	450.0	125.0	0.0320	Open
P7392	J57_28	J58_28	130.00	600.0	130.0	0.0343	Open
P7393	J57_29	J57_30	130.00	500.0	120.0	0.0444	Open
P7394	J57_29	J58_29	130.00	500.0	125.0	0.0250	Open
P7395	J57_30	J57_31	130.00	350.0	130.0	0.0415	Open
P7396	J57_30	J58_30	130.00	350.0	120.0	0.0108	Open
P7397	J57_31	J57_32	130.00	400.0	120.0	0.0467	Open
P7398	J57_31	J58_31	130.00	450.0	120.0	0.0092	Open
P7399	J57_32	J57_33	130.00	350.0	120.0	0.0410	Open
P7400	J57_32	J58_32	130.00	450.0	125.0	0.0435	Open
P7401	J57_33	J57_34	130.00	400.0	125.0	0.0431	Open
P7402	J57_33	J58_33	130.00	500.0	125.0	0.0476	Open
P7403	J57_34	J57_35	130.00	600.0	125.0	0.0036	Open
P7404	J57_34	J58_34	130.00	450.0	130.0	0.0089	Open
P7405	J57_35	J57_36	130.00	450.0	120.0	0.0299	Open
P7406	J57_35	J58_35	130.00	400.0	125.0	0.0123	Open
P7407	J57_36	J57_37	130.00	400.0	130.0	0.0500	Open
P7408	J57_36	J58_36	130.00	350.0	120.0	0.0105	Open
P7409	J57_37	J57_38	130.00	350.0	120.0	0.0453	Open
P7410	J57_37	J58_37	130.00	450.0	130.0	0.0038	Open
P7411	J57_38	J57_39	130.00	350.0	125.0	0.0444	Open
P7412	J57_38	J58_38	130.00	300.0	120.0	0.0432	Open
P7413	J57_39	J57_40	130.00	400.0	125.0	0.0376	Open
P7414	J57_39	J58_39	130.00	600.0	120.0	0.0209	Open
P7415	J57_40	J57_41	130.00	500.0	120.0	0.0264	Open
P7416	J57_40	J58_40	130.00	500.0	120.0	0.0203	Open
P7417	J57_41	J57_42	130.00	600.0	130.0	0.0119	Open
P7418	J57_41	J58_41	130.00	400.0	120.0	0.0432	Open
P7419	J57_42	J57_43	130.00	350.0	125.0	0.0228	Open
P7420	J57_42	J58_42	130.00	450.0	120.0	0.0160	Open
P7421	J57_43	J57_44	130.00	350.0	120.0	0.0468	Open
P7422	J57_43	J58_43	130.00	400.0	130.0	0.0052	Open
P7423	J57_44	J57_45	130.00	400.0	130.0	0.0237	Open
P7424	J57_44	J58_44	130.00	600.0	125.0	0.0177	Open
P7425	J57_45	J57_46	130.00	500.0	125.0	0.0488	Open
P7426	J57_45	J58_45	130.00	600.0	125.0	0.0209	Open
P7427	J57_46	J57_47	130.00	350.0	130.0	0.0107	Open
P7428	J57_46	J58_46	130.00	350.0	125.0	0.0091	Open
P7429	J57_47	J57_48	130.00	450.0	120.0	0.0242	Open
P7430	J57_47	J58_47	130.00	300.0	120.0	0.0043	Open
P7431	J57_48	J57_49	130.00	350.0	125.0	0.0137	Open
P7432	J57_48	J58_48	130.00	500.0	130.0	0.0201	Open
P7433	J57_49	J57_50	130.00	500.0	125.0	0.0462	Open
P7434	J57_49	J58_49	130.00	500.0	120.0	0.0446	Open
P7435	J57_50	J57_51	130.00	600.0	120.0	0.0081	Open
P7436	J57_50	J58_50	130.00	600.0	130.0	0.0180	Open
P7437	J57_51	J57_52	130.00	500.0	120.0	0.0257	Open
P7438	J57_51	J58_51	130.00	400.0	120.0	0.0434	Open
P7439	J57_52	J57_53	130.00	450.0	125.0	0.0114	Open
P7440	J57_52	J58_52	130.00	500.0	130.0	0.0194	Open
P7441	J57_53	J57_54	130.00	400.0	120.0	0.0175	Open
P7442	J57_53	J58_53	130.00	350.0	120.0	0.0381	Open
P7443	J57_54	J57_55	130.00	350.0	130.0	0.0451	Open
P7444	J57_54	J58_54	130.00	400.0	125.0	0.0372	Open
P7445	J57_55	J57_56	130.00	500.0	130.0	0.0420	Open
P7446	J57_55	J58_55	130.00	450.0	125.0	0.0352	Open
P7447	J57_56	J57_57	130.00	600.0	130.0	0.0349	Open
P7448	J57_56	J58_56	130.00	450.0	125.0	0.0333	Open
P7449	J57_57	J57_58	130.00	600.0	120.0	0.0125	Open
P7450	J57_57	J58_57	130.00	500.0	120.0	0.0409	Open
P7451	J57_58	J57_59	130.00	450.0	125.0	0.0431	Open
P7452	J57_58	J58_58	130.00	450.0	130.0	0.0048	Open
P7453	J57_59	J57_60	130.00	350.0	120.0	0.0456	Open
P7454	J57_59	J58_59	130.00	300.0	120.0	0.0283	Open
P7455	J57_60	J57_61	130.00	500.0	120.0	0.0463	Open
P7456	J57_60	J58_60	130.00	300.0	130.0	0.0058	Open
P7457	J57_61	J57_62	130.00	450.0	130.0	0.0237	Open
P7458	J57_61	J58_61	130.00	400.0	125.0	0.0142	Open
P7459	J57_62	J57_63	130.00	500.0	120.0	0.0065	Open
P7460	J57_62	J58_62	130.00	300.0	125.0	0.0353	Open
P7461	J57_63	J57_64	130.00	350.0	120.0	0.0250	Open
P7462	J57_63	J58_63	130.00	300.0	120.0	0.0233	Open
P7463	J57_64	J57_65	130.00	450.0	125.0	0.0339	Open
P7464	J57_64	J58_64	130.00	500.0	120.0	0.0007	Open
P7465	J57_65	J57_66	130.00	600.0	125.0	0.0329	Open
P7466	J57_65	J58_65	130.00	500.0	125.0	0.0135	Open
P7467	J57_66	J58_66	130.00	350.0	120.0	0.0112	Open
P7468	J58_1	J58_2	130.00	500.0	125.0	0.0250	Open
P7469	J58_1	J59_1	130.00	450.0	125.0	0.0149	Open
P7470	J58_2	J58_3	130.00	300.0	130.0	0.0024	Open
P7471	J58_2	J59_2	130.00	250.0	130.0	0.1054	Open
P7472	J58_3	J58_4	130.00	250.0	130.0	0.0822	Open
P7473	J58_3	J59_3	130.00	150.0	125.0	0.0164	Open
P7474	J58_4	J58_5	130.00	150.0	130.0	0.0548	Open
P7475	J58_4	J59_4	130.00	250.0	125.0	0.0313	Open
P7476	J58_5	J58_6	130.00	150.0	125.0	0.0570	Open
P7477	J58_5	J59_5	130.00	300.0	135.0	0.0223	Open
P7478	J58_6	J58_7	130.00	200.0	140.0	0.1356	Open
P7479	J58_6	J59_6	130.00	100.0	125.0	0.1018	Open
P7480	J58_7	J58_8	130.00	300.0	135.0	0.0707	Open
P7481	J58_7	J59_7	130.00	300.0	130.0	0.1420	Open
P7482	J58_8	J58_9	130.00	300.0	135.0	0.0855	Open
P7483	J58_8	J59_8	130.00	300.0	125.0	0.0203	Open
P7484	J58_9	J58_10	130.00	600.0	120.0	0.0255	Open
P7485	J58_9	J59_9	130.00	500.0	130.0	0.0418	Open
P7486	J58_10	J58_11	130.00	250.0	135.0	0.0884	Open
P7487	J58_10	J59_10	130.00	150.0	135.0	0.0997	Open
P7488	J58_11	J58_12	130.00	200.0	135.0	0.1060	Open
P7489	J58_11	J59_11	130.00	100.0	135.0	0.0087	Open
P7490	J58_12	J58_13	130.00	300.0	135.0	0.0390	Open
P7491	J58_12	J59_12	130.00	250.0	140.0	0.1106	Open
P7492	J58_13	J58_14	130.00	100.0	140.0	0.0023	Open
P7493	J58_13	J59_13	130.00	150.0	130.0	0.1325	Open
P7494	J58_14	J58_15	130.00	100.0	130.0	0.0738	Open
P7495	J58_14	J59_14	130.00	100.0	140.0	0.0947	Open
P7496	J58_15	J58_16	130.00	100.0	125.0	0.0560	Open
P7497	J58_15	J59_15	130.00	200.0	130.0	0.0602	Open
P7498	J58_16	J58_17	130.00	200.0	125.0	0.1340	Open
P7499	J58_16	J59_16	130.00	200.0	130.0	0.1165	Open
P7500	J58_17	J58_18	130.00	350.0	130.0	0.0132	Open
P7501	J58_17	J59_17	130.00	300.0	130.0	0.0308	Open
P7502	J58_18	J58_19	130.00	300.0	140.0	0.1102	Open
P7503	J58_18	J59_18	130.00	100.0	125.0	0.0884	Open
P7504	J58_19	J58_20	130.00	300.0	140.0	0.0052	Open
P7505	J58_19	J59_19	130.00	300.0	140.0	0.0732	Open
P7506	J58_20	J58_21	130.00	300.0	140.0	0.0013	Open
P7507	J58_20	J59_20	130.00	100.0	130.0	0.1024	Open
P7508	J58_21	J58_22	130.00	150.0	130.0	0.1214	Open
P7509	J58_21	J59_21	130.00	200.0	135.0	0.0154	Open
P7510	J58_22	J58_23	130.00	300.0	140.0	0.0496	Open
P7511	J58_22	J59_22	130.00	200.0	125.0	0.1262	Open
P7512	J58_23	J58_24	130.00	200.0	130.0	0.1181	Open
P7513	J58_23	J59_23	130.00	100.0	135.0	0.0599	Open
P7514	J58_24	J58_25	130.00	100.0	140.0	0.1269	Open
P7515	J58_24	J59_24	130.00	150.0	130.0	0.0437	Open
P7516	J58_25	J58_26	130.00	500.0	130.0	0.0087	Open
P7517	J58_25	J59_25	130.00	350.0	125.0	0.0468	Open
P7518	J58_26	J58_27	130.00	300.0	140.0	0.0012	Open
P7519	J58_26	J59_26	130.00	150.0	140.0	0.0152	Open
P7520	J58_27	J58_28	130.00	250.0	140.0	0.0650	Open
P7521	J58_27	J59_27	130.00	250.0	135.0	0.1036	Open
P7522	J58_28	J58_29	130.00	100.0	140.0	0.1465	Open
P7523	J58_28	J59_28	130.00	150.0	130.0	0.1289	Open
P7524	J58_29	J58_30	130.00	300.0	140.0	0.0702	Open
P7525	J58_29	J59_29	130.00	200.0	135.0	0.0773	Open
P7526	J58_30	J58_31	130.00	100.0	130.0	0.0169	Open
P7527	J58_30	J59_30	130.00	200.0	140.0	0.0960	Open
P7528	J58_31	J58_32	130.00	250.0	125.0	0.0584	Open
P7529	J58_31	J59_31	130.00	150.0	140.0	0.1269	Open
P7530	J58_32	J58_33	130.00	100.0	135.0	0.0652	Open
P7531	J58_32	J59_32	130.00	200.0	140.0	0.1015	Open
P7532	J58_33	J58_34	130.00	450.0	125.0	0.0389	Open
P7533	J58_33	J59_33	130.00	350.0	125.0	0.0161	Open
P7534	J58_34	J58_35	130.00	200.0	130.0	0.0691	Open
P7535	J58_34	J59_34	130.00	250.0	140.0	0.1015	Open
P7536	J58_35	J58_36	130.00	250.0	130.0	0.1057	Open
P7537	J58_35	J59_35	130.00	200.0	135.0	0.1080	Open
P7538	J58_36	J58_37	130.00	200.0	130.0	0.1369	Open
P7539	J58_36	J59_36	130.00	100.0	130.0	0.0459	Open
P7540	J58_37	J58_38	130.00	300.0	125.0	0.0763	Open
P7541	J58_37	J59_37	130.00	150.0	135.0	0.1405	Open
P7542	J58_38	J58_39	130.00	200.0	125.0	0.1350	Open
P7543	J58_38	J59_38	130.00	300.0	140.0	0.0821	Open
P7544	J58_39	J58_40	130.00	250.0	135.0	0.0626	Open
P7545	J58_39	J59_39	130.00	100.0	135.0	0.0716	Open
P7546	J58_40	J58_41	130.00	300.0	125.0	0.0610	Open
P7547	J58_40	J59_40	130.00	300.0	135.0	0.0316	Open
P7548	J58_41	J58_42	130.00	300.0	120.0	0.0138	Open
P7549	J58_41	J59_41	130.00	350.0	125.0	0.0214	Open
P7550	J58_42	J58_43	130.00	250.0	135.0	0.0482	Open
P7551	J58_42	J59_42	130.00	300.0	130.0	0.0135	Open
P7552	J58_43	J58_44	130.00	150.0	135.0	0.0251	Open
P7553	J58_43	J59_43	130.00	250.0	140.0	0.1400	Open
P7554	J58_44	J58_45	130.00	300.0	125.0	0.0472	Open
P7555	J58_44	J59_44	130.00	150.0	125.0	0.1498	Open
P7556	J58_45	J58_46	130.00	250.0	130.0	0.0431	Open
P7557	J58_45	J59_45	130.00	100.0	135.0	0.1335	Open
P7558	J58_46	J58_47	130.00	200.0	140.0	0.0484	Open
P7559	J58_46	J59_46	130.00	100.0	125.0	0.1467	Open
P7560	J58_47	J58_48	130.00	150.0	135.0	0.0509	Open
P7561	J58_47	J59_47	130.00	100.0	130.0	0.0617	Open
P7562	J58_48	J58_49	130.00	150.0	140.0	0.0395	Open
P7563	J58_48	J59_48	130.00	250.0	125.0	0.0252	Open
P7564	J58_49	J58_50	130.00	400.0	120.0	0.0311	Open
P7565	J58_49	J59_49	130.00	450.0	120.0	0.0254	Open
P7566	J58_50	J58_51	130.00	300.0	130.0	0.0120	Open
P7567	J58_50	J59_50	130.00	200.0	135.0	0.0619	Open
P7568	J58_51	J58_52	130.00	250.0	140.0	0.0447	Open
P7569	J58_51	J59_51	130.00	100.0	130.0	0.1019	Open
P7570	J58_52	J58_53	130.00	250.0	135.0	0.0825	Open
P7571	J58_52	J59_52	130.00	250.0	135.0	0.0737	Open
P7572	J58_53	J58_54	130.00	100.0	135.0	0.1489	Open
P7573	J58_53	J59_53	130.00	300.0	135.0	0.0970	Open
P7574	J58_54	J58_55	130.00	200.0	130.0	0.0988	Open
P7575	J58_54	J59_54	130.00	100.0	140.0	0.1383	Open
P7576	J58_55	J58_56	130.00	150.0	125.0	0.1324	Open
P7577	J58_55	J59_55	130.00	150.0	140.0	0.1123	Open
P7578	J58_56	J58_57	130.00	250.0	140.0	0.0848	Open
P7579	J58_56	J59_56	130.00	250.0	130.0	0.1228	Open
P7580	J58_57	J58_58	130.00	450.0	125.0	0.0379	Open
P7581	J58_57	J59_57	130.00	350.0	120.0	0.0344	Open
P7582	J58_58	J58_59	130.00	250.0	135.0	0.0519	Open
P7583	J58_58	J59_58	130.00	250.0	125.0	0.1059	Open
P7584	J58_59	J58_60	130.00	100.0	140.0	0.1273	Open
P7585	J58_59	J59_59	130.00	200.0	135.0	0.0023	Open
P7586	J58_60	J58_61	130.00	200.0	125.0	0.0568	Open
P7587	J58_60	J59_60	130.00	300.0	130.0	0.0953	Open
P7588	J58_61	J58_62	130.00	250.0	140.0	0.0331	Open
P7589	J58_61	J59_61	130.00	150.0	130.0	0.0383	Open
P7590	J58_62	J58_63	130.00	150.0	125.0	0.0964	Open
P7591	J58_62	J59_62	130.00	300.0	130.0	0.1170	Open
P7592	J58_63	J58_64	130.00	100.0	125.0	0.0535	Open
P7593	J58_63	J59_63	130.00	250.0	130.0	0.0898	Open
P7594	J58_64	J58_65	130.00	300.0	135.0	0.0922	Open
P7595	J58_64	J59_64	130.00	300.0	135.0	0.0355	Open
P7596	J58_65	J58_66	130.00	300.0	125.0	0.0300	Open
P7597	J58_65	J59_65	130.00	450.0	130.0	0.0277	Open
P7598	J58_66	J59_66	130.00	150.0	135.0	0.1308	Open
P7599	J59_1	J59_2	130.00	450.0	125.0	0.0215	Open
P7600	J59_1	J60_1	130.00	500.0	130.0	0.0314	Open
P7601	J59_2	J59_3	130.00	150.0	130.0	0.0895	Open
P7602	J59_2	J60_2	130.00	300.0	135.0	0.1388	Open
P7603	J59_3	J59_4	130.00	300.0	125.0	0.0080	Open
P7604	J59_3	J60_3	130.00	300.0	130.0	0.0446	Open
P7605	J59_4	J59_5	130.00	300.0	140.0	0.0920	Open
P7606	J59_4	J60_4	130.00	250.0	135.0	0.0349	Open
P7607	J59_5	J59_6	130.00	150.0	135.0	0.0090	Open
P7608	J59_5	J60_5	130.00	250.0	130.0	0.1058	Open
P7609	J59_6	J59_7	130.00	100.0	130.0	0.0186	Open
P7610	J59_6	J60_6	130.00	200.0	125.0	0.1079	Open
P7611	J59_7	J59_8	130.00	250.0	135.0	0.0261	Open
P7612	J59_7	J60_7	130.00	150.0	135.0	0.0838	Open
P7613	J59_8	J59_9	130.00	100.0	140.0	0.1069	Open
P7614	J59_8	J60_8	130.00	150.0	130.0	0.1267	Open
P7615	J59_9	J59_10	130.00	600.0	120.0	0.0180	Open
P7616	J59_9	J60_9	130.00	600.0	130.0	0.0305	Open
P7617	J59_10	J59_11	130.00	250.0	135.0	0.0738	Open
P7618	J59_10	J60_10	130.00	250.0	140.0	0.0100	Open
P7619	J59_11	J59_12	130.00	200.0	125.0	0.0854	Open
P7620	J59_11	J60_11	130.00	250.0	125.0	0.0051	Open
P7621	J59_12	J59_13	130.00	200.0	125.0	0.0126	Open
P7622	J59_12	J60_12	130.00	300.0	130.0	0.0707	Open
P7623	J59_13	J59_14	130.00	250.0	125.0	0.0682	Open
P7624	J59_13	J60_13	130.00	300.0	125.0	0.1339	Open
P7625	J59_14	J59_15	130.00	100.0	125.0	0.0969	Open
P7626	J59_14	J60_14	130.00	150.0	125.0	0.0039	Open
P7627	J59_15	J59_16	130.00	100.0	135.0	0.1262	Open
P7628	J59_15	J60_15	130.00	250.0	130.0	0.0489	Open
P7629	J59_16	J59_17	130.00	250.0	140.0	0.0171	Open
P7630	J59_16	J60_16	130.00	200.0	125.0	0.0816	Open
P7631	J59_17	J59_18	130.00	450.0	125.0	0.0090	Open
P7632	J59_17	J60_17	130.00	500.0	130.0	0.0135	Open
P7633	J59_18	J59_19	130.00	150.0	140.0	0.0537	Open
P7634	J59_18	J60_18	130.00	100.0	130.0	0.1397	Open
P7635	J59_19	J59_20	130.00	100.0	130.0	0.0665	Open
P7636	J59_19	J60_19	130.00	150.0	135.0	0.1112	Open
P7637	J59_20	J59_21	130.00	300.0	140.0	0.1143	Open
P7638	J59_20	J60_20	130.00	200.0	140.0	0.1033	Open
P7639	J59_21	J59_22	130.00	100.0	135.0	0.0294	Open
P7640	J59_21	J60_21	130.00	100.0	135.0	0.1131	Open
P7641	J59_22	J59_23	130.00	250.0	125.0	0.1427	Open
P7642	J59_22	J60_22	130.00	100.0	125.0	0.1260	Open
P7643	J59_23	J59_24	130.00	250.0	125.0	0.0767	Open
P7644	J59_23	J60_23	130.00	100.0	140.0	0.0168	Open
P7645	J59_24	J59_25	130.00	300.0	125.0	0.0569	Open
P7646	J59_24	J60_24	130.00	100.0	130.0	0.1088	Open
P7647	J59_25	J59_26	130.00	350.0	130.0	0.0163	Open
P7648	J59_25	J60_25	130.00	350.0	125.0	0.0158	Open
P7649	J59_26	J59_27	130.00	100.0	140.0	0.0997	Open
P7650	J59_26	J60_26	130.00	100.0	135.0	0.0810	Open
P7651	J59_27	J59_28	130.00	150.0	135.0	0.0202	Open
P7652	J59_27	J60_27	130.00	150.0	140.0	0.1264	Open
P7653	J59_28	J59_29	130.00	150.0	130.0	0.0336	Open
P7654	J59_28	J60_28	130.00	150.0	125.0	0.0787	Open
P7655	J59_29	J59_30	130.00	200.0	130.0	0.0505	Open
P7656	J59_29	J60_29	130.00	150.0	140.0	0.1468	Open
P7657	J59_30	J59_31	130.00	300.0	135.0	0.1346	Open
P7658	J59_30	J60_30	130.00	150.0	140.0	0.1007	Open
P7659	J59_31	J59_32	130.00	200.0	140.0	0.0934	Open
P7660	J59_31	J60_31	130.00	150.0	135.0	0.0545	Open
P7661	J59_32	J59_33	130.00	300.0	135.0	0.0993	Open
P7662	J59_32	J60_32	130.00	200.0	125.0	0.0889	Open
P7663	J59_33	J59_34	130.00	500.0	130.0	0.0166	Open
P7664	J59_33	J60_33	130.00	350.0	130.0	0.0116	Open
P7665	J59_34	J59_35	130.00	200.0	130.0	0.1275	Open
P7666	J59_34	J60_34	130.00	300.0	130.0	0.0191	Open
P7667	J59_35	J59_36	130.00	150.0	125.0	0.1203	Open
P7668	J59_35	J60_35	130.00	150.0	125.0	0.0875	Open
P7669	J59_36	J59_37	130.00	150.0	140.0	0.0757	Open
P7670	J59_36	J60_36	130.00	100.0	130.0	0.1272	Open
P7671	J59_37	J59_38	130.00	150.0	140.0	0.0765	Open
P7672	J59_37	J60_37	130.00	200.0	130.0	0.0372	Open
P7673	J59_38	J59_39	130.00	300.0	135.0	0.0061	Open
P7674	J59_38	J60_38	130.00	100.0	130.0	0.1431	Open
P7675	J59_39	J59_40	130.00	250.0	135.0	0.1193	Open
P7676	J59_39	J60_39	130.00	150.0	130.0	0.0944	Open
P7677	J59_40	J59_41	130.00	300.0	130.0	0.0012	Open
P7678	J59_40	J60_40	130.00	150.0	135.0	0.1278	Open
P7679	J59_41	J59_42	130.00	450.0	130.0	0.0407	Open
P7680	J59_41	J60_41	130.00	600.0	120.0	0.0042	Open
P7681	J59_42	J59_43	130.00	100.0	125.0	0.0258	Open
P7682	J59_42	J60_42	130.00	150.0	140.0	0.0582	Open
P7683	J59_43	J59_44	130.00	300.0	130.0	0.0066	Open
P7684	J59_43	J60_43	130.00	300.0	125.0	0.1438	Open
P7685	J59_44	J59_45	130.00	100.0	130.0	0.1010	Open
P7686	J59_44	J60_44	130.00	100.0	140.0	0.0918	Open
P7687	J59_45	J59_46	130.00	150.0	135.0	0.1289	Open
P7688	J59_45	J60_45	130.00	200.0	140.0	0.0961	Open
P7689	J59_46	J59_47	130.00	200.0	140.0	0.1397	Open
P7690	J59_46	J60_46	130.00	200.0	135.0	0.1348	Open
P7691	J59_47	J59_48	130.00	300.0	130.0	0.0659	Open
P7692	J59_47	J60_47	130.00	150.0	140.0	0.1351	Open
P7693	J59_48	J59_49	130.00	150.0	130.0	0.0290	Open
P7694	J59_48	J60_48	130.00	150.0	140.0	0.0905	Open
P7695	J59_49	J59_50	130.00	600.0	125.0	0.0023	Open
P7696	J59_49	J60_49	130.00	300.0	120.0	0.0066	Open
P7697	J59_50	J59_51	130.00	100.0	130.0	0.0848	Open
P7698	J59_50	J60_50	130.00	200.0	135.0	0.0181	Open
P7699	J59_51	J59_52	130.00	300.0	140.0	0.1265	Open
P7700	J59_51	J60_51	130.00	100.0	130.0	0.1210	Open
P7701	J59_52	J59_53	130.00	200.0	135.0	0.1299	Open
P7702	J59_52	J60_52	130.00	150.0	130.0	0.0206	Open
P7703	J59_53	J59_54	130.00	200.0	125.0	0.0353	Open
P7704	J59_53	J60_53	130.00	100.0	135.0	0.0529	Open
P7705	J59_54	J59_55	130.00	250.0	125.0	0.0879	Open
P7706	J59_54	J60_54	130.00	200.0	140.0	0.1073	Open
P7707	J59_55	J59_56	130.00	250.0	130.0	0.0566	Open
P7708	J59_55	J60_55	130.00	100.0	125.0	0.0128	Open
P7709	J59_56	J59_57	130.00	300.0	140.0	0.1078	Open
P7710	J59_56	J60_56	130.00	250.0	130.0	0.0036	Open
P7711	J59_57	J59_58	130.00	300.0	125.0	0.0281	Open
P7712	J59_57	J60_57	130.00	600.0	130.0	0.0075	Open
P7713	J59_58	J59_59	130.00	150.0	140.0	0.1176	Open
P7714	J59_58	J60_58	130.00	100.0	125.0	0.0179	Open
P7715	J59_59	J59_60	130.00	100.0	140.0	0.1137	Open
P7716	J59_59	J60_59	130.00	250.0	140.0	0.0161	Open
P7717	J59_60	J59_61	130.00	150.0	125.0	0.0180	Open
P7718	J59_60	J60_60	130.00	150.0	135.0	0.1143	Open
P7719	J59_61	J59_62	130.00	150.0	140.0	0.1028	Open
P7720	J59_61	J60_61	130.00	200.0	125.0	0.0261	Open
P7721	J59_62	J59_63	130.00	150.0	140.0	0.0824	Open
P7722	J59_62	J60_62	130.00	250.0	130.0	0.0125	Open
P7723	J59_63	J59_64	130.00	300.0	130.0	0.1342	Open
P7724	J59_63	J60_63	130.00	250.0	135.0	0.0859	Open
P7725	J59_64	J59_65	130.00	250.0	130.0	0.1390	Open
P7726	J59_64	J60_64	130.00	250.0	140.0	0.0297	Open
P7727	J59_65	J59_66	130.00	400.0	120.0	0.0375	Open
P7728	J59_65	J60_65	130.00	400.0	130.0	0.0403	Open
P7729	J59_66	J60_66	130.00	250.0	125.0	0.0098	Open
P7730	J60_1	J60_2	130.00	300.0	125.0	0.0301	Open
P7731	J60_1	J61_1	130.00	400.0	125.0	0.0450	Open
P7732	J60_2	J60_3	130.00	150.0	130.0	0.0272	Open
P7733	J60_2	J61_2	130.00	200.0	135.0	0.0483	Open
P7734	J60_3	J60_4	130.00	200.0	140.0	0.0395	Open
P7735	J60_3	J61_3	130.00	100.0	125.0	0.0582	Open
P7736	J60_4	J60_5	130.00	250.0	130.0	0.1012	Open
P7737	J60_4	J61_4	130.00	150.0	135.0	0.1231	Open
P7738	J60_5	J60_6	130.00	150.0	135.0	0.1192	Open
P7739	J60_5	J61_5	130.00	250.0	135.0	0.0865	Open
P7740	J60_6	J60_7	130.00	300.0	125.0	0.0583	Open
P7741	J60_6	J61_6	130.00	200.0	140.0	0.1191	Open
P7742	J60_7	J60_8	130.00	150.0	140.0	0.0073	Open
P7743	J60_7	J61_7	130.00	300.0	140.0	0.0606	Open
P7744	J60_8	J60_9	130.00	100.0	135.0	0.0893	Open
P7745	J60_8	J61_8	130.00	250.0	125.0	0.0819	Open
P7746	J60_9	J60_10	130.00	500.0	125.0	0.0056	Open
P7747	J60_9	J61_9	130.00	600.0	125.0	0.0182	Open
P7748	J60_10	J60_11	130.00	250.0	130.0	0.1387	Open
P7749	J60_10	J61_10	130.00	100.0	140.0	0.0559	Open
P7750	J60_11	J60_12	130.00	200.0	125.0	0.0825	Open
P7751	J60_11	J61_11	130.00	300.0	135.0	0.0839	Open
P7752	J60_12	J60_13	130.00	100.0	125.0	0.0673	Open
P7753	J60_12	J61_12	130.00	150.0	140.0	0.0497	Open
P7754	J60_13	J60_14	130.00	200.0	125.0	0.0368	Open
P7755	J60_13	J61_13	130.00	150.0	140.0	0.1335	Open
P7756	J60_14	J60_15	130.00	250.0	125.0	0.1275	Open
P7757	J60_14	J61_14	130.00	100.0	125.0	0.0289	Open
P7758	J60_15	J60_16	130.00	150.0	125.0	0.1174	Open
P7759	J60_15	J61_15	130.00	150.0	140.0	0.0906	Open
P7760	J60_16	J60_17	130.00	200.0	140.0	0.1157	Open
P7761	J60_16	J61_16	130.00	100.0	125.0	0.1429	Open
P7762	J60_17	J60_18	130.00	600.0	120.0	0.0249	Open
P7763	J60_17	J61_17	130.00	600.0	130.0	0.0194	Open
P7764	J60_18	J60_19	130.00	150.0	125.0	0.1254	Open
P7765	J60_18	J61_18	130.00	200.0	125.0	0.0878	Open
P7766	J60_19	J60_20	130.00	300.0	140.0	0.0104	Open
P7767	J60_19	J61_19	130.00	100.0	125.0	0.1157	Open
P7768	J60_20	J60_21	130.00	250.0	140.0	0.1143	Open
P7769	J60_20	J61_20	130.00	250.0	140.0	0.1029	Open
P7770	J60_21	J60_22	130.00	300.0	135.0	0.0165	Open
P7771	J60_21	J61_21	130.00	150.0	125.0	0.0002	Open
P7772	J60_22	J60_23	130.00	200.0	135.0	0.0870	Open
P7773	J60_22	J61_22	130.00	200.0	135.0	0.0634	Open
P7774	J60_23	J60_24	130.00	150.0	140.0	0.0911	Open
P7775	J60_23	J61_23	130.00	250.0	135.0	0.0113	Open
P7776	J60_24	J60_25	130.00	250.0	125.0	0.0741	Open
P7777	J60_24	J61_24	130.00	100.0	130.0	0.1056	Open
P7778	J60_25	J60_26	130.00	500.0	120.0	0.0373	Open
P7779	J60_25	J61_25	130.00	500.0	120.0	0.0463	Open
P7780	J60_26	J60_27	130.00	200.0	140.0	0.1359	Open
P7781	J60_26	J61_26	130.00	100.0	130.0	0.1423	Open
P7782	J60_27	J60_28	130.00	150.0	140.0	0.0449	Open
P7783	J60_27	J61_27	130.00	250.0	140.0	0.0213	Open
P7784	J60_28	J60_29	130.00	150.0	135.0	0.0873	Open
P7785	J60_28	J61_28	130.00	150.0	135.0	0.0350	Open
P7786	J60_29	J60_30	130.00	250.0	140.0	0.0442	Open
P7787	J60_29	J61_29	130.00	100.0	125.0	0.0959	Open
P7788	J60_30	J60_31	130.00	250.0	130.0	0.1216	Open
P7789	J60_30	J61_30	130.00	300.0	140.0	0.0804	Open
P7790	J60_31	J60_32	130.00	150.0	135.0	0.0203	Open
P7791	J60_31	J61_31	130.00	200.0	140.0	0.1134	Open
P7792	J60_32	J60_33	130.00	250.0	140.0	0.0176	Open
P7793	J60_32	J61_32	130.00	250.0	140.0	0.0405	Open
P7794	J60_33	J60_34	130.00	500.0	125.0	0.0055	Open
P7795	J60_33	J61_33	130.00	600.0	125.0	0.0368	Open
P7796	J60_34	J60_35	130.00	100.0	140.0	0.0759	Open
P7797	J60_34	J61_34	130.00	300.0	140.0	0.0886	Open
P7798	J60_35	J60_36	130.00	250.0	125.0	0.1380	Open
P7799	J60_35	J61_35	130.00	300.0	135.0	0.0258	Open
P7800	J60_36	J60_37	130.00	250.0	130.0	0.1021	Open
P7801	J60_36	J61_36	130.00	300.0	135.0	0.1102	Open
P7802	J60_37	J60_38	130.00	300.0	135.0	0.0546	Open
P7803	J60_37	J61_37	130.00	150.0	140.0	0.0868	Open
P7804	J60_38	J60_39	130.00	150.0	135.0	0.0515	Open
P7805	J60_38	J61_38	130.00	200.0	125.0	0.0396	Open
P7806	J60_39	J60_40	130.00	100.0	140.0	0.0323	Open
P7807	J60_39	J61_39	130.00	200.0	140.0	0.0089	Open
P7808	J60_40	J60_41	130.00	200.0	140.0	0.0541	Open
P7809	J60_40	J61_40	130.00	250.0	135.0	0.0442	Open
P7810	J60_41	J60_42	130.00	400.0	130.0	0.0236	Open
P7811	J60_41	J61_41	130.00	300.0	125.0	0.0328	Open
P7812	J60_42	J60_43	130.00	300.0	125.0	0.0060	Open
P7813	J60_42	J61_42	130.00	200.0	125.0	0.1155	Open
P7814	J60_43	J60_44	130.00	250.0	135.0	0.1464	Open
P7815	J60_43	J61_43	130.00	100.0	135.0	0.0645	Open
P7816	J60_44	J60_45	130.00	300.0	130.0	0.1119	Open
P7817	J60_44	J61_44	130.00	150.0	140.0	0.1450	Open
P7818	J60_45	J60_46	130.00	200.0	140.0	0.1296	Open
P7819	J60_45	J61_45	130.00	300.0	135.0	0.0846	Open
P7820	J60_46	J60_47	130.00	200.0	140.0	0.1250	Open
P7821	J60_46	J61_46	130.00	250.0	130.0	0.1246	Open
P7822	J60_47	J60_48	130.00	200.0	140.0	0.0987	Open
P7823	J60_47	J61_47	130.00	100.0	140.0	0.1321	Open
P7824	J60_48	J60_49	130.00	200.0	125.0	0.0336	Open
P7825	J60_48	J61_48	130.00	300.0	140.0	0.1121	Open
P7826	J60_49	J60_50	130.00	450.0	125.0	0.0058	Open
P7827	J60_49	J61_49	130.00	500.0	125.0	0.0214	Open
P7828	J60_50	J60_51	130.00	150.0	135.0	0.1361	Open
P7829	J60_50	J61_50	130.00	200.0	130.0	0.1095	Open
P7830	J60_51	J60_52	130.00	150.0	125.0	0.1050	Open
P7831	J60_51	J61_51	130.00	300.0	130.0	0.1059	Open
P7832	J60_52	J60_53	130.00	100.0	140.0	0.0422	Open
P7833	J60_52	J61_52	130.00	100.0	125.0	0.0717	Open
P7834	J60_53	J60_54	130.00	300.0	125.0	0.1498	Open
P7835	J60_53	J61_53	130.00	200.0	130.0	0.0881	Open
P7836	J60_54	J60_55	130.00	300.0	140.0	0.1463	Open
P7837	J60_54	J61_54	130.00	300.0	125.0	0.0784	Open
P7838	J60_55	J60_56	130.00	300.0	125.0	0.0670	Open
P7839	J60_55	J61_55	130.00	200.0	140.0	0.0213	Open
P7840	J60_56	J60_57	130.00	300.0	135.0	0.0650	Open
P7841	J60_56	J61_56	130.00	200.0	135.0	0.1277	Open
P7842	J60_57	J60_58	130.00	300.0	130.0	0.0408	Open
P7843	J60_57	J61_57	130.00	500.0	130.0	0.0192	Open
P7844	J60_58	J60_59	130.00	300.0	125.0	0.0045	Open
P7845	J60_58	J61_58	130.00	200.0	135.0	0.0553	Open
P7846	J60_59	J60_60	130.00	100.0	135.0	0.1121	Open
P7847	J60_59	J61_59	130.00	250.0	140.0	0.0006	Open
P7848	J60_60	J60_61	130.00	100.0	135.0	0.1049	Open
P7849	J60_60	J61_60	130.00	250.0	125.0	0.0771	Open
P7850	J60_61	J60_62	130.00	150.0	125.0	0.1205	Open
P7851	J60_61	J61_61	130.00	100.0	130.0	0.0390	Open
P7852	J60_62	J60_63	130.00	150.0	125.0	0.1130	Open
P7853	J60_62	J61_62	130.00	250.0	130.0	0.0311	Open
P7854	J60_63	J60_64	130.00	200.0	130.0	0.1199	Open
P7855	J60_63	J61_63	130.00	250.0	130.0	0.0958	Open
P7856	J60_64	J60_65	130.00	150.0	135.0	0.0550	Open
P7857	J60_64	J61_64	130.00	150.0	135.0	0.0643	Open
P7858	J60_65	J60_66	130.00	300.0	125.0	0.0276	Open
P7859	J60_65	J61_65	130.00	400.0	130.0	0.0192	Open
P7860	J60_66	J61_66	130.00	300.0	130.0	0.0971	Open
P7861	J61_1	J61_2	130.00	400.0	130.0	0.0270	Open
P7862	J61_1	J62_1	130.00	500.0	125.0	0.0377	Open
P7863	J61_2	J61_3	130.00	150.0	130.0	0.1273	Open
P7864	J61_2	J62_2	130.00	100.0	130.0	0.0223	Open
P7865	J61_3	J61_4	130.00	250.0	130.0	0.0503	Open
P7866	J61_3	J62_3	130.00	250.0	135.0	0.0302	Open
P7867	J61_4	J61_5	130.00	300.0	130.0	0.1204	Open
P7868	J61_4	J62_4	130.00	100.0	140.0	0.0029	Open
P7869	J61_5	J61_6	130.00	250.0	140.0	0.1260	Open
P7870	J61_5	J62_5	130.00	100.0	135.0	0.0291	Open
P7871	J61_6	J61_7	130.00	250.0	135.0	0.0768	Open
P7872	J61_6	J62_6	130.00	150.0	135.0	0.0555	Open
P7873	J61_7	J61_8	130.00	250.0	130.0	0.0929	Open
P7874	J61_7	J62_7	130.00	100.0	135.0	0.0942	Open
P7875	J61_8	J61_9	130.00	250.0	140.0	0.0005	Open
P7876	J61_8	J62_8	130.00	300.0	130.0	0.0864	Open
P7877	J61_9	J61_10	130.00	500.0	130.0	0.0024	Open
P7878	J61_9	J62_9	130.00	300.0	120.0	0.0469	Open
P7879	J61_10	J61_11	130.00	250.0	130.0	0.0765	Open
P7880	J61_10	J62_10	130.00	100.0	135.0	0.1264	Open
P7881	J61_11	J61_12	130.00	300.0	130.0	0.0652	Open
P7882	J61_11	J62_11	130.00	100.0	140.0	0.0028	Open
P7883	J61_12	J61_13	130.00	250.0	130.0	0.0647	Open
P7884	J61_12	J62_12	130.00	250.0	125.0	0.1129	Open
P7885	J61_13	J61_14	130.00	100.0	140.0	0.1442	Open
P7886	J61_13	J62_13	130.00	200.0	135.0	0.1321	Open
P7887	J61_14	J61_15	130.00	100.0	135.0	0.0709	Open
P7888	J61_14	J62_14	130.00	300.0	140.0	0.0674	Open
P7889	J61_15	J61_16	130.00	300.0	125.0	0.0362	Open
P7890	J61_15	J62_15	130.00	200.0	135.0	0.1095	Open
P7891	J61_16	J61_17	130.00	150.0	135.0	0.0386	Open
P7892	J61_16	J62_16	130.00	300.0	135.0	0.1125	Open
P7893	J61_17	J61_18	130.00	450.0	130.0	0.0401	Open
P7894	J61_17	J62_17	130.00	500.0	125.0	0.0031	Open
P7895	J61_18	J61_19	130.00	250.0	125.0	0.0971	Open
P7896	J61_18	J62_18	130.00	150.0	135.0	0.1195	Open
P7897	J61_19	J61_20	130.00	100.0	125.0	0.0179	Open
P7898	J61_19	J62_19	130.00	150.0	130.0	0.0347	Open
P7899	J61_20	J61_21	130.00	100.0	135.0	0.1378	Open
P7900	J61_20	J62_20	130.00	200.0	125.0	0.1202	Open
P7901	J61_21	J61_22	130.00	150.0	135.0	0.1360	Open
P7902	J61_21	J62_21	130.00	200.0	125.0	0.0602	Open
P7903	J61_22	J61_23	130.00	300.0	125.0	0.0911	Open
P7904	J61_22	J62_22	130.00	150.0	130.0	0.0428	Open
P7905	J61_23	J61_24	130.00	250.0	135.0	0.1374	Open
P7906	J61_23	J62_23	130.00	300.0	135.0	0.0823	Open
P7907	J61_24	J61_25	130.00	200.0	135.0	0.1212	Open
P7908	J61_24	J62_24	130.00	150.0	130.0	0.0807	Open
P7909	J61_25	J61_26	130.00	300.0	120.0	0.0497	Open
P7910	J61_25	J62_25	130.00	400.0	125.0	0.0423	Open
P7911	J61_26	J61_27	130.00	100.0	130.0	0.0515	Open
P7912	J61_26	J62_26	130.00	250.0	125.0	0.0432	Open
P7913	J61_27	J61_28	130.00	250.0	125.0	0.0822	Open
P7914	J61_27	J62_27	130.00	100.0	140.0	0.0260	Open
P7915	J61_28	J61_29	130.00	250.0	140.0	0.1248	Open
P7916	J61_28	J62_28	130.00	150.0	125.0	0.1293	Open
P7917	J61_29	J61_30	130.00	100.0	125.0	0.0479	Open
P7918	J61_29	J62_29	130.00	150.0	130.0	0.0425	Open
P7919	J61_30	J61_31	130.00	250.0	135.0	0.0923	Open
P7920	J61_30	J62_30	130.00	300.0	135.0	0.0980	Open
P7921	J61_31	J61_32	130.00	200.0	140.0	0.0924	Open
P7922	J61_31	J62_31	130.00	100.0	125.0	0.0358	Open
P7923	J61_32	J61_33	130.00	300.0	135.0	0.0151	Open
P7924	J61_32	J62_32	130.00	150.0	130.0	0.1321	Open
P7925	J61_33	J61_34	130.00	350.0	125.0	0.0058	Open
P7926	J61_33	J62_33	130.00	500.0	125.0	0.0103	Open
P7927	J61_34	J61_35	130.00	150.0	125.0	0.0808	Open
P7928	J61_34	J62_34	130.00	250.0	130.0	0.0881	Open
P7929	J61_35	J61_36	130.00	100.0	135.0	0.1120	Open
P7930	J61_35	J62_35	130.00	300.0	125.0	0.0928	Open
P7931	J61_36	J61_37	130.00	200.0	130.0	0.0569	Open
P7932	J61_36	J62_36	130.00	100.0	135.0	0.0024	Open
P7933	J61_37	J61_38	130.00	100.0	135.0	0.0213	Open
P7934	J61_37	J62_37	130.00	300.0	130.0	0.0618	Open
P7935	J61_38	J61_39	130.00	300.0	125.0	0.1474	Open
P7936	J61_38	J62_38	130.00	300.0	140.0	0.0294	Open
P7937	J61_39	J61_40	130.00	250.0	125.0	0.0834	Open
P7938	J61_39	J62_39	130.00	300.0	140.0	0.0863	Open
P7939	J61_40	J61_41	130.00	200.0	140.0	0.0883	Open
P7940	J61_40	J62_40	130.00	200.0	130.0	0.0335	Open
P7941	J61_41	J61_42	130.00	300.0	120.0	0.0444	Open
P7942	J61_41	J62_41	130.00	400.0	125.0	0.0455	Open
P7943	J61_42	J61_43	130.00	150.0	135.0	0.0328	Open
P7944	J61_42	J62_42	130.00	300.0	125.0	0.0374	Open
P7945	J61_43	J61_44	130.00	250.0	135.0	0.1074	Open
P7946	J61_43	J62_43	130.00	250.0	130.0	0.1348	Open
P7947	J61_44	J61_45	130.00	200.0	140.0	0.0539	Open
P7948	J61_44	J62_44	130.00	200.0	135.0	0.1342	Open
P7949	J61_45	J61_46	130.00	250.0	135.0	0.0328	Open
P7950	J61_45	J62_45	130.00	300.0	125.0	0.0872	Open
P7951	J61_46	J61_47	130.00	200.0	130.0	0.1293	Open
P7952	J61_46	J62_46	130.00	150.0	135.0	0.1106	Open
P7953	J61_47	J61_48	130.00	300.0	130.0	0.0180	Open
P7954	J61_47	J62_47	130.00	250.0	140.0	0.0319	Open
P7955	J61_48	J61_49	130.00	300.0	140.0	0.1271	Open
P7956	J61_48	J62_48	130.00	300.0	140.0	0.1114	Open
P7957	J61_49	J61_50	130.00	400.0	120.0	0.0464	Open
P7958	J61_49	J62_49	130.00	600.0	120.0	0.0499	Open
P7959	J61_50	J61_51	130.00	150.0	130.0	0.0868	Open
P7960	J61_50	J62_50	130.00	200.0	140.0	0.0082	Open
P7961	J61_51	J61_52	130.00	100.0	140.0	0.1093	Open
P7962	J61_51	J62_51	130.00	250.0	135.0	0.0564	Open
P7963	J61_52	J61_53	130.00	100.0	135.0	0.1348	Open
P7964	J61_52	J62_52	130.00	150.0	140.0	0.1474	Open
P7965	J61_53	J61_54	130.00	300.0	140.0	0.0264	Open
P7966	J61_53	J62_53	130.00	300.0	140.0	0.0090	Open
P7967	J61_54	J61_55	130.00	150.0	140.0	0.1394	Open
P7968	J61_54	J62_54	130.00	300.0	125.0	0.0609	Open
P7969	J61_55	J61_56	130.00	250.0	140.0	0.0467	Open
P7970	J61_55	J62_55	130.00	100.0	135.0	0.0724	Open
P7971	J61_56	J61_57	130.00	300.0	130.0	0.0625	Open
P7972	J61_56	J62_56	130.00	250.0	130.0	0.0940	Open
P7973	J61_57	J61_58	130.00	500.0	125.0	0.0456	Open
P7974	J61_57	J62_57	130.00	500.0	120.0	0.0174	Open
P7975	J61_58	J61_59	130.00	250.0	135.0	0.0320	Open
P7976	J61_58	J62_58	130.00	150.0	140.0	0.1305	Open
P7977	J61_59	J61_60	130.00	300.0	130.0	0.0757	Open
P7978	J61_59	J62_59	130.00	250.0	140.0	0.1081	Open
P7979	J61_60	J61_61	130.00	150.0	140.0	0.0445	Open
P7980	J61_60	J62_60	130.00	300.0	135.0	0.0718	Open
P7981	J61_61	J61_62	130.00	100.0	130.0	0.1476	Open
P7982	J61_61	J62_61	130.00	100.0	135.0	0.0424	Open
P7983	J61_62	J61_63	130.00	100.0	125.0	0.0631	Open
P7984	J61_62	J62_62	130.00	250.0	135.0	0.0755	Open
P7985	J61_63	J61_64	130.00	150.0	140.0	0.0656	Open
P7986	J61_63	J62_63	130.00	150.0	130.0	0.0484	Open
P7987	J61_64	J61_65	130.00	150.0	125.0	0.0780	Open
P7988	J61_64	J62_64	130.00	200.0	130.0	0.0302	Open
P7989	J61_65	J61_66	130.00	400.0	125.0	0.0007	Open
P7990	J61_65	J62_65	130.00	350.0	130.0	0.0365	Open
P7991	J61_66	J62_66	130.00	150.0	125.0	0.0103	Open
P7992	J62_1	J62_2	130.00	300.0	125.0	0.0362	Open
P7993	J62_1	J63_1	130.00	500.0	125.0	0.0047	Open
P7994	J62_2	J62_3	130.00	100.0	140.0	0.0508	Open
P7995	J62_2	J63_2	130.00	150.0	130.0	0.1209	Open
P7996	J62_3	J62_4	130.00	200.0	125.0	0.0360	Open
P7997	J62_3	J63_3	130.00	150.0	130.0	0.0258	Open
P7998	J62_4	J62_5	130.00	300.0	140.0	0.1200	Open
P7999	J62_4	J63_4	130.00	100.0	140.0	0.1308	Open
P8000	J62_5	J62_6	130.00	300.0	125.0	0.0178	Open
P8001	J62_5	J63_5	130.00	150.0	135.0	0.1105	Open
P8002	J62_6	J62_7	130.00	300.0	130.0	0.0204	Open
P8003	J62_6	J63_6	130.00	300.0	130.0	0.0141	Open
P8004	J62_7	J62_8	130.00	150.0	130.0	0.0145	Open
P8005	J62_7	J63_7	130.00	200.0	135.0	0.0929	Open
P8006	J62_8	J62_9	130.00	150.0	135.0	0.0397	Open
P8007	J62_8	J63_8	130.00	100.0	140.0	0.0632	Open
P8008	J62_9	J62_10	130.00	350.0	120.0	0.0134	Open
P8009	J62_9	J63_9	130.00	600.0	130.0	0.0270	Open
P8010	J62_10	J62_11	130.00	250.0	125.0	0.1429	Open
P8011	J62_10	J63_10	130.00	100.0	125.0	0.1056	Open
P8012	J62_11	J62_12	130.00	150.0	130.0	0.0121	Open
P8013	J62_11	J63_11	130.00	100.0	140.0	0.1221	Open
P8014	J62_12	J62_13	130.00	200.0	130.0	0.0864	Open
P8015	J62_12	J63_12	130.00	250.0	135.0	0.0917	Open
P8016	J62_13	J62_14	130.00	300.0	140.0	0.0407	Open
P8017	J62_13	J63_13	130.00	200.0	140.0	0.0775	Open
P8018	J62_14	J62_15	130.00	250.0	140.0	0.1281	Open
P8019	J62_14	J63_14	130.00	300.0	140.0	0.0798	Open
P8020	J62_15	J62_16	130.00	100.0	130.0	0.0138	Open
P8021	J62_15	J63_15	130.00	150.0	140.0	0.0496	Open
P8022	J62_16	J62_17	130.00	150.0	130.0	0.0530	Open
P8023	J62_16	J63_16	130.00	150.0	125.0	0.0802	Open
P8024	J62_17	J62_18	130.00	500.0	120.0	0.0267	Open
P8025	J62_17	J63_17	130.00	400.0	130.0	0.0204	Open
P8026	J62_18	J62_19	130.00	300.0	135.0	0.0100	Open
P8027	J62_18	J63_18	130.00	200.0	140.0	0.1021	Open
P8028	J62_19	J62_20	130.00	100.0	125.0	0.1318	Open
P8029	J62_19	J63_19	130.00	250.0	125.0	0.1452	Open
P8030	J62_20	J62_21	130.00	250.0	140.0	0.0415	Open
P8031	J62_20	J63_20	130.00	150.0	135.0	0.0416	Open
P8032	J62_21	J62_22	130.00	250.0	125.0	0.1114	Open
P8033	J62_21	J63_21	130.00	300.0	135.0	0.0773	Open
P8034	J62_22	J62_23	130.00	300.0	135.0	0.0803	Open
P8035	J62_22	J63_22	130.00	150.0	125.0	0.1268	Open
P8036	J62_23	J62_24	130.00	250.0	140.0	0.0220	Open
P8037	J62_23	J63_23	130.00	150.0	125.0	0.1033	Open
P8038	J62_24	J62_25	130.00	150.0	140.0	0.0453	Open
P8039	J62_24	J63_24	130.00	300.0	125.0	0.1488	Open
P8040	J62_25	J62_26	130.00	600.0	125.0	0.0459	Open
P8041	J62_25	J63_25	130.00	450.0	120.0	0.0292	Open
P8042	J62_26	J62_27	130.00	100.0	140.0	0.0247	Open
P8043	J62_26	J63_26	130.00	100.0	130.0	0.0116	Open
P8044	J62_27	J62_28	130.00	100.0	135.0	0.0571	Open
P8045	J62_27	J63_27	130.00	200.0	125.0	0.0866	Open
P8046	J62_28	J62_29	130.00	100.0	140.0	0.0613	Open
P8047	J62_28	J63_28	130.00	150.0	140.0	0.0915	Open
P8048	J62_29	J62_30	130.00	150.0	125.0	0.0149	Open
P8049	J62_29	J63_29	130.00	300.0	135.0	0.0068	Open
P8050	J62_30	J62_31	130.00	150.0	135.0	0.1417	Open
P8051	J62_30	J63_30	130.00	250.0	140.0	0.1387	Open
P8052	J62_31	J62_32	130.00	150.0	130.0	0.0840	Open
P8053	J62_31	J63_31	130.00	100.0	130.0	0.1219	Open
P8054	J62_32	J62_33	130.00	150.0	125.0	0.0248	Open
P8055	J62_32	J63_32	130.00	100.0	130.0	0.0909	Open
P8056	J62_33	J62_34	130.00	500.0	130.0	0.0073	Open
P8057	J62_33	J63_33	130.00	300.0	120.0	0.0146	Open
P8058	J62_34	J62_35	130.00	250.0	140.0	0.1365	Open
P8059	J62_34	J63_34	130.00	150.0	140.0	0.0948	Open
P8060	J62_35	J62_36	130.00	250.0	135.0	0.0478	Open
P8061	J62_35	J63_35	130.00	300.0	125.0	0.0144	Open
P8062	J62_36	J62_37	130.00	150.0	135.0	0.0667	Open
P8063	J62_36	J63_36	130.00	250.0	135.0	0.1400	Open
P8064	J62_37	J62_38	130.00	250.0	125.0	0.0961	Open
P8065	J62_37	J63_37	130.00	300.0	125.0	0.1408	Open
P8066	J62_38	J62_39	130.00	100.0	130.0	0.0287	Open
P8067	J62_38	J63_38	130.00	300.0	125.0	0.0902	Open
P8068	J62_39	J62_40	130.00	200.0	135.0	0.1329	Open
P8069	J62_39	J63_39	130.00	150.0	135.0	0.1354	Open
P8070	J62_40	J62_41	130.00	100.0	140.0	0.0005	Open
P8071	J62_40	J63_40	130.00	150.0	140.0	0.1219	Open
P8072	J62_41	J62_42	130.00	350.0	130.0	0.0498	Open
P8073	J62_41	J63_41	130.00	600.0	130.0	0.0234	Open
P8074	J62_42	J62_43	130.00	250.0	125.0	0.0097	Open
P8075	J62_42	J63_42	130.00	200.0	130.0	0.0270	Open
P8076	J62_43	J62_44	130.00	250.0	135.0	0.1371	Open
P8077	J62_43	J63_43	130.00	300.0	125.0	0.1019	Open
P8078	J62_44	J62_45	130.00	150.0	125.0	0.1428	Open
P8079	J62_44	J63_44	130.00	150.0	125.0	0.1111	Open
P8080	J62_45	J62_46	130.00	150.0	130.0	0.1365	Open
P8081	J62_45	J63_45	130.00	100.0	135.0	0.0155	Open
P8082	J62_46	J62_47	130.00	250.0	135.0	0.0489	Open
P8083	J62_46	J63_46	130.00	100.0	130.0	0.0178	Open
P8084	J62_47	J62_48	130.00	300.0	125.0	0.0977	Open
P8085	J62_47	J63_47	130.00	250.0	135.0	0.0793	Open
P8086	J62_48	J62_49	130.00	200.0	130.0	0.0170	Open
P8087	J62_48	J63_48	130.00	200.0	125.0	0.1473	Open
P8088	J62_49	J62_50	130.00	300.0	125.0	0.0123	Open
P8089	J62_49	J63_49	130.00	300.0	130.0	0.0103	Open
P8090	J62_50	J62_51	130.00	300.0	140.0	0.1238	Open
P8091	J62_50	J63_50	130.00	200.0	125.0	0.0177	Open
P8092	J62_51	J62_52	130.00	150.0	135.0	0.0452	Open
P8093	J62_51	J63_51	130.00	250.0	130.0	0.0691	Open
P8094	J62_52	J62_53	130.00	250.0	140.0	0.0760	Open
P8095	J62_52	J63_52	130.00	300.0	125.0	0.0310	Open
P8096	J62_53	J62_54	130.00	100.0	130.0	0.0003	Open
P8097	J62_53	J63_53	130.00	150.0	140.0	0.0437	Open
P8098	J62_54	J62_55	130.00	300.0	125.0	0.1126	Open
P8099	J62_54	J63_54	130.00	300.0	135.0	0.0354	Open
P8100	J62_55	J62_56	130.00	100.0	140.0	0.0188	Open
P8101	J62_55	J63_55	130.00	100.0	140.0	0.0198	Open
P8102	J62_56	J62_57	130.00	150.0	135.0	0.0960	Open
P8103	J62_56	J63_56	130.00	200.0	130.0	0.0454	Open
P8104	J62_57	J62_58	130.00	400.0	130.0	0.0406	Open
P8105	J62_57	J63_57	130.00	600.0	130.0	0.0366	Open
P8106	J62_58	J62_59	130.00	300.0	130.0	0.0780	Open
P8107	J62_58	J63_58	130.00	200.0	125.0	0.1025	Open
P8108	J62_59	J62_60	130.00	150.0	140.0	0.0275	Open
P8109	J62_59	J63_59	130.00	300.0	130.0	0.0951	Open
P8110	J62_60	J62_61	130.00	300.0	125.0	0.0137	Open
P8111	J62_60	J63_60	130.00	150.0	125.0	0.0978	Open
P8112	J62_61	J62_62	130.00	150.0	125.0	0.0937	Open
P8113	J62_61	J63_61	130.00	250.0	140.0	0.0484	Open
P8114	J62_62	J62_63	130.00	100.0	125.0	0.0960	Open
P8115	J62_62	J63_62	130.00	250.0	135.0	0.0834	Open
P8116	J62_63	J62_64	130.00	250.0	140.0	0.0614	Open
P8117	J62_63	J63_63	130.00	100.0	125.0	0.0945	Open
P8118	J62_64	J62_65	130.00	200.0	125.0	0.1343	Open
P8119	J62_64	J63_64	130.00	100.0	135.0	0.0266	Open
P8120	J62_65	J62_66	130.00	400.0	125.0	0.0382	Open
P8121	J62_65	J63_65	130.00	600.0	130.0	0.0251	Open
P8122	J62_66	J63_66	130.00	100.0	135.0	0.0414	Open
P8123	J63_1	J63_2	130.00	450.0	120.0	0.0483	Open
P8124	J63_1	J64_1	130.00	300.0	130.0	0.0186	Open
P8125	J63_2	J63_3	130.00	150.0	140.0	0.0793	Open
P8126	J63_2	J64_2	130.00	200.0	125.0	0.0036	Open
P8127	J63_3	J63_4	130.00	100.0	130.0	0.0375	Open
P8128	J63_3	J64_3	130.00	300.0	135.0	0.0368	Open
P8129	J63_4	J63_5	130.00	300.0	140.0	0.1395	Open
P8130	J63_4	J64_4	130.00	150.0	130.0	0.1489	Open
P8131	J63_5	J63_6	130.00	200.0	135.0	0.1277	Open
P8132	J63_5	J64_5	130.00	250.0	135.0	0.0505	Open
P8133	J63_6	J63_7	130.00	300.0	130.0	0.0557	Open
P8134	J63_6	J64_6	130.00	200.0	125.0	0.0693	Open
P8135	J63_7	J63_8	130.00	250.0	135.0	0.0442	Open
P8136	J63_7	J64_7	130.00	300.0	130.0	0.1235	Open
P8137	J63_8	J63_9	130.00	100.0	140.0	0.0658	Open
P8138	J63_8	J64_8	130.00	300.0	140.0	0.0748	Open
P8139	J63_9	J63_10	130.00	450.0	125.0	0.0046	Open
P8140	J63_9	J64_9	130.00	350.0	120.0	0.0067	Open
P8141	J63_10	J63_11	130.00	200.0	125.0	0.0960	Open
P8142	J63_10	J64_10	130.00	200.0	130.0	0.0476	Open
P8143	J63_11	J63_12	130.00	150.0	135.0	0.1315	Open
P8144	J63_11	J64_11	130.00	250.0	130.0	0.0183	Open
P8145	J63_12	J63_13	130.00	150.0	135.0	0.0750	Open
P8146	J63_12	J64_12	130.00	200.0	130.0	0.0714	Open
P8147	J63_13	J63_14	130.00	200.0	140.0	0.1229	Open
P8148	J63_13	J64_13	130.00	250.0	130.0	0.1253	Open
P8149	J63_14	J63_15	130.00	100.0	140.0	0.1291	Open
P8150	J63_14	J64_14	130.00	100.0	130.0	0.0340	Open
P8151	J63_15	J63_16	130.00	100.0	125.0	0.0309	Open
P8152	J63_15	J64_15	130.00	100.0	130.0	0.0291	Open
P8153	J63_16	J63_17	130.00	250.0	140.0	0.1484	Open
P8154	J63_16	J64_16	130.00	150.0	125.0	0.0751	Open
P8155	J63_17	J63_18	130.00	500.0	125.0	0.0212	Open
P8156	J63_17	J64_17	130.00	450.0	125.0	0.0055	Open
P8157	J63_18	J63_19	130.00	250.0	125.0	0.0003	Open
P8158	J63_18	J64_18	130.00	300.0	130.0	0.0894	Open
P8159	J63_19	J63_20	130.00	250.0	130.0	0.1481	Open
P8160	J63_19	J64_19	130.00	150.0	135.0	0.0871	Open
P8161	J63_20	J63_21	130.00	150.0	125.0	0.1446	Open
P8162	J63_20	J64_20	130.00	250.0	125.0	0.1006	Open
P8163	J63_21	J63_22	130.00	250.0	125.0	0.0531	Open
P8164	J63_21	J64_21	130.00	250.0	130.0	0.0593	Open
P8165	J63_22	J63_23	130.00	200.0	140.0	0.1311	Open
P8166	J63_22	J64_22	130.00	150.0	135.0	0.0129	Open
P8167	J63_23	J63_24	130.00	300.0	125.0	0.1123	Open
P8168	J63_23	J64_23	130.00	100.0	135.0	0.0397	Open
P8169	J63_24	J63_25	130.00	150.0	125.0	0.0418	Open
P8170	J63_24	J64_24	130.00	150.0	140.0	0.1340	Open
P8171	J63_25	J63_26	130.00	600.0	125.0	0.0240	Open
P8172	J63_25	J64_25	130.00	350.0	130.0	0.0402	Open
P8173	J63_26	J63_27	130.00	100.0	130.0	0.1383	Open
P8174	J63_26	J64_26	130.00	150.0	140.0	0.1126	Open
P8175	J63_27	J63_28	130.00	100.0	125.0	0.0541	Open
P8176	J63_27	J64_27	130.00	100.0	140.0	0.0985	Open
P8177	J63_28	J63_29	130.00	100.0	135.0	0.0414	Open
P8178	J63_28	J64_28	130.00	300.0	140.0	0.0963	Open
P8179	J63_29	J63_30	130.00	200.0	140.0	0.1035	Open
P8180	J63_29	J64_29	130.00	150.0	125.0	0.0525	Open
P8181	J63_30	J63_31	130.00	100.0	140.0	0.0443	Open
P8182	J63_30	J64_30	130.00	250.0	130.0	0.1135	Open
P8183	J63_31	J63_32	130.00	150.0	140.0	0.1377	Open
P8184	J63_31	J64_31	130.00	300.0	130.0	0.1237	Open
P8185	J63_32	J63_33	130.00	250.0	130.0	0.0543	Open
P8186	J63_32	J64_32	130.00	100.0	135.0	0.0074	Open
P8187	J63_33	J63_34	130.00	500.0	125.0	0.0377	Open
P8188	J63_33	J64_33	130.00	400.0	120.0	0.0206	Open
P8189	J63_34	J63_35	130.00	300.0	135.0	0.1368	Open
P8190	J63_34	J64_34	130.00	100.0	130.0	0.1474	Open
P8191	J63_35	J63_36	130.00	150.0	125.0	0.0684	Open
P8192	J63_35	J64_35	130.00	200.0	135.0	0.0735	Open
P8193	J63_36	J63_37	130.00	100.0	135.0	0.0037	Open
P8194	J63_36	J64_36	130.00	150.0	135.0	0.0353	Open
P8195	J63_37	J63_38	130.00	100.0	125.0	0.0958	Open
P8196	J63_37	J64_37	130.00	250.0	130.0	0.1039	Open
P8197	J63_38	J63_39	130.00	150.0	140.0	0.0395	Open
P8198	J63_38	J64_38	130.00	100.0	140.0	0.1097	Open
P8199	J63_39	J63_40	130.00	200.0	125.0	0.1255	Open
P8200	J63_39	J64_39	130.00	300.0	125.0	0.1238	Open
P8201	J63_40	J63_41	130.00	200.0	135.0	0.1241	Open
P8202	J63_40	J64_40	130.00	250.0	135.0	0.1072	Open
P8203	J63_41	J63_42	130.00	600.0	125.0	0.0378	Open
P8204	J63_41	J64_41	130.00	600.0	120.0	0.0476	Open
P8205	J63_42	J63_43	130.00	150.0	140.0	0.1108	Open
P8206	J63_42	J64_42	130.00	150.0	130.0	0.0778	Open
P8207	J63_43	J63_44	130.00	100.0	140.0	0.0164	Open
P8208	J63_43	J64_43	130.00	100.0	130.0	0.0562	Open
P8209	J63_44	J63_45	130.00	100.0	140.0	0.0941	Open
P8210	J63_44	J64_44	130.00	300.0	130.0	0.0403	Open
P8211	J63_45	J63_46	130.00	200.0	130.0	0.1479	Open
P8212	J63_45	J64_45	130.00	200.0	140.0	0.0335	Open
P8213	J63_46	J63_47	130.00	200.0	125.0	0.1129	Open
P8214	J63_46	J64_46	130.00	100.0	130.0	0.0292	Open
P8215	J63_47	J63_48	130.00	300.0	140.0	0.0671	Open
P8216	J63_47	J64_47	130.00	150.0	130.0	0.0990	Open
P8217	J63_48	J63_49	130.00	100.0	135.0	0.0846	Open
P8218	J63_48	J64_48	130.00	250.0	130.0	0.1067	Open
P8219	J63_49	J63_50	130.00	500.0	125.0	0.0224	Open
P8220	J63_49	J64_49	130.00	350.0	125.0	0.0495	Open
P8221	J63_50	J63_51	130.00	150.0	135.0	0.0294	Open
P8222	J63_50	J64_50	130.00	150.0	135.0	0.1353	Open
P8223	J63_51	J63_52	130.00	300.0	135.0	0.0392	Open
P8224	J63_51	J64_51	130.00	300.0	130.0	0.0326	Open
P8225	J63_52	J63_53	130.00	250.0	125.0	0.0585	Open
P8226	J63_52	J64_52	130.00	150.0	125.0	0.1420	Open
P8227	J63_53	J63_54	130.00	300.0	125.0	0.0410	Open
P8228	J63_53	J64_53	130.00	250.0	125.0	0.0756	Open
P8229	J63_54	J63_55	130.00	250.0	135.0	0.1068	Open
P8230	J63_54	J64_54	130.00	300.0	125.0	0.1375	Open
P8231	J63_55	J63_56	130.00	200.0	140.0	0.0697	Open
P8232	J63_55	J64_55	130.00	200.0	130.0	0.0016	Open
P8233	J63_56	J63_57	130.00	100.0	130.0	0.0733	Open
P8234	J63_56	J64_56	130.00	200.0	140.0	0.0336	Open
P8235	J63_57	J63_58	130.00	300.0	120.0	0.0191	Open
P8236	J63_57	J64_57	130.00	350.0	125.0	0.0446	Open
P8237	J63_58	J63_59	130.00	300.0	130.0	0.1301	Open
P8238	J63_58	J64_58	130.00	100.0	130.0	0.0021	Open
P8239	J63_59	J63_60	130.00	150.0	130.0	0.0504	Open
P8240	J63_59	J64_59	130.00	150.0	135.0	0.0989	Open
P8241	J63_60	J63_61	130.00	250.0	140.0	0.1141	Open
P8242	J63_60	J64_60	130.00	300.0	140.0	0.1461	Open
P8243	J63_61	J63_62	130.00	100.0	125.0	0.0306	Open
P8244	J63_61	J64_61	130.00	100.0	125.0	0.1339	Open
P8245	J63_62	J63_63	130.00	250.0	135.0	0.0898	Open
P8246	J63_62	J64_62	130.00	150.0	140.0	0.0226	Open
P8247	J63_63	J63_64	130.00	150.0	140.0	0.1020	Open
P8248	J63_63	J64_63	130.00	150.0	140.0	0.0832	Open
P8249	J63_64	J63_65	130.00	300.0	130.0	0.0995	Open
P8250	J63_64	J64_64	130.00	300.0	125.0	0.0549	Open
P8251	J63_65	J63_66	130.00	500.0	130.0	0.0437	Open
P8252	J63_65	J64_65	130.00	450.0	130.0	0.0052	Open
P8253	J63_66	J64_66	130.00	200.0	130.0	0.1123	Open
P8254	J64_1	J64_2	130.00	300.0	120.0	0.0365	Open
P8255	J64_1	J65_1	130.00	350.0	130.0	0.0091	Open
P8256	J64_2	J64_3	130.00	100.0	130.0	0.0776	Open
P8257	J64_2	J65_2	130.00	200.0	130.0	0.0399	Open
P8258	J64_3	J64_4	130.00	300.0	125.0	0.0804	Open
P8259	J64_3	J65_3	130.00	250.0	130.0	0.1451	Open
P8260	J64_4	J64_5	130.00	300.0	140.0	0.1031	Open
P8261	J64_4	J65_4	130.00	100.0	140.0	0.1036	Open
P8262	J64_5	J64_6	130.00	100.0	135.0	0.1238	Open
P8263	J64_5	J65_5	130.00	250.0	140.0	0.1030	Open
P8264	J64_6	J64_7	130.00	150.0	135.0	0.0588	Open
P8265	J64_6	J65_6	130.00	200.0	125.0	0.0091	Open
P8266	J64_7	J64_8	130.00	300.0	140.0	0.0298	Open
P8267	J64_7	J65_7	130.00	100.0	130.0	0.1153	Open
P8268	J64_8	J64_9	130.00	250.0	135.0	0.0534	Open
P8269	J64_8	J65_8	130.00	150.0	135.0	0.0633	Open
P8270	J64_9	J64_10	130.00	400.0	120.0	0.0185	Open
P8271	J64_9	J65_9	130.00	300.0	125.0	0.0022	Open
P8272	J64_10	J64_11	130.00	300.0	140.0	0.0285	Open
P8273	J64_10	J65_10	130.00	150.0	125.0	0.0605	Open
P8274	J64_11	J64_12	130.00	150.0	135.0	0.0289	Open
P8275	J64_11	J65_11	130.00	100.0	140.0	0.1150	Open
P8276	J64_12	J64_13	130.00	250.0	125.0	0.0929	Open
P8277	J64_12	J65_12	130.00	250.0	125.0	0.0158	Open
P8278	J64_13	J64_14	130.00	100.0	140.0	0.0277	Open
P8279	J64_13	J65_13	130.00	150.0	130.0	0.0619	Open
P8280	J64_14	J64_15	130.00	300.0	130.0	0.1420	Open
P8281	J64_14	J65_14	130.00	100.0	135.0	0.1494	Open
P8282	J64_15	J64_16	130.00	200.0	130.0	0.0150	Open
P8283	J64_15	J65_15	130.00	300.0	135.0	0.0048	Open
P8284	J64_16	J64_17	130.00	250.0	125.0	0.0069	Open
P8285	J64_16	J65_16	130.00	250.0	135.0	0.1437	Open
P8286	J64_17	J64_18	130.00	500.0	130.0	0.0126	Open
P8287	J64_17	J65_17	130.00	450.0	125.0	0.0032	Open
P8288	J64_18	J64_19	130.00	100.0	135.0	0.0622	Open
P8289	J64_18	J65_18	130.00	250.0	130.0	0.0792	Open
P8290	J64_19	J64_20	130.00	150.0	140.0	0.1484	Open
P8291	J64_19	J65_19	130.00	300.0	135.0	0.1469	Open
P8292	J64_20	J64_21	130.00	250.0	135.0	0.0240	Open
P8293	J64_20	J65_20	130.00	250.0	130.0	0.1206	Open
P8294	J64_21	J64_22	130.00	150.0	130.0	0.0953	Open
P8295	J64_21	J65_21	130.00	100.0	135.0	0.0922	Open
P8296	J64_22	J64_23	130.00	100.0	135.0	0.0395	Open
P8297	J64_22	J65_22	130.00	100.0	140.0	0.1218	Open
P8298	J64_23	J64_24	130.00	150.0	130.0	0.0865	Open
P8299	J64_23	J65_23	130.00	150.0	140.0	0.1172	Open
P8300	J64_24	J64_25	130.00	250.0	130.0	0.0016	Open
P8301	J64_24	J65_24	130.00	150.0	140.0	0.0937	Open
P8302	J64_25	J64_26	130.00	400.0	125.0	0.0455	Open
P8303	J64_25	J65_25	130.00	500.0	130.0	0.0210	Open
P8304	J64_26	J64_27	130.00	200.0	130.0	0.0751	Open
P8305	J64_26	J65_26	130.00	200.0	125.0	0.0704	Open
P8306	J64_27	J64_28	130.00	150.0	125.0	0.0752	Open
P8307	J64_27	J65_27	130.00	300.0	140.0	0.1147	Open
P8308	J64_28	J64_29	130.00	200.0	130.0	0.0136	Open
P8309	J64_28	J65_28	130.00	200.0	130.0	0.0465	Open
P8310	J64_29	J64_30	130.00	150.0	125.0	0.0919	Open
P8311	J64_29	J65_29	130.00	150.0	130.0	0.1038	Open
P8312	J64_30	J64_31	130.00	250.0	135.0	0.1423	Open
P8313	J64_30	J65_30	130.00	300.0	130.0	0.0732	Open
P8314	J64_31	J64_32	130.00	300.0	130.0	0.0800	Open
P8315	J64_31	J65_31	130.00	150.0	140.0	0.1387	Open
P8316	J64_32	J64_33	130.00	300.0	140.0	0.1370	Open
P8317	J64_32	J65_32	130.00	200.0	130.0	0.0097	Open
P8318	J64_33	J64_34	130.00	400.0	130.0	0.0096	Open
P8319	J64_33	J65_33	130.00	450.0	120.0	0.0436	Open
P8320	J64_34	J64_35	130.00	150.0	130.0	0.1347	Open
P8321	J64_34	J65_34	130.00	200.0	140.0	0.1369	Open
P8322	J64_35	J64_36	130.00	100.0	135.0	0.0109	Open
P8323	J64_35	J65_35	130.00	100.0	140.0	0.0871	Open
P8324	J64_36	J64_37	130.00	100.0	130.0	0.0848	Open
P8325	J64_36	J65_36	130.00	150.0	130.0	0.0803	Open
P8326	J64_37	J64_38	130.00	150.0	130.0	0.0963	Open
P8327	J64_37	J65_37	130.00	200.0	125.0	0.1249	Open
P8328	J64_38	J64_39	130.00	250.0	130.0	0.0225	Open
P8329	J64_38	J65_38	130.00	150.0	125.0	0.1428	Open
P8330	J64_39	J64_40	130.00	200.0	140.0	0.1249	Open
P8331	J64_39	J65_39	130.00	300.0	125.0	0.0520	Open
P8332	J64_40	J64_41	130.00	250.0	130.0	0.1488	Open
P8333	J64_40	J65_40	130.00	100.0	130.0	0.1380	Open
P8334	J64_41	J64_42	130.00	500.0	120.0	0.0447	Open
P8335	J64_41	J65_41	130.00	600.0	125.0	0.0435	Open
P8336	J64_42	J64_43	130.00	250.0	135.0	0.0317	Open
P8337	J64_42	J65_42	130.00	300.0	140.0	0.1455	Open
P8338	J64_43	J64_44	130.00	100.0	130.0	0.1432	Open
P8339	J64_43	J65_43	130.00	200.0	130.0	0.1353	Open
P8340	J64_44	J64_45	130.00	150.0	135.0	0.0946	Open
P8341	J64_44	J65_44	130.00	200.0	135.0	0.0775	Open
P8342	J64_45	J64_46	130.00	100.0	140.0	0.0553	Open
P8343	J64_45	J65_45	130.00	200.0	125.0	0.1143	Open
P8344	J64_46	J64_47	130.00	100.0	140.0	0.1393	Open
P8345	J64_46	J65_46	130.00	100.0	140.0	0.0370	Open
P8346	J64_47	J64_48	130.00	100.0	135.0	0.0745	Open
P8347	J64_47	J65_47	130.00	250.0	140.0	0.0307	Open
P8348	J64_48	J64_49	130.00	200.0	140.0	0.1356	Open
P8349	J64_48	J65_48	130.00	200.0	125.0	0.0154	Open
P8350	J64_49	J64_50	130.00	400.0	130.0	0.0316	Open
P8351	J64_49	J65_49	130.00	600.0	130.0	0.0384	Open
P8352	J64_50	J64_51	130.00	100.0	125.0	0.1278	Open
P8353	J64_50	J65_50	130.00	200.0	140.0	0.0966	Open
P8354	J64_51	J64_52	130.00	150.0	140.0	0.0855	Open
P8355	J64_51	J65_51	130.00	150.0	140.0	0.0136	Open
P8356	J64_52	J64_53	130.00	250.0	140.0	0.0254	Open
P8357	J64_52	J65_52	130.00	100.0	130.0	0.0774	Open
P8358	J64_53	J64_54	130.00	200.0	135.0	0.0939	Open
P8359	J64_53	J65_53	130.00	300.0	140.0	0.1398	Open
P8360	J64_54	J64_55	130.00	100.0	125.0	0.1404	Open
P8361	J64_54	J65_54	130.00	250.0	130.0	0.0362	Open
P8362	J64_55	J64_56	130.00	200.0	135.0	0.0342	Open
P8363	J64_55	J65_55	130.00	300.0	125.0	0.1146	Open
P8364	J64_56	J64_57	130.00	300.0	135.0	0.0437	Open
P8365	J64_56	J65_56	130.00	150.0	125.0	0.0474	Open
P8366	J64_57	J64_58	130.00	350.0	125.0	0.0431	Open
P8367	J64_57	J65_57	130.00	350.0	130.0	0.0481	Open
P8368	J64_58	J64_59	130.00	250.0	125.0	0.0624	Open
P8369	J64_58	J65_58	130.00	250.0	135.0	0.0245	Open
P8370	J64_59	J64_60	130.00	150.0	135.0	0.0308	Open
P8371	J64_59	J65_59	130.00	200.0	140.0	0.0797	Open
P8372	J64_60	J64_61	130.00	300.0	140.0	0.1169	Open
P8373	J64_60	J65_60	130.00	150.0	130.0	0.1063	Open
P8374	J64_61	J64_62	130.00	200.0	135.0	0.0592	Open
P8375	J64_61	J65_61	130.00	100.0	125.0	0.0079	Open
P8376	J64_62	J64_63	130.00	300.0	130.0	0.0553	Open
P8377	J64_62	J65_62	130.00	200.0	130.0	0.0549	Open
P8378	J64_63	J64_64	130.00	150.0	135.0	0.0448	Open
P8379	J64_63	J65_63	130.00	100.0	140.0	0.1282	Open
P8380	J64_64	J64_65	130.00	150.0	140.0	0.1269	Open
P8381	J64_64	J65_64	130.00	300.0	125.0	0.0691	Open
P8382	J64_65	J64_66	130.00	450.0	130.0	0.0210	Open
P8383	J64_65	J65_65	130.00	300.0	125.0	0.0050	Open
P8384	J64_66	J65_66	130.00	100.0	140.0	0.1062	Open
P8385	J65_1	J65_2	130.00	400.0	130.0	0.0251	Open
P8386	J65_1	J66_1	130.00	500.0	125.0	0.0338	Open
P8387	J65_2	J65_3	130.00	500.0	120.0	0.0117	Open
P8388	J65_2	J66_2	130.00	350.0	120.0	0.0287	Open
P8389	J65_3	J65_4	130.00	500.0	125.0	0.0300	Open
P8390	J65_3	J66_3	130.00	350.0	130.0	0.0491	Open
P8391	J65_4	J65_5	130.00	400.0	130.0	0.0168	Open
P8392	J65_4	J66_4	130.00	350.0	125.0	0.0385	Open
P8393	J65_5	J65_6	130.00	450.0	125.0	0.0441	Open
P8394	J65_5	J66_5	130.00	300.0	120.0	0.0056	Open
P8395	J65_6	J65_7	130.00	300.0	130.0	0.0234	Open
P8396	J65_6	J66_6	130.00	300.0	120.0	0.0092	Open
P8397	J65_7	J65_8	130.00	350.0	130.0	0.0375	Open
P8398	J65_7	J66_7	130.00	400.0	120.0	0.0319	Open
P8399	J65_8	J65_9	130.00	500.0	130.0	0.0460	Open
P8400	J65_8	J66_8	130.00	400.0	120.0	0.0249	Open
P8401	J65_9	J65_10	130.00	600.0	130.0	0.0392	Open
P8402	J65_9	J66_9	130.00	500.0	130.0	0.0275	Open
P8403	J65_10	J65_11	130.00	350.0	120.0	0.0169	Open
P8404	J65_10	J66_10	130.00	350.0	125.0	0.0454	Open
P8405	J65_11	J65_12	130.00	600.0	120.0	0.0423	Open
P8406	J65_11	J66_11	130.00	450.0	120.0	0.0254	Open
P8407	J65_12	J65_13	130.00	600.0	130.0	0.0012	Open
P8408	J65_12	J66_12	130.00	600.0	125.0	0.0496	Open
P8409	J65_13	J65_14	130.00	450.0	130.0	0.0047	Open
P8410	J65_13	J66_13	130.00	400.0	125.0	0.0019	Open
P8411	J65_14	J65_15	130.00	300.0	125.0	0.0180	Open
P8412	J65_14	J66_14	130.00	300.0	120.0	0.0184	Open
P8413	J65_15	J65_16	130.00	600.0	130.0	0.0305	Open
P8414	J65_15	J66_15	130.00	400.0	125.0	0.0101	Open
P8415	J65_16	J65_17	130.00	600.0	125.0	0.0141	Open
P8416	J65_16	J66_16	130.00	350.0	125.0	0.0480	Open
P8417	J65_17	J65_18	130.00	600.0	130.0	0.0047	Open
P8418	J65_17	J66_17	130.00	500.0	130.0	0.0019	Open
P8419	J65_18	J65_19	130.00	500.0	130.0	0.0056	Open
P8420	J65_18	J66_18	130.00	350.0	120.0	0.0290	Open
P8421	J65_19	J65_20	130.00	600.0	120.0	0.0480	Open
P8422	J65_19	J66_19	130.00	350.0	125.0	0.0484	Open
P8423	J65_20	J65_21	130.00	350.0	130.0	0.0275	Open
P8424	J65_20	J66_20	130.00	600.0	130.0	0.0171	Open
P8425	J65_21	J65_22	130.00	300.0	120.0	0.0131	Open
P8426	J65_21	J66_21	130.00	300.0	125.0	0.0133	Open
P8427	J65_22	J65_23	130.00	350.0	130.0	0.0343	Open
P8428	J65_22	J66_22	130.00	450.0	120.0	0.0355	Open
P8429	J65_23	J65_24	130.00	450.0	130.0	0.0254	Open
P8430	J65_23	J66_23	130.00	500.0	120.0	0.0424	Open
P8431	J65_24	J65_25	130.00	300.0	130.0	0.0096	Open
P8432	J65_24	J66_24	130.00	350.0	120.0	0.0101	Open
P8433	J65_25	J65_26	130.00	350.0	130.0	0.0396	Open
P8434	J65_25	J66_25	130.00	350.0	120.0	0.0182	Open
P8435	J65_26	J65_27	130.00	450.0	130.0	0.0310	Open
P8436	J65_26	J66_26	130.00	400.0	125.0	0.0154	Open
P8437	J65_27	J65_28	130.00	300.0	120.0	0.0277	Open
P8438	J65_27	J66_27	130.00	500.0	125.0	0.0342	Open
P8439	J65_28	J65_29	130.00	450.0	130.0	0.0456	Open
P8440	J65_28	J66_28	130.00	500.0	125.0	0.0130	Open
P8441	J65_29	J65_30	130.00	600.0	125.0	0.0416	Open
P8442	J65_29	J66_29	130.00	500.0	120.0	0.0377	Open
P8443	J65_30	J65_31	130.00	500.0	125.0	0.0017	Open
P8444	J65_30	J66_30	130.00	600.0	120.0	0.0464	Open
P8445	J65_31	J65_32	130.00	450.0	125.0	0.0290	Open
P8446	J65_31	J66_31	130.00	600.0	120.0	0.0052	Open
P8447	J65_32	J65_33	130.00	450.0	120.0	0.0361	Open
P8448	J65_32	J66_32	130.00	300.0	120.0	0.0022	Open
P8449	J65_33	J65_34	130.00	300.0	120.0	0.0194	Open
P8450	J65_33	J66_33	130.00	500.0	125.0	0.0404	Open
P8451	J65_34	J65_35	130.00	600.0	130.0	0.0372	Open
P8452	J65_34	J66_34	130.00	350.0	120.0	0.0177	Open
P8453	J65_35	J65_36	130.00	400.0	125.0	0.0344	Open
P8454	J65_35	J66_35	130.00	500.0	130.0	0.0013	Open
P8455	J65_36	J65_37	130.00	500.0	130.0	0.0406	Open
P8456	J65_36	J66_36	130.00	450.0	120.0	0.0320	Open
P8457	J65_37	J65_38	130.00	300.0	120.0	0.0469	Open
P8458	J65_37	J66_37	130.00	350.0	120.0	0.0224	Open
P8459	J65_38	J65_39	130.00	400.0	120.0	0.0237	Open
P8460	J65_38	J66_38	130.00	350.0	130.0	0.0039	Open
P8461	J65_39	J65_40	130.00	600.0	120.0	0.0431	Open
P8462	J65_39	J66_39	130.00	500.0	120.0	0.0092	Open
P8463	J65_40	J65_41	130.00	500.0	130.0	0.0109	Open
P8464	J65_40	J66_40	130.00	300.0	125.0	0.0435	Open
P8465	J65_41	J65_42	130.00	400.0	125.0	0.0434	Open
P8466	J65_41	J66_41	130.00	350.0	130.0	0.0238	Open
P8467	J65_42	J65_43	130.00	400.0	120.0	0.0033	Open
P8468	J65_42	J66_42	130.00	600.0	130.0	0.0276	Open
P8469	J65_43	J65_44	130.00	300.0	120.0	0.0330	Open
P8470	J65_43	J66_43	130.00	450.0	120.0	0.0219	Open
P8471	J65_44	J65_45	130.00	500.0	130.0	0.0389	Open
P8472	J65_44	J66_44	130.00	300.0	120.0	0.0433	Open
P8473	J65_45	J65_46	130.00	500.0	120.0	0.0122	Open
P8474	J65_45	J66_45	130.00	600.0	130.0	0.0369	Open
P8475	J65_46	J65_47	130.00	300.0	125.0	0.0428	Open
P8476	J65_46	J66_46	130.00	500.0	120.0	0.0215	Open
P8477	J65_47	J65_48	130.00	350.0	130.0	0.0352	Open
P8478	J65_47	J66_47	130.00	400.0	130.0	0.0019	Open
P8479	J65_48	J65_49	130.00	350.0	130.0	0.0385	Open
P8480	J65_48	J66_48	130.00	600.0	130.0	0.0134	Open
P8481	J65_49	J65_50	130.00	500.0	125.0	0.0020	Open
P8482	J65_49	J66_49	130.00	350.0	120.0	0.0116	Open
P8483	J65_50	J65_51	130.00	300.0	120.0	0.0271	Open
P8484	J65_50	J66_50	130.00	600.0	130.0	0.0174	Open
P8485	J65_51	J65_52	130.00	300.0	125.0	0.0408	Open
P8486	J65_51	J66_51	130.00	300.0	120.0	0.0396	Open
P8487	J65_52	J65_53	130.00	400.0	120.0	0.0008	Open
P8488	J65_52	J66_52	130.00	350.0	120.0	0.0475	Open
P8489	J65_53	J65_54	130.00	400.0	125.0	0.0354	Open
P8490	J65_53	J66_53	130.00	450.0	130.0	0.0479	Open
P8491	J65_54	J65_55	130.00	450.0	125.0	0.0440	Open
P8492	J65_54	J66_54	130.00	500.0	120.0	0.0433	Open
P8493	J65_55	J65_56	130.00	500.0	125.0	0.0199	Open
P8494	J65_55	J66_55	130.00	450.0	130.0	0.0293	Open
P8495	J65_56	J65_57	130.00	350.0	120.0	0.0148	Open
P8496	J65_56	J66_56	130.00	350.0	120.0	0.0020	Open
P8497	J65_57	J65_58	130.00	300.0	125.0	0.0204	Open
P8498	J65_57	J66_57	130.00	300.0	130.0	0.0369	Open
P8499	J65_58	J65_59	130.00	500.0	130.0	0.0403	Open
P8500	J65_58	J66_58	130.00	450.0	125.0	0.0295	Open
P8501	J65_59	J65_60	130.00	450.0	130.0	0.0374	Open
P8502	J65_59	J66_59	130.00	450.0	120.0	0.0174	Open
P8503	J65_60	J65_61	130.00	500.0	130.0	0.0355	Open
P8504	J65_60	J66_60	130.00	500.0	130.0	0.0478	Open
P8505	J65_61	J65_62	130.00	500.0	125.0	0.0013	Open
P8506	J65_61	J66_61	130.00	450.0	120.0	0.0024	Open
P8507	J65_62	J65_63	130.00	400.0	125.0	0.0349	Open
P8508	J65_62	J66_62	130.00	450.0	125.0	0.0481	Open
P8509	J65_63	J65_64	130.00	300.0	125.0	0.0118	Open
P8510	J65_63	J66_63	130.00	450.0	130.0	0.0141	Open
P8511	J65_64	J65_65	130.00	450.0	120.0	0.0468	Open
P8512	J65_64	J66_64	130.00	450.0	125.0	0.0254	Open
P8513	J65_65	J65_66	130.00	450.0	125.0	0.0355	Open
P8514	J65_65	J66_65	130.00	400.0	130.0	0.0374	Open
P8515	J65_66	J66_66	130.00	400.0	125.0	0.0154	Open
P8516	J66_1	J66_2	130.00	400.0	120.0	0.0291	Open
P8517	J66_2	J66_3	130.00	150.0	135.0	0.1202	Open
P8518	J66_3	J66_4	130.00	200.0	135.0	0.0898	Open
P8519	J66_4	J66_5	130.00	250.0	135.0	0.0227	Open
P8520	J66_5	J66_6	130.00	300.0	130.0	0.1496	Open
P8521	J66_6	J66_7	130.00	200.0	125.0	0.0559	Open
P8522	J66_7	J66_8	130.00	200.0	140.0	0.0185	Open
P8523	J66_8	J66_9	130.00	200.0	140.0	0.0388	Open
P8524	J66_9	J66_10	130.00	600.0	130.0	0.0156	Open
P8525	J66_10	J66_11	130.00	200.0	135.0	0.1185	Open
P8526	J66_11	J66_12	130.00	250.0	130.0	0.0954	Open
P8527	J66_12	J66_13	130.00	150.0	140.0	0.0710	Open
P8528	J66_13	J66_14	130.00	100.0	140.0	0.0203	Open
P8529	J66_14	J66_15	130.00	100.0	135.0	0.0134	Open
P8530	J66_15	J66_16	130.00	100.0	140.0	0.0129	Open
P8531	J66_16	J66_17	130.00	100.0	135.0	0.0374	Open
P8532	J66_17	J66_18	130.00	400.0	120.0	0.0018	Open
P8533	J66_18	J66_19	130.00	100.0	125.0	0.0176	Open
P8534	J66_19	J66_20	130.00	200.0	135.0	0.0717	Open
P8535	J66_20	J66_21	130.00	200.0	135.0	0.1235	Open
P8536	J66_21	J66_22	130.00	100.0	140.0	0.0531	Open
P8537	J66_22	J66_23	130.00	200.0	130.0	0.1067	Open
P8538	J66_23	J66_24	130.00	250.0	130.0	0.0469	Open
P8539	J66_24	J66_25	130.00	300.0	135.0	0.0533	Open
P8540	J66_25	J66_26	130.00	450.0	130.0	0.0417	Open
P8541	J66_26	J66_27	130.00	100.0	140.0	0.0531	Open
P8542	J66_27	J66_28	130.00	200.0	125.0	0.0652	Open
P8543	J66_28	J66_29	130.00	250.0	125.0	0.1181	Open
P8544	J66_29	J66_30	130.00	150.0	140.0	0.0797	Open
P8545	J66_30	J66_31	130.00	250.0	135.0	0.0521	Open
P8546	J66_31	J66_32	130.00	300.0	130.0	0.1283	Open
P8547	J66_32	J66_33	130.00	100.0	125.0	0.0808	Open
P8548	J66_33	J66_34	130.00	600.0	130.0	0.0255	Open
P8549	J66_34	J66_35	130.00	250.0	125.0	0.0430	Open
P8550	J66_35	J66_36	130.00	300.0	135.0	0.1469	Open
P8551	J66_36	J66_37	130.00	200.0	125.0	0.0082	Open
P8552	J66_37	J66_38	130.00	250.0	135.0	0.1193	Open
P8553	J66_38	J66_39	130.00	150.0	140.0	0.0327	Open
P8554	J66_39	J66_40	130.00	100.0	135.0	0.1257	Open
P8555	J66_40	J66_41	130.00	250.0	140.0	0.0746	Open
P8556	J66_41	J66_42	130.00	400.0	130.0	0.0459	Open
P8557	J66_42	J66_43	130.00	300.0	140.0	0.0938	Open
P8558	J66_43	J66_44	130.00	250.0	140.0	0.0853	Open
P8559	J66_44	J66_45	130.00	100.0	135.0	0.0644	Open
P8560	J66_45	J66_46	130.00	300.0	130.0	0.1122	Open
P8561	J66_46	J66_47	130.00	100.0	130.0	0.1183	Open
P8562	J66_47	J66_48	130.00	100.0	125.0	0.0053	Open
P8563	J66_48	J66_49	130.00	100.0	130.0	0.0857	Open
P8564	J66_49	J66_50	130.00	600.0	120.0	0.0098	Open
P8565	J66_50	J66_51	130.00	100.0	140.0	0.1455	Open
P8566	J66_51	J66_52	130.00	300.0	125.0	0.0995	Open
P8567	J66_52	J66_53	130.00	250.0	130.0	0.1224	Open
P8568	J66_53	J66_54	130.00	200.0	140.0	0.0083	Open
P8569	J66_54	J66_55	130.00	200.0	130.0	0.0159	Open
P8570	J66_55	J66_56	130.00	150.0	125.0	0.1321	Open
P8571	J66_56	J66_57	130.00	200.0	130.0	0.0260	Open
P8572	J66_57	J66_58	130.00	400.0	125.0	0.0217	Open
P8573	J66_58	J66_59	130.00	300.0	130.0	0.0510	Open
P8574	J66_59	J66_60	130.00	250.0	125.0	0.1458	Open
P8575	J66_60	J66_61	130.00	300.0	135.0	0.0840	Open
P8576	J66_61	J66_62	130.00	150.0	135.0	0.0190	Open
P8577	J66_62	J66_63	130.00	100.0	140.0	0.0390	Open
P8578	J66_63	J66_64	130.00	300.0	130.0	0.0382	Open
P8579	J66_64	J66_65	130.00	300.0	130.0	0.1367	Open
P8580	J66_65	J66_66	130.00	600.0	125.0	0.0065	Open
P8581	T1	J40_10	156.00	500.0	120.0	0.0200	Open
P8582	T2	J34_25	156.00	500.0	120.0	0.0200	Open
P8583	T3	J34_42	156.00	500.0	120.0	0.0200	Open
P8584	T4	J27_57	156.00	500.0	120.0	0.0200	Open

P8585	R1	J34_1	1200.00	300.0	120.0	0.0000	Open

[PUMPS]
;ID	Node1	Node2	Parameters
PU1	R1	T1	HEAD	H_PUMP_MAIN


[VALVES]
;ID	Node1	Node2	Diameter	Type	Setting	MinorLoss

[PATTERNS]
;ID	Multipliers
P_RES	0.550	0.480	0.430	0.410	0.450	0.620	0.840	1.050	1.020	0.940	0.900	0.920	0.950	0.970	1.000	1.050	1.180	1.320	1.380	1.300	1.120	0.930	0.760	0.630
P_COM	0.160	0.140	0.120	0.110	0.140	0.240	0.480	0.860	1.120	1.200	1.220	1.210	1.180	1.160	1.140	1.170	1.130	1.050	0.840	0.600	0.440	0.330	0.250	0.190
P_IND	0.820	0.800	0.780	0.780	0.800	0.880	0.960	1.030	1.070	1.100	1.120	1.100	1.080	1.060	1.080	1.090	1.080	1.050	1.000	0.950	0.920	0.900	0.870	0.840


[CURVES]
;ID	X-Value	Y-Value
H_PUMP_MAIN	0	85
H_PUMP_MAIN	0.8	72
H_PUMP_MAIN	1.6	56
H_PUMP_MAIN	2.4	35


[CONTROLS]
LINK PU1 OPEN IF TANK T1 BELOW 4.500
LINK PU1 CLOSED IF TANK T1 ABOVE 15.500


[RULES]
; Intentionally left minimal; controls section remains active

[STATUS]
;ID	Status/Setting
P181	CLOSED
P361	CLOSED
P541	CLOSED
P721	CLOSED
P901	CLOSED
P1081	CLOSED
P1261	CLOSED
P1441	CLOSED
P1621	CLOSED
P1801	CLOSED
P1981	CLOSED
P2161	CLOSED
P2341	CLOSED
P2521	CLOSED
P2701	CLOSED
P2881	CLOSED
P3061	CLOSED
P3241	CLOSED
P3421	CLOSED
P3601	CLOSED
P3781	CLOSED
P3961	CLOSED
P4141	CLOSED
P4321	CLOSED
P4501	CLOSED
P4681	CLOSED
P4861	CLOSED
P5041	CLOSED
P5221	CLOSED
P5401	CLOSED
P5581	CLOSED
P5761	CLOSED
P5941	CLOSED
P6121	CLOSED
P6301	CLOSED
P6481	CLOSED
P6661	CLOSED
P6841	CLOSED
P7021	CLOSED
P7201	CLOSED
P7381	CLOSED
P7561	CLOSED
P7741	CLOSED
P7921	CLOSED
P8101	CLOSED
P8281	CLOSED
P8461	CLOSED

[EMITTERS]
;Junction	Coefficient
J4_23	0.220
J7_45	0.340
J11_1	0.180
J14_23	0.300
J17_45	0.140
J21_1	0.260
J24_23	0.100
J27_45	0.220
J31_1	0.340
J34_23	0.180
J37_45	0.300
J41_1	0.140
J44_23	0.260
J47_45	0.100
J51_1	0.220
J54_23	0.340
J57_45	0.180
J61_1	0.300
J64_23	0.140

[QUALITY]
;Node	InitQual
R1	1.20

[SOURCES]
;Node	Type	Quality	Pattern
R1	CONCEN	1.2

[REACTIONS]
ORDER BULK	1
ORDER TANK	1
ORDER WALL	1
GLOBAL BULK	-0.30
GLOBAL WALL	-0.90

[ENERGY]
GLOBAL EFFICIENCY	78
GLOBAL PRICE	0.09
DEMAND CHARGE	0.0

[MIXING]

[TIMES]
DURATION	24:00
HYDRAULIC TIMESTEP	1:00
QUALITY TIMESTEP	0:15
PATTERN TIMESTEP	1:00
REPORT TIMESTEP	1:00

[REPORT]
STATUS	YES
SUMMARY	YES
NODES	NONE
LINKS	NONE

[OPTIONS]
UNITS	LPS
HEADLOSS	H-W
TRIALS	80
ACCURACY	0.0005
CHECKFREQ	2
MAXCHECK	20
UNBALANCED	CONTINUE 10
DEMAND MULTIPLIER	1.10
EMITTER EXPONENT	0.50
QUALITY	Chlorine mg/L
TOLERANCE	0.001

[COORDINATES]
;Node	X-Coord	Y-Coord
R1	-260.00	-260.00
J1_1	0.00	0.00
J1_2	130.00	0.00
J1_3	260.00	0.00
J1_4	390.00	0.00
J1_5	520.00	0.00
J1_6	650.00	0.00
J1_7	780.00	0.00
J1_8	910.00	0.00
J1_9	1040.00	0.00
J1_10	1170.00	0.00
J1_11	1300.00	0.00
J1_12	1430.00	0.00
J1_13	1560.00	0.00
J1_14	1690.00	0.00
J1_15	1820.00	0.00
J1_16	1950.00	0.00
J1_17	2080.00	0.00
J1_18	2210.00	0.00
J1_19	2340.00	0.00
J1_20	2470.00	0.00
J1_21	2600.00	0.00
J1_22	2730.00	0.00
J1_23	2860.00	0.00
J1_24	2990.00	0.00
J1_25	3120.00	0.00
J1_26	3250.00	0.00
J1_27	3380.00	0.00
J1_28	3510.00	0.00
J1_29	3640.00	0.00
J1_30	3770.00	0.00
J1_31	3900.00	0.00
J1_32	4030.00	0.00
J1_33	4160.00	0.00
J1_34	4290.00	0.00
J1_35	4420.00	0.00
J1_36	4550.00	0.00
J1_37	4680.00	0.00
J1_38	4810.00	0.00
J1_39	4940.00	0.00
J1_40	5070.00	0.00
J1_41	5200.00	0.00
J1_42	5330.00	0.00
J1_43	5460.00	0.00
J1_44	5590.00	0.00
J1_45	5720.00	0.00
J1_46	5850.00	0.00
J1_47	5980.00	0.00
J1_48	6110.00	0.00
J1_49	6240.00	0.00
J1_50	6370.00	0.00
J1_51	6500.00	0.00
J1_52	6630.00	0.00
J1_53	6760.00	0.00
J1_54	6890.00	0.00
J1_55	7020.00	0.00
J1_56	7150.00	0.00
J1_57	7280.00	0.00
J1_58	7410.00	0.00
J1_59	7540.00	0.00
J1_60	7670.00	0.00
J1_61	7800.00	0.00
J1_62	7930.00	0.00
J1_63	8060.00	0.00
J1_64	8190.00	0.00
J1_65	8320.00	0.00
J1_66	8450.00	0.00
J2_1	0.00	130.00
J2_2	130.00	130.00
J2_3	260.00	130.00
J2_4	390.00	130.00
J2_5	520.00	130.00
J2_6	650.00	130.00
J2_7	780.00	130.00
J2_8	910.00	130.00
J2_9	1040.00	130.00
J2_10	1170.00	130.00
J2_11	1300.00	130.00
J2_12	1430.00	130.00
J2_13	1560.00	130.00
J2_14	1690.00	130.00
J2_15	1820.00	130.00
J2_16	1950.00	130.00
J2_17	2080.00	130.00
J2_18	2210.00	130.00
J2_19	2340.00	130.00
J2_20	2470.00	130.00
J2_21	2600.00	130.00
J2_22	2730.00	130.00
J2_23	2860.00	130.00
J2_24	2990.00	130.00
J2_25	3120.00	130.00
J2_26	3250.00	130.00
J2_27	3380.00	130.00
J2_28	3510.00	130.00
J2_29	3640.00	130.00
J2_30	3770.00	130.00
J2_31	3900.00	130.00
J2_32	4030.00	130.00
J2_33	4160.00	130.00
J2_34	4290.00	130.00
J2_35	4420.00	130.00
J2_36	4550.00	130.00
J2_37	4680.00	130.00
J2_38	4810.00	130.00
J2_39	4940.00	130.00
J2_40	5070.00	130.00
J2_41	5200.00	130.00
J2_42	5330.00	130.00
J2_43	5460.00	130.00
J2_44	5590.00	130.00
J2_45	5720.00	130.00
J2_46	5850.00	130.00
J2_47	5980.00	130.00
J2_48	6110.00	130.00
J2_49	6240.00	130.00
J2_50	6370.00	130.00
J2_51	6500.00	130.00
J2_52	6630.00	130.00
J2_53	6760.00	130.00
J2_54	6890.00	130.00
J2_55	7020.00	130.00
J2_56	7150.00	130.00
J2_57	7280.00	130.00
J2_58	7410.00	130.00
J2_59	7540.00	130.00
J2_60	7670.00	130.00
J2_61	7800.00	130.00
J2_62	7930.00	130.00
J2_63	8060.00	130.00
J2_64	8190.00	130.00
J2_65	8320.00	130.00
J2_66	8450.00	130.00
J3_1	0.00	260.00
J3_2	130.00	260.00
J3_3	260.00	260.00
J3_4	390.00	260.00
J3_5	520.00	260.00
J3_6	650.00	260.00
J3_7	780.00	260.00
J3_8	910.00	260.00
J3_9	1040.00	260.00
J3_10	1170.00	260.00
J3_11	1300.00	260.00
J3_12	1430.00	260.00
J3_13	1560.00	260.00
J3_14	1690.00	260.00
J3_15	1820.00	260.00
J3_16	1950.00	260.00
J3_17	2080.00	260.00
J3_18	2210.00	260.00
J3_19	2340.00	260.00
J3_20	2470.00	260.00
J3_21	2600.00	260.00
J3_22	2730.00	260.00
J3_23	2860.00	260.00
J3_24	2990.00	260.00
J3_25	3120.00	260.00
J3_26	3250.00	260.00
J3_27	3380.00	260.00
J3_28	3510.00	260.00
J3_29	3640.00	260.00
J3_30	3770.00	260.00
J3_31	3900.00	260.00
J3_32	4030.00	260.00
J3_33	4160.00	260.00
J3_34	4290.00	260.00
J3_35	4420.00	260.00
J3_36	4550.00	260.00
J3_37	4680.00	260.00
J3_38	4810.00	260.00
J3_39	4940.00	260.00
J3_40	5070.00	260.00
J3_41	5200.00	260.00
J3_42	5330.00	260.00
J3_43	5460.00	260.00
J3_44	5590.00	260.00
J3_45	5720.00	260.00
J3_46	5850.00	260.00
J3_47	5980.00	260.00
J3_48	6110.00	260.00
J3_49	6240.00	260.00
J3_50	6370.00	260.00
J3_51	6500.00	260.00
J3_52	6630.00	260.00
J3_53	6760.00	260.00
J3_54	6890.00	260.00
J3_55	7020.00	260.00
J3_56	7150.00	260.00
J3_57	7280.00	260.00
J3_58	7410.00	260.00
J3_59	7540.00	260.00
J3_60	7670.00	260.00
J3_61	7800.00	260.00
J3_62	7930.00	260.00
J3_63	8060.00	260.00
J3_64	8190.00	260.00
J3_65	8320.00	260.00
J3_66	8450.00	260.00
J4_1	0.00	390.00
J4_2	130.00	390.00
J4_3	260.00	390.00
J4_4	390.00	390.00
J4_5	520.00	390.00
J4_6	650.00	390.00
J4_7	780.00	390.00
J4_8	910.00	390.00
J4_9	1040.00	390.00
J4_10	1170.00	390.00
J4_11	1300.00	390.00
J4_12	1430.00	390.00
J4_13	1560.00	390.00
J4_14	1690.00	390.00
J4_15	1820.00	390.00
J4_16	1950.00	390.00
J4_17	2080.00	390.00
J4_18	2210.00	390.00
J4_19	2340.00	390.00
J4_20	2470.00	390.00
J4_21	2600.00	390.00
J4_22	2730.00	390.00
J4_23	2860.00	390.00
J4_24	2990.00	390.00
J4_25	3120.00	390.00
J4_26	3250.00	390.00
J4_27	3380.00	390.00
J4_28	3510.00	390.00
J4_29	3640.00	390.00
J4_30	3770.00	390.00
J4_31	3900.00	390.00
J4_32	4030.00	390.00
J4_33	4160.00	390.00
J4_34	4290.00	390.00
J4_35	4420.00	390.00
J4_36	4550.00	390.00
J4_37	4680.00	390.00
J4_38	4810.00	390.00
J4_39	4940.00	390.00
J4_40	5070.00	390.00
J4_41	5200.00	390.00
J4_42	5330.00	390.00
J4_43	5460.00	390.00
J4_44	5590.00	390.00
J4_45	5720.00	390.00
J4_46	5850.00	390.00
J4_47	5980.00	390.00
J4_48	6110.00	390.00
J4_49	6240.00	390.00
J4_50	6370.00	390.00
J4_51	6500.00	390.00
J4_52	6630.00	390.00
J4_53	6760.00	390.00
J4_54	6890.00	390.00
J4_55	7020.00	390.00
J4_56	7150.00	390.00
J4_57	7280.00	390.00
J4_58	7410.00	390.00
J4_59	7540.00	390.00
J4_60	7670.00	390.00
J4_61	7800.00	390.00
J4_62	7930.00	390.00
J4_63	8060.00	390.00
J4_64	8190.00	390.00
J4_65	8320.00	390.00
J4_66	8450.00	390.00
J5_1	0.00	520.00
J5_2	130.00	520.00
J5_3	260.00	520.00
J5_4	390.00	520.00
J5_5	520.00	520.00
J5_6	650.00	520.00
J5_7	780.00	520.00
J5_8	910.00	520.00
J5_9	1040.00	520.00
J5_10	1170.00	520.00
J5_11	1300.00	520.00
J5_12	1430.00	520.00
J5_13	1560.00	520.00
J5_14	1690.00	520.00
J5_15	1820.00	520.00
J5_16	1950.00	520.00
J5_17	2080.00	520.00
J5_18	2210.00	520.00
J5_19	2340.00	520.00
J5_20	2470.00	520.00
J5_21	2600.00	520.00
J5_22	2730.00	520.00
J5_23	2860.00	520.00
J5_24	2990.00	520.00
J5_25	3120.00	520.00
J5_26	3250.00	520.00
J5_27	3380.00	520.00
J5_28	3510.00	520.00
J5_29	3640.00	520.00
J5_30	3770.00	520.00
J5_31	3900.00	520.00
J5_32	4030.00	520.00
J5_33	4160.00	520.00
J5_34	4290.00	520.00
J5_35	4420.00	520.00
J5_36	4550.00	520.00
J5_37	4680.00	520.00
J5_38	4810.00	520.00
J5_39	4940.00	520.00
J5_40	5070.00	520.00
J5_41	5200.00	520.00
J5_42	5330.00	520.00
J5_43	5460.00	520.00
J5_44	5590.00	520.00
J5_45	5720.00	520.00
J5_46	5850.00	520.00
J5_47	5980.00	520.00
J5_48	6110.00	520.00
J5_49	6240.00	520.00
J5_50	6370.00	520.00
J5_51	6500.00	520.00
J5_52	6630.00	520.00
J5_53	6760.00	520.00
J5_54	6890.00	520.00
J5_55	7020.00	520.00
J5_56	7150.00	520.00
J5_57	7280.00	520.00
J5_58	7410.00	520.00
J5_59	7540.00	520.00
J5_60	7670.00	520.00
J5_61	7800.00	520.00
J5_62	7930.00	520.00
J5_63	8060.00	520.00
J5_64	8190.00	520.00
J5_65	8320.00	520.00
J5_66	8450.00	520.00
J6_1	0.00	650.00
J6_2	130.00	650.00
J6_3	260.00	650.00
J6_4	390.00	650.00
J6_5	520.00	650.00
J6_6	650.00	650.00
J6_7	780.00	650.00
J6_8	910.00	650.00
J6_9	1040.00	650.00
J6_10	1170.00	650.00
J6_11	1300.00	650.00
J6_12	1430.00	650.00
J6_13	1560.00	650.00
J6_14	1690.00	650.00
J6_15	1820.00	650.00
J6_16	1950.00	650.00
J6_17	2080.00	650.00
J6_18	2210.00	650.00
J6_19	2340.00	650.00
J6_20	2470.00	650.00
J6_21	2600.00	650.00
J6_22	2730.00	650.00
J6_23	2860.00	650.00
J6_24	2990.00	650.00
J6_25	3120.00	650.00
J6_26	3250.00	650.00
J6_27	3380.00	650.00
J6_28	3510.00	650.00
J6_29	3640.00	650.00
J6_30	3770.00	650.00
J6_31	3900.00	650.00
J6_32	4030.00	650.00
J6_33	4160.00	650.00
J6_34	4290.00	650.00
J6_35	4420.00	650.00
J6_36	4550.00	650.00
J6_37	4680.00	650.00
J6_38	4810.00	650.00
J6_39	4940.00	650.00
J6_40	5070.00	650.00
J6_41	5200.00	650.00
J6_42	5330.00	650.00
J6_43	5460.00	650.00
J6_44	5590.00	650.00
J6_45	5720.00	650.00
J6_46	5850.00	650.00
J6_47	5980.00	650.00
J6_48	6110.00	650.00
J6_49	6240.00	650.00
J6_50	6370.00	650.00
J6_51	6500.00	650.00
J6_52	6630.00	650.00
J6_53	6760.00	650.00
J6_54	6890.00	650.00
J6_55	7020.00	650.00
J6_56	7150.00	650.00
J6_57	7280.00	650.00
J6_58	7410.00	650.00
J6_59	7540.00	650.00
J6_60	7670.00	650.00
J6_61	7800.00	650.00
J6_62	7930.00	650.00
J6_63	8060.00	650.00
J6_64	8190.00	650.00
J6_65	8320.00	650.00
J6_66	8450.00	650.00
J7_1	0.00	780.00
J7_2	130.00	780.00
J7_3	260.00	780.00
J7_4	390.00	780.00
J7_5	520.00	780.00
J7_6	650.00	780.00
J7_7	780.00	780.00
J7_8	910.00	780.00
J7_9	1040.00	780.00
J7_10	1170.00	780.00
J7_11	1300.00	780.00
J7_12	1430.00	780.00
J7_13	1560.00	780.00
J7_14	1690.00	780.00
J7_15	1820.00	780.00
J7_16	1950.00	780.00
J7_17	2080.00	780.00
J7_18	2210.00	780.00
J7_19	2340.00	780.00
J7_20	2470.00	780.00
J7_21	2600.00	780.00
J7_22	2730.00	780.00
J7_23	2860.00	780.00
J7_24	2990.00	780.00
J7_25	3120.00	780.00
J7_26	3250.00	780.00
J7_27	3380.00	780.00
J7_28	3510.00	780.00
J7_29	3640.00	780.00
J7_30	3770.00	780.00
J7_31	3900.00	780.00
J7_32	4030.00	780.00
J7_33	4160.00	780.00
J7_34	4290.00	780.00
J7_35	4420.00	780.00
J7_36	4550.00	780.00
J7_37	4680.00	780.00
J7_38	4810.00	780.00
J7_39	4940.00	780.00
J7_40	5070.00	780.00
J7_41	5200.00	780.00
J7_42	5330.00	780.00
J7_43	5460.00	780.00
J7_44	5590.00	780.00
J7_45	5720.00	780.00
J7_46	5850.00	780.00
J7_47	5980.00	780.00
J7_48	6110.00	780.00
J7_49	6240.00	780.00
J7_50	6370.00	780.00
J7_51	6500.00	780.00
J7_52	6630.00	780.00
J7_53	6760.00	780.00
J7_54	6890.00	780.00
J7_55	7020.00	780.00
J7_56	7150.00	780.00
J7_57	7280.00	780.00
J7_58	7410.00	780.00
J7_59	7540.00	780.00
J7_60	7670.00	780.00
J7_61	7800.00	780.00
J7_62	7930.00	780.00
J7_63	8060.00	780.00
J7_64	8190.00	780.00
J7_65	8320.00	780.00
J7_66	8450.00	780.00
J8_1	0.00	910.00
J8_2	130.00	910.00
J8_3	260.00	910.00
J8_4	390.00	910.00
J8_5	520.00	910.00
J8_6	650.00	910.00
J8_7	780.00	910.00
J8_8	910.00	910.00
J8_9	1040.00	910.00
J8_10	1170.00	910.00
J8_11	1300.00	910.00
J8_12	1430.00	910.00
J8_13	1560.00	910.00
J8_14	1690.00	910.00
J8_15	1820.00	910.00
J8_16	1950.00	910.00
J8_17	2080.00	910.00
J8_18	2210.00	910.00
J8_19	2340.00	910.00
J8_20	2470.00	910.00
J8_21	2600.00	910.00
J8_22	2730.00	910.00
J8_23	2860.00	910.00
J8_24	2990.00	910.00
J8_25	3120.00	910.00
J8_26	3250.00	910.00
J8_27	3380.00	910.00
J8_28	3510.00	910.00
J8_29	3640.00	910.00
J8_30	3770.00	910.00
J8_31	3900.00	910.00
J8_32	4030.00	910.00
J8_33	4160.00	910.00
J8_34	4290.00	910.00
J8_35	4420.00	910.00
J8_36	4550.00	910.00
J8_37	4680.00	910.00
J8_38	4810.00	910.00
J8_39	4940.00	910.00
J8_40	5070.00	910.00
J8_41	5200.00	910.00
J8_42	5330.00	910.00
J8_43	5460.00	910.00
J8_44	5590.00	910.00
J8_45	5720.00	910.00
J8_46	5850.00	910.00
J8_47	5980.00	910.00
J8_48	6110.00	910.00
J8_49	6240.00	910.00
J8_50	6370.00	910.00
J8_51	6500.00	910.00
J8_52	6630.00	910.00
J8_53	6760.00	910.00
J8_54	6890.00	910.00
J8_55	7020.00	910.00
J8_56	7150.00	910.00
J8_57	7280.00	910.00
J8_58	7410.00	910.00
J8_59	7540.00	910.00
J8_60	7670.00	910.00
J8_61	7800.00	910.00
J8_62	7930.00	910.00
J8_63	8060.00	910.00
J8_64	8190.00	910.00
J8_65	8320.00	910.00
J8_66	8450.00	910.00
J9_1	0.00	1040.00
J9_2	130.00	1040.00
J9_3	260.00	1040.00
J9_4	390.00	1040.00
J9_5	520.00	1040.00
J9_6	650.00	1040.00
J9_7	780.00	1040.00
J9_8	910.00	1040.00
J9_9	1040.00	1040.00
J9_10	1170.00	1040.00
J9_11	1300.00	1040.00
J9_12	1430.00	1040.00
J9_13	1560.00	1040.00
J9_14	1690.00	1040.00
J9_15	1820.00	1040.00
J9_16	1950.00	1040.00
J9_17	2080.00	1040.00
J9_18	2210.00	1040.00
J9_19	2340.00	1040.00
J9_20	2470.00	1040.00
J9_21	2600.00	1040.00
J9_22	2730.00	1040.00
J9_23	2860.00	1040.00
J9_24	2990.00	1040.00
J9_25	3120.00	1040.00
J9_26	3250.00	1040.00
J9_27	3380.00	1040.00
J9_28	3510.00	1040.00
J9_29	3640.00	1040.00
J9_30	3770.00	1040.00
J9_31	3900.00	1040.00
J9_32	4030.00	1040.00
J9_33	4160.00	1040.00
J9_34	4290.00	1040.00
J9_35	4420.00	1040.00
J9_36	4550.00	1040.00
J9_37	4680.00	1040.00
J9_38	4810.00	1040.00
J9_39	4940.00	1040.00
J9_40	5070.00	1040.00
J9_41	5200.00	1040.00
J9_42	5330.00	1040.00
J9_43	5460.00	1040.00
J9_44	5590.00	1040.00
J9_45	5720.00	1040.00
J9_46	5850.00	1040.00
J9_47	5980.00	1040.00
J9_48	6110.00	1040.00
J9_49	6240.00	1040.00
J9_50	6370.00	1040.00
J9_51	6500.00	1040.00
J9_52	6630.00	1040.00
J9_53	6760.00	1040.00
J9_54	6890.00	1040.00
J9_55	7020.00	1040.00
J9_56	7150.00	1040.00
J9_57	7280.00	1040.00
J9_58	7410.00	1040.00
J9_59	7540.00	1040.00
J9_60	7670.00	1040.00
J9_61	7800.00	1040.00
J9_62	7930.00	1040.00
J9_63	8060.00	1040.00
J9_64	8190.00	1040.00
J9_65	8320.00	1040.00
J9_66	8450.00	1040.00
J10_1	0.00	1170.00
J10_2	130.00	1170.00
J10_3	260.00	1170.00
J10_4	390.00	1170.00
J10_5	520.00	1170.00
J10_6	650.00	1170.00
J10_7	780.00	1170.00
J10_8	910.00	1170.00
J10_9	1040.00	1170.00
J10_10	1170.00	1170.00
J10_11	1300.00	1170.00
J10_12	1430.00	1170.00
J10_13	1560.00	1170.00
J10_14	1690.00	1170.00
J10_15	1820.00	1170.00
J10_16	1950.00	1170.00
J10_17	2080.00	1170.00
J10_18	2210.00	1170.00
J10_19	2340.00	1170.00
J10_20	2470.00	1170.00
J10_21	2600.00	1170.00
J10_22	2730.00	1170.00
J10_23	2860.00	1170.00
J10_24	2990.00	1170.00
J10_25	3120.00	1170.00
J10_26	3250.00	1170.00
J10_27	3380.00	1170.00
J10_28	3510.00	1170.00
J10_29	3640.00	1170.00
J10_30	3770.00	1170.00
J10_31	3900.00	1170.00
J10_32	4030.00	1170.00
J10_33	4160.00	1170.00
J10_34	4290.00	1170.00
J10_35	4420.00	1170.00
J10_36	4550.00	1170.00
J10_37	4680.00	1170.00
J10_38	4810.00	1170.00
J10_39	4940.00	1170.00
J10_40	5070.00	1170.00
J10_41	5200.00	1170.00
J10_42	5330.00	1170.00
J10_43	5460.00	1170.00
J10_44	5590.00	1170.00
J10_45	5720.00	1170.00
J10_46	5850.00	1170.00
J10_47	5980.00	1170.00
J10_48	6110.00	1170.00
J10_49	6240.00	1170.00
J10_50	6370.00	1170.00
J10_51	6500.00	1170.00
J10_52	6630.00	1170.00
J10_53	6760.00	1170.00
J10_54	6890.00	1170.00
J10_55	7020.00	1170.00
J10_56	7150.00	1170.00
J10_57	7280.00	1170.00
J10_58	7410.00	1170.00
J10_59	7540.00	1170.00
J10_60	7670.00	1170.00
J10_61	7800.00	1170.00
J10_62	7930.00	1170.00
J10_63	8060.00	1170.00
J10_64	8190.00	1170.00
J10_65	8320.00	1170.00
J10_66	8450.00	1170.00
J11_1	0.00	1300.00
J11_2	130.00	1300.00
J11_3	260.00	1300.00
J11_4	390.00	1300.00
J11_5	520.00	1300.00
J11_6	650.00	1300.00
J11_7	780.00	1300.00
J11_8	910.00	1300.00
J11_9	1040.00	1300.00
J11_10	1170.00	1300.00
J11_11	1300.00	1300.00
J11_12	1430.00	1300.00
J11_13	1560.00	1300.00
J11_14	1690.00	1300.00
J11_15	1820.00	1300.00
J11_16	1950.00	1300.00
J11_17	2080.00	1300.00
J11_18	2210.00	1300.00
J11_19	2340.00	1300.00
J11_20	2470.00	1300.00
J11_21	2600.00	1300.00
J11_22	2730.00	1300.00
J11_23	2860.00	1300.00
J11_24	2990.00	1300.00
J11_25	3120.00	1300.00
J11_26	3250.00	1300.00
J11_27	3380.00	1300.00
J11_28	3510.00	1300.00
J11_29	3640.00	1300.00
J11_30	3770.00	1300.00
J11_31	3900.00	1300.00
J11_32	4030.00	1300.00
J11_33	4160.00	1300.00
J11_34	4290.00	1300.00
J11_35	4420.00	1300.00
J11_36	4550.00	1300.00
J11_37	4680.00	1300.00
J11_38	4810.00	1300.00
J11_39	4940.00	1300.00
J11_40	5070.00	1300.00
J11_41	5200.00	1300.00
J11_42	5330.00	1300.00
J11_43	5460.00	1300.00
J11_44	5590.00	1300.00
J11_45	5720.00	1300.00
J11_46	5850.00	1300.00
J11_47	5980.00	1300.00
J11_48	6110.00	1300.00
J11_49	6240.00	1300.00
J11_50	6370.00	1300.00
J11_51	6500.00	1300.00
J11_52	6630.00	1300.00
J11_53	6760.00	1300.00
J11_54	6890.00	1300.00
J11_55	7020.00	1300.00
J11_56	7150.00	1300.00
J11_57	7280.00	1300.00
J11_58	7410.00	1300.00
J11_59	7540.00	1300.00
J11_60	7670.00	1300.00
J11_61	7800.00	1300.00
J11_62	7930.00	1300.00
J11_63	8060.00	1300.00
J11_64	8190.00	1300.00
J11_65	8320.00	1300.00
J11_66	8450.00	1300.00
J12_1	0.00	1430.00
J12_2	130.00	1430.00
J12_3	260.00	1430.00
J12_4	390.00	1430.00
J12_5	520.00	1430.00
J12_6	650.00	1430.00
J12_7	780.00	1430.00
J12_8	910.00	1430.00
J12_9	1040.00	1430.00
J12_10	1170.00	1430.00
J12_11	1300.00	1430.00
J12_12	1430.00	1430.00
J12_13	1560.00	1430.00
J12_14	1690.00	1430.00
J12_15	1820.00	1430.00
J12_16	1950.00	1430.00
J12_17	2080.00	1430.00
J12_18	2210.00	1430.00
J12_19	2340.00	1430.00
J12_20	2470.00	1430.00
J12_21	2600.00	1430.00
J12_22	2730.00	1430.00
J12_23	2860.00	1430.00
J12_24	2990.00	1430.00
J12_25	3120.00	1430.00
J12_26	3250.00	1430.00
J12_27	3380.00	1430.00
J12_28	3510.00	1430.00
J12_29	3640.00	1430.00
J12_30	3770.00	1430.00
J12_31	3900.00	1430.00
J12_32	4030.00	1430.00
J12_33	4160.00	1430.00
J12_34	4290.00	1430.00
J12_35	4420.00	1430.00
J12_36	4550.00	1430.00
J12_37	4680.00	1430.00
J12_38	4810.00	1430.00
J12_39	4940.00	1430.00
J12_40	5070.00	1430.00
J12_41	5200.00	1430.00
J12_42	5330.00	1430.00
J12_43	5460.00	1430.00
J12_44	5590.00	1430.00
J12_45	5720.00	1430.00
J12_46	5850.00	1430.00
J12_47	5980.00	1430.00
J12_48	6110.00	1430.00
J12_49	6240.00	1430.00
J12_50	6370.00	1430.00
J12_51	6500.00	1430.00
J12_52	6630.00	1430.00
J12_53	6760.00	1430.00
J12_54	6890.00	1430.00
J12_55	7020.00	1430.00
J12_56	7150.00	1430.00
J12_57	7280.00	1430.00
J12_58	7410.00	1430.00
J12_59	7540.00	1430.00
J12_60	7670.00	1430.00
J12_61	7800.00	1430.00
J12_62	7930.00	1430.00
J12_63	8060.00	1430.00
J12_64	8190.00	1430.00
J12_65	8320.00	1430.00
J12_66	8450.00	1430.00
J13_1	0.00	1560.00
J13_2	130.00	1560.00
J13_3	260.00	1560.00
J13_4	390.00	1560.00
J13_5	520.00	1560.00
J13_6	650.00	1560.00
J13_7	780.00	1560.00
J13_8	910.00	1560.00
J13_9	1040.00	1560.00
J13_10	1170.00	1560.00
J13_11	1300.00	1560.00
J13_12	1430.00	1560.00
J13_13	1560.00	1560.00
J13_14	1690.00	1560.00
J13_15	1820.00	1560.00
J13_16	1950.00	1560.00
J13_17	2080.00	1560.00
J13_18	2210.00	1560.00
J13_19	2340.00	1560.00
J13_20	2470.00	1560.00
J13_21	2600.00	1560.00
J13_22	2730.00	1560.00
J13_23	2860.00	1560.00
J13_24	2990.00	1560.00
J13_25	3120.00	1560.00
J13_26	3250.00	1560.00
J13_27	3380.00	1560.00
J13_28	3510.00	1560.00
J13_29	3640.00	1560.00
J13_30	3770.00	1560.00
J13_31	3900.00	1560.00
J13_32	4030.00	1560.00
J13_33	4160.00	1560.00
J13_34	4290.00	1560.00
J13_35	4420.00	1560.00
J13_36	4550.00	1560.00
J13_37	4680.00	1560.00
J13_38	4810.00	1560.00
J13_39	4940.00	1560.00
J13_40	5070.00	1560.00
J13_41	5200.00	1560.00
J13_42	5330.00	1560.00
J13_43	5460.00	1560.00
J13_44	5590.00	1560.00
J13_45	5720.00	1560.00
J13_46	5850.00	1560.00
J13_47	5980.00	1560.00
J13_48	6110.00	1560.00
J13_49	6240.00	1560.00
J13_50	6370.00	1560.00
J13_51	6500.00	1560.00
J13_52	6630.00	1560.00
J13_53	6760.00	1560.00
J13_54	6890.00	1560.00
J13_55	7020.00	1560.00
J13_56	7150.00	1560.00
J13_57	7280.00	1560.00
J13_58	7410.00	1560.00
J13_59	7540.00	1560.00
J13_60	7670.00	1560.00
J13_61	7800.00	1560.00
J13_62	7930.00	1560.00
J13_63	8060.00	1560.00
J13_64	8190.00	1560.00
J13_65	8320.00	1560.00
J13_66	8450.00	1560.00
J14_1	0.00	1690.00
J14_2	130.00	1690.00
J14_3	260.00	1690.00
J14_4	390.00	1690.00
J14_5	520.00	1690.00
J14_6	650.00	1690.00
J14_7	780.00	1690.00
J14_8	910.00	1690.00
J14_9	1040.00	1690.00
J14_10	1170.00	1690.00
J14_11	1300.00	1690.00
J14_12	1430.00	1690.00
J14_13	1560.00	1690.00
J14_14	1690.00	1690.00
J14_15	1820.00	1690.00
J14_16	1950.00	1690.00
J14_17	2080.00	1690.00
J14_18	2210.00	1690.00
J14_19	2340.00	1690.00
J14_20	2470.00	1690.00
J14_21	2600.00	1690.00
J14_22	2730.00	1690.00
J14_23	2860.00	1690.00
J14_24	2990.00	1690.00
J14_25	3120.00	1690.00
J14_26	3250.00	1690.00
J14_27	3380.00	1690.00
J14_28	3510.00	1690.00
J14_29	3640.00	1690.00
J14_30	3770.00	1690.00
J14_31	3900.00	1690.00
J14_32	4030.00	1690.00
J14_33	4160.00	1690.00
J14_34	4290.00	1690.00
J14_35	4420.00	1690.00
J14_36	4550.00	1690.00
J14_37	4680.00	1690.00
J14_38	4810.00	1690.00
J14_39	4940.00	1690.00
J14_40	5070.00	1690.00
J14_41	5200.00	1690.00
J14_42	5330.00	1690.00
J14_43	5460.00	1690.00
J14_44	5590.00	1690.00
J14_45	5720.00	1690.00
J14_46	5850.00	1690.00
J14_47	5980.00	1690.00
J14_48	6110.00	1690.00
J14_49	6240.00	1690.00
J14_50	6370.00	1690.00
J14_51	6500.00	1690.00
J14_52	6630.00	1690.00
J14_53	6760.00	1690.00
J14_54	6890.00	1690.00
J14_55	7020.00	1690.00
J14_56	7150.00	1690.00
J14_57	7280.00	1690.00
J14_58	7410.00	1690.00
J14_59	7540.00	1690.00
J14_60	7670.00	1690.00
J14_61	7800.00	1690.00
J14_62	7930.00	1690.00
J14_63	8060.00	1690.00
J14_64	8190.00	1690.00
J14_65	8320.00	1690.00
J14_66	8450.00	1690.00
J15_1	0.00	1820.00
J15_2	130.00	1820.00
J15_3	260.00	1820.00
J15_4	390.00	1820.00
J15_5	520.00	1820.00
J15_6	650.00	1820.00
J15_7	780.00	1820.00
J15_8	910.00	1820.00
J15_9	1040.00	1820.00
J15_10	1170.00	1820.00
J15_11	1300.00	1820.00
J15_12	1430.00	1820.00
J15_13	1560.00	1820.00
J15_14	1690.00	1820.00
J15_15	1820.00	1820.00
J15_16	1950.00	1820.00
J15_17	2080.00	1820.00
J15_18	2210.00	1820.00
J15_19	2340.00	1820.00
J15_20	2470.00	1820.00
J15_21	2600.00	1820.00
J15_22	2730.00	1820.00
J15_23	2860.00	1820.00
J15_24	2990.00	1820.00
J15_25	3120.00	1820.00
J15_26	3250.00	1820.00
J15_27	3380.00	1820.00
J15_28	3510.00	1820.00
J15_29	3640.00	1820.00
J15_30	3770.00	1820.00
J15_31	3900.00	1820.00
J15_32	4030.00	1820.00
J15_33	4160.00	1820.00
J15_34	4290.00	1820.00
J15_35	4420.00	1820.00
J15_36	4550.00	1820.00
J15_37	4680.00	1820.00
J15_38	4810.00	1820.00
J15_39	4940.00	1820.00
J15_40	5070.00	1820.00
J15_41	5200.00	1820.00
J15_42	5330.00	1820.00
J15_43	5460.00	1820.00
J15_44	5590.00	1820.00
J15_45	5720.00	1820.00
J15_46	5850.00	1820.00
J15_47	5980.00	1820.00
J15_48	6110.00	1820.00
J15_49	6240.00	1820.00
J15_50	6370.00	1820.00
J15_51	6500.00	1820.00
J15_52	6630.00	1820.00
J15_53	6760.00	1820.00
J15_54	6890.00	1820.00
J15_55	7020.00	1820.00
J15_56	7150.00	1820.00
J15_57	7280.00	1820.00
J15_58	7410.00	1820.00
J15_59	7540.00	1820.00
J15_60	7670.00	1820.00
J15_61	7800.00	1820.00
J15_62	7930.00	1820.00
J15_63	8060.00	1820.00
J15_64	8190.00	1820.00
J15_65	8320.00	1820.00
J15_66	8450.00	1820.00
J16_1	0.00	1950.00
J16_2	130.00	1950.00
J16_3	260.00	1950.00
J16_4	390.00	1950.00
J16_5	520.00	1950.00
J16_6	650.00	1950.00
J16_7	780.00	1950.00
J16_8	910.00	1950.00
J16_9	1040.00	1950.00
J16_10	1170.00	1950.00
J16_11	1300.00	1950.00
J16_12	1430.00	1950.00
J16_13	1560.00	1950.00
J16_14	1690.00	1950.00
J16_15	1820.00	1950.00
J16_16	1950.00	1950.00
J16_17	2080.00	1950.00
J16_18	2210.00	1950.00
J16_19	2340.00	1950.00
J16_20	2470.00	1950.00
J16_21	2600.00	1950.00
J16_22	2730.00	1950.00
J16_23	2860.00	1950.00
J16_24	2990.00	1950.00
J16_25	3120.00	1950.00
J16_26	3250.00	1950.00
J16_27	3380.00	1950.00
J16_28	3510.00	1950.00
J16_29	3640.00	1950.00
J16_30	3770.00	1950.00
J16_31	3900.00	1950.00
J16_32	4030.00	1950.00
J16_33	4160.00	1950.00
J16_34	4290.00	1950.00
J16_35	4420.00	1950.00
J16_36	4550.00	1950.00
J16_37	4680.00	1950.00
J16_38	4810.00	1950.00
J16_39	4940.00	1950.00
J16_40	5070.00	1950.00
J16_41	5200.00	1950.00
J16_42	5330.00	1950.00
J16_43	5460.00	1950.00
J16_44	5590.00	1950.00
J16_45	5720.00	1950.00
J16_46	5850.00	1950.00
J16_47	5980.00	1950.00
J16_48	6110.00	1950.00
J16_49	6240.00	1950.00
J16_50	6370.00	1950.00
J16_51	6500.00	1950.00
J16_52	6630.00	1950.00
J16_53	6760.00	1950.00
J16_54	6890.00	1950.00
J16_55	7020.00	1950.00
J16_56	7150.00	1950.00
J16_57	7280.00	1950.00
J16_58	7410.00	1950.00
J16_59	7540.00	1950.00
J16_60	7670.00	1950.00
J16_61	7800.00	1950.00
J16_62	7930.00	1950.00
J16_63	8060.00	1950.00
J16_64	8190.00	1950.00
J16_65	8320.00	1950.00
J16_66	8450.00	1950.00
J17_1	0.00	2080.00
J17_2	130.00	2080.00
J17_3	260.00	2080.00
J17_4	390.00	2080.00
J17_5	520.00	2080.00
J17_6	650.00	2080.00
J17_7	780.00	2080.00
J17_8	910.00	2080.00
J17_9	1040.00	2080.00
J17_10	1170.00	2080.00
J17_11	1300.00	2080.00
J17_12	1430.00	2080.00
J17_13	1560.00	2080.00
J17_14	1690.00	2080.00
J17_15	1820.00	2080.00
J17_16	1950.00	2080.00
J17_17	2080.00	2080.00
J17_18	2210.00	2080.00
J17_19	2340.00	2080.00
J17_20	2470.00	2080.00
J17_21	2600.00	2080.00
J17_22	2730.00	2080.00
J17_23	2860.00	2080.00
J17_24	2990.00	2080.00
J17_25	3120.00	2080.00
J17_26	3250.00	2080.00
J17_27	3380.00	2080.00
J17_28	3510.00	2080.00
J17_29	3640.00	2080.00
J17_30	3770.00	2080.00
J17_31	3900.00	2080.00
J17_32	4030.00	2080.00
J17_33	4160.00	2080.00
J17_34	4290.00	2080.00
J17_35	4420.00	2080.00
J17_36	4550.00	2080.00
J17_37	4680.00	2080.00
J17_38	4810.00	2080.00
J17_39	4940.00	2080.00
J17_40	5070.00	2080.00
J17_41	5200.00	2080.00
J17_42	5330.00	2080.00
J17_43	5460.00	2080.00
J17_44	5590.00	2080.00
J17_45	5720.00	2080.00
J17_46	5850.00	2080.00
J17_47	5980.00	2080.00
J17_48	6110.00	2080.00
J17_49	6240.00	2080.00
J17_50	6370.00	2080.00
J17_51	6500.00	2080.00
J17_52	6630.00	2080.00
J17_53	6760.00	2080.00
J17_54	6890.00	2080.00
J17_55	7020.00	2080.00
J17_56	7150.00	2080.00
J17_57	7280.00	2080.00
J17_58	7410.00	2080.00
J17_59	7540.00	2080.00
J17_60	7670.00	2080.00
J17_61	7800.00	2080.00
J17_62	7930.00	2080.00
J17_63	8060.00	2080.00
J17_64	8190.00	2080.00
J17_65	8320.00	2080.00
J17_66	8450.00	2080.00
J18_1	0.00	2210.00
J18_2	130.00	2210.00
J18_3	260.00	2210.00
J18_4	390.00	2210.00
J18_5	520.00	2210.00
J18_6	650.00	2210.00
J18_7	780.00	2210.00
J18_8	910.00	2210.00
J18_9	1040.00	2210.00
J18_10	1170.00	2210.00
J18_11	1300.00	2210.00
J18_12	1430.00	2210.00
J18_13	1560.00	2210.00
J18_14	1690.00	2210.00
J18_15	1820.00	2210.00
J18_16	1950.00	2210.00
J18_17	2080.00	2210.00
J18_18	2210.00	2210.00
J18_19	2340.00	2210.00
J18_20	2470.00	2210.00
J18_21	2600.00	2210.00
J18_22	2730.00	2210.00
J18_23	2860.00	2210.00
J18_24	2990.00	2210.00
J18_25	3120.00	2210.00
J18_26	3250.00	2210.00
J18_27	3380.00	2210.00
J18_28	3510.00	2210.00
J18_29	3640.00	2210.00
J18_30	3770.00	2210.00
J18_31	3900.00	2210.00
J18_32	4030.00	2210.00
J18_33	4160.00	2210.00
J18_34	4290.00	2210.00
J18_35	4420.00	2210.00
J18_36	4550.00	2210.00
J18_37	4680.00	2210.00
J18_38	4810.00	2210.00
J18_39	4940.00	2210.00
J18_40	5070.00	2210.00
J18_41	5200.00	2210.00
J18_42	5330.00	2210.00
J18_43	5460.00	2210.00
J18_44	5590.00	2210.00
J18_45	5720.00	2210.00
J18_46	5850.00	2210.00
J18_47	5980.00	2210.00
J18_48	6110.00	2210.00
J18_49	6240.00	2210.00
J18_50	6370.00	2210.00
J18_51	6500.00	2210.00
J18_52	6630.00	2210.00
J18_53	6760.00	2210.00
J18_54	6890.00	2210.00
J18_55	7020.00	2210.00
J18_56	7150.00	2210.00
J18_57	7280.00	2210.00
J18_58	7410.00	2210.00
J18_59	7540.00	2210.00
J18_60	7670.00	2210.00
J18_61	7800.00	2210.00
J18_62	7930.00	2210.00
J18_63	8060.00	2210.00
J18_64	8190.00	2210.00
J18_65	8320.00	2210.00
J18_66	8450.00	2210.00
J19_1	0.00	2340.00
J19_2	130.00	2340.00
J19_3	260.00	2340.00
J19_4	390.00	2340.00
J19_5	520.00	2340.00
J19_6	650.00	2340.00
J19_7	780.00	2340.00
J19_8	910.00	2340.00
J19_9	1040.00	2340.00
J19_10	1170.00	2340.00
J19_11	1300.00	2340.00
J19_12	1430.00	2340.00
J19_13	1560.00	2340.00
J19_14	1690.00	2340.00
J19_15	1820.00	2340.00
J19_16	1950.00	2340.00
J19_17	2080.00	2340.00
J19_18	2210.00	2340.00
J19_19	2340.00	2340.00
J19_20	2470.00	2340.00
J19_21	2600.00	2340.00
J19_22	2730.00	2340.00
J19_23	2860.00	2340.00
J19_24	2990.00	2340.00
J19_25	3120.00	2340.00
J19_26	3250.00	2340.00
J19_27	3380.00	2340.00
J19_28	3510.00	2340.00
J19_29	3640.00	2340.00
J19_30	3770.00	2340.00
J19_31	3900.00	2340.00
J19_32	4030.00	2340.00
J19_33	4160.00	2340.00
J19_34	4290.00	2340.00
J19_35	4420.00	2340.00
J19_36	4550.00	2340.00
J19_37	4680.00	2340.00
J19_38	4810.00	2340.00
J19_39	4940.00	2340.00
J19_40	5070.00	2340.00
J19_41	5200.00	2340.00
J19_42	5330.00	2340.00
J19_43	5460.00	2340.00
J19_44	5590.00	2340.00
J19_45	5720.00	2340.00
J19_46	5850.00	2340.00
J19_47	5980.00	2340.00
J19_48	6110.00	2340.00
J19_49	6240.00	2340.00
J19_50	6370.00	2340.00
J19_51	6500.00	2340.00
J19_52	6630.00	2340.00
J19_53	6760.00	2340.00
J19_54	6890.00	2340.00
J19_55	7020.00	2340.00
J19_56	7150.00	2340.00
J19_57	7280.00	2340.00
J19_58	7410.00	2340.00
J19_59	7540.00	2340.00
J19_60	7670.00	2340.00
J19_61	7800.00	2340.00
J19_62	7930.00	2340.00
J19_63	8060.00	2340.00
J19_64	8190.00	2340.00
J19_65	8320.00	2340.00
J19_66	8450.00	2340.00
J20_1	0.00	2470.00
J20_2	130.00	2470.00
J20_3	260.00	2470.00
J20_4	390.00	2470.00
J20_5	520.00	2470.00
J20_6	650.00	2470.00
J20_7	780.00	2470.00
J20_8	910.00	2470.00
J20_9	1040.00	2470.00
J20_10	1170.00	2470.00
J20_11	1300.00	2470.00
J20_12	1430.00	2470.00
J20_13	1560.00	2470.00
J20_14	1690.00	2470.00
J20_15	1820.00	2470.00
J20_16	1950.00	2470.00
J20_17	2080.00	2470.00
J20_18	2210.00	2470.00
J20_19	2340.00	2470.00
J20_20	2470.00	2470.00
J20_21	2600.00	2470.00
J20_22	2730.00	2470.00
J20_23	2860.00	2470.00
J20_24	2990.00	2470.00
J20_25	3120.00	2470.00
J20_26	3250.00	2470.00
J20_27	3380.00	2470.00
J20_28	3510.00	2470.00
J20_29	3640.00	2470.00
J20_30	3770.00	2470.00
J20_31	3900.00	2470.00
J20_32	4030.00	2470.00
J20_33	4160.00	2470.00
J20_34	4290.00	2470.00
J20_35	4420.00	2470.00
J20_36	4550.00	2470.00
J20_37	4680.00	2470.00
J20_38	4810.00	2470.00
J20_39	4940.00	2470.00
J20_40	5070.00	2470.00
J20_41	5200.00	2470.00
J20_42	5330.00	2470.00
J20_43	5460.00	2470.00
J20_44	5590.00	2470.00
J20_45	5720.00	2470.00
J20_46	5850.00	2470.00
J20_47	5980.00	2470.00
J20_48	6110.00	2470.00
J20_49	6240.00	2470.00
J20_50	6370.00	2470.00
J20_51	6500.00	2470.00
J20_52	6630.00	2470.00
J20_53	6760.00	2470.00
J20_54	6890.00	2470.00
J20_55	7020.00	2470.00
J20_56	7150.00	2470.00
J20_57	7280.00	2470.00
J20_58	7410.00	2470.00
J20_59	7540.00	2470.00
J20_60	7670.00	2470.00
J20_61	7800.00	2470.00
J20_62	7930.00	2470.00
J20_63	8060.00	2470.00
J20_64	8190.00	2470.00
J20_65	8320.00	2470.00
J20_66	8450.00	2470.00
J21_1	0.00	2600.00
J21_2	130.00	2600.00
J21_3	260.00	2600.00
J21_4	390.00	2600.00
J21_5	520.00	2600.00
J21_6	650.00	2600.00
J21_7	780.00	2600.00
J21_8	910.00	2600.00
J21_9	1040.00	2600.00
J21_10	1170.00	2600.00
J21_11	1300.00	2600.00
J21_12	1430.00	2600.00
J21_13	1560.00	2600.00
J21_14	1690.00	2600.00
J21_15	1820.00	2600.00
J21_16	1950.00	2600.00
J21_17	2080.00	2600.00
J21_18	2210.00	2600.00
J21_19	2340.00	2600.00
J21_20	2470.00	2600.00
J21_21	2600.00	2600.00
J21_22	2730.00	2600.00
J21_23	2860.00	2600.00
J21_24	2990.00	2600.00
J21_25	3120.00	2600.00
J21_26	3250.00	2600.00
J21_27	3380.00	2600.00
J21_28	3510.00	2600.00
J21_29	3640.00	2600.00
J21_30	3770.00	2600.00
J21_31	3900.00	2600.00
J21_32	4030.00	2600.00
J21_33	4160.00	2600.00
J21_34	4290.00	2600.00
J21_35	4420.00	2600.00
J21_36	4550.00	2600.00
J21_37	4680.00	2600.00
J21_38	4810.00	2600.00
J21_39	4940.00	2600.00
J21_40	5070.00	2600.00
J21_41	5200.00	2600.00
J21_42	5330.00	2600.00
J21_43	5460.00	2600.00
J21_44	5590.00	2600.00
J21_45	5720.00	2600.00
J21_46	5850.00	2600.00
J21_47	5980.00	2600.00
J21_48	6110.00	2600.00
J21_49	6240.00	2600.00
J21_50	6370.00	2600.00
J21_51	6500.00	2600.00
J21_52	6630.00	2600.00
J21_53	6760.00	2600.00
J21_54	6890.00	2600.00
J21_55	7020.00	2600.00
J21_56	7150.00	2600.00
J21_57	7280.00	2600.00
J21_58	7410.00	2600.00
J21_59	7540.00	2600.00
J21_60	7670.00	2600.00
J21_61	7800.00	2600.00
J21_62	7930.00	2600.00
J21_63	8060.00	2600.00
J21_64	8190.00	2600.00
J21_65	8320.00	2600.00
J21_66	8450.00	2600.00
J22_1	0.00	2730.00
J22_2	130.00	2730.00
J22_3	260.00	2730.00
J22_4	390.00	2730.00
J22_5	520.00	2730.00
J22_6	650.00	2730.00
J22_7	780.00	2730.00
J22_8	910.00	2730.00
J22_9	1040.00	2730.00
J22_10	1170.00	2730.00
J22_11	1300.00	2730.00
J22_12	1430.00	2730.00
J22_13	1560.00	2730.00
J22_14	1690.00	2730.00
J22_15	1820.00	2730.00
J22_16	1950.00	2730.00
J22_17	2080.00	2730.00
J22_18	2210.00	2730.00
J22_19	2340.00	2730.00
J22_20	2470.00	2730.00
J22_21	2600.00	2730.00
J22_22	2730.00	2730.00
J22_23	2860.00	2730.00
J22_24	2990.00	2730.00
J22_25	3120.00	2730.00
J22_26	3250.00	2730.00
J22_27	3380.00	2730.00
J22_28	3510.00	2730.00
J22_29	3640.00	2730.00
J22_30	3770.00	2730.00
J22_31	3900.00	2730.00
J22_32	4030.00	2730.00
J22_33	4160.00	2730.00
J22_34	4290.00	2730.00
J22_35	4420.00	2730.00
J22_36	4550.00	2730.00
J22_37	4680.00	2730.00
J22_38	4810.00	2730.00
J22_39	4940.00	2730.00
J22_40	5070.00	2730.00
J22_41	5200.00	2730.00
J22_42	5330.00	2730.00
J22_43	5460.00	2730.00
J22_44	5590.00	2730.00
J22_45	5720.00	2730.00
J22_46	5850.00	2730.00
J22_47	5980.00	2730.00
J22_48	6110.00	2730.00
J22_49	6240.00	2730.00
J22_50	6370.00	2730.00
J22_51	6500.00	2730.00
J22_52	6630.00	2730.00
J22_53	6760.00	2730.00
J22_54	6890.00	2730.00
J22_55	7020.00	2730.00
J22_56	7150.00	2730.00
J22_57	7280.00	2730.00
J22_58	7410.00	2730.00
J22_59	7540.00	2730.00
J22_60	7670.00	2730.00
J22_61	7800.00	2730.00
J22_62	7930.00	2730.00
J22_63	8060.00	2730.00
J22_64	8190.00	2730.00
J22_65	8320.00	2730.00
J22_66	8450.00	2730.00
J23_1	0.00	2860.00
J23_2	130.00	2860.00
J23_3	260.00	2860.00
J23_4	390.00	2860.00
J23_5	520.00	2860.00
J23_6	650.00	2860.00
J23_7	780.00	2860.00
J23_8	910.00	2860.00
J23_9	1040.00	2860.00
J23_10	1170.00	2860.00
J23_11	1300.00	2860.00
J23_12	1430.00	2860.00
J23_13	1560.00	2860.00
J23_14	1690.00	2860.00
J23_15	1820.00	2860.00
J23_16	1950.00	2860.00
J23_17	2080.00	2860.00
J23_18	2210.00	2860.00
J23_19	2340.00	2860.00
J23_20	2470.00	2860.00
J23_21	2600.00	2860.00
J23_22	2730.00	2860.00
J23_23	2860.00	2860.00
J23_24	2990.00	2860.00
J23_25	3120.00	2860.00
J23_26	3250.00	2860.00
J23_27	3380.00	2860.00
J23_28	3510.00	2860.00
J23_29	3640.00	2860.00
J23_30	3770.00	2860.00
J23_31	3900.00	2860.00
J23_32	4030.00	2860.00
J23_33	4160.00	2860.00
J23_34	4290.00	2860.00
J23_35	4420.00	2860.00
J23_36	4550.00	2860.00
J23_37	4680.00	2860.00
J23_38	4810.00	2860.00
J23_39	4940.00	2860.00
J23_40	5070.00	2860.00
J23_41	5200.00	2860.00
J23_42	5330.00	2860.00
J23_43	5460.00	2860.00
J23_44	5590.00	2860.00
J23_45	5720.00	2860.00
J23_46	5850.00	2860.00
J23_47	5980.00	2860.00
J23_48	6110.00	2860.00
J23_49	6240.00	2860.00
J23_50	6370.00	2860.00
J23_51	6500.00	2860.00
J23_52	6630.00	2860.00
J23_53	6760.00	2860.00
J23_54	6890.00	2860.00
J23_55	7020.00	2860.00
J23_56	7150.00	2860.00
J23_57	7280.00	2860.00
J23_58	7410.00	2860.00
J23_59	7540.00	2860.00
J23_60	7670.00	2860.00
J23_61	7800.00	2860.00
J23_62	7930.00	2860.00
J23_63	8060.00	2860.00
J23_64	8190.00	2860.00
J23_65	8320.00	2860.00
J23_66	8450.00	2860.00
J24_1	0.00	2990.00
J24_2	130.00	2990.00
J24_3	260.00	2990.00
J24_4	390.00	2990.00
J24_5	520.00	2990.00
J24_6	650.00	2990.00
J24_7	780.00	2990.00
J24_8	910.00	2990.00
J24_9	1040.00	2990.00
J24_10	1170.00	2990.00
J24_11	1300.00	2990.00
J24_12	1430.00	2990.00
J24_13	1560.00	2990.00
J24_14	1690.00	2990.00
J24_15	1820.00	2990.00
J24_16	1950.00	2990.00
J24_17	2080.00	2990.00
J24_18	2210.00	2990.00
J24_19	2340.00	2990.00
J24_20	2470.00	2990.00
J24_21	2600.00	2990.00
J24_22	2730.00	2990.00
J24_23	2860.00	2990.00
J24_24	2990.00	2990.00
J24_25	3120.00	2990.00
J24_26	3250.00	2990.00
J24_27	3380.00	2990.00
J24_28	3510.00	2990.00
J24_29	3640.00	2990.00
J24_30	3770.00	2990.00
J24_31	3900.00	2990.00
J24_32	4030.00	2990.00
J24_33	4160.00	2990.00
J24_34	4290.00	2990.00
J24_35	4420.00	2990.00
J24_36	4550.00	2990.00
J24_37	4680.00	2990.00
J24_38	4810.00	2990.00
J24_39	4940.00	2990.00
J24_40	5070.00	2990.00
J24_41	5200.00	2990.00
J24_42	5330.00	2990.00
J24_43	5460.00	2990.00
J24_44	5590.00	2990.00
J24_45	5720.00	2990.00
J24_46	5850.00	2990.00
J24_47	5980.00	2990.00
J24_48	6110.00	2990.00
J24_49	6240.00	2990.00
J24_50	6370.00	2990.00
J24_51	6500.00	2990.00
J24_52	6630.00	2990.00
J24_53	6760.00	2990.00
J24_54	6890.00	2990.00
J24_55	7020.00	2990.00
J24_56	7150.00	2990.00
J24_57	7280.00	2990.00
J24_58	7410.00	2990.00
J24_59	7540.00	2990.00
J24_60	7670.00	2990.00
J24_61	7800.00	2990.00
J24_62	7930.00	2990.00
J24_63	8060.00	2990.00
J24_64	8190.00	2990.00
J24_65	8320.00	2990.00
J24_66	8450.00	2990.00
J25_1	0.00	3120.00
J25_2	130.00	3120.00
J25_3	260.00	3120.00
J25_4	390.00	3120.00
J25_5	520.00	3120.00
J25_6	650.00	3120.00
J25_7	780.00	3120.00
J25_8	910.00	3120.00
J25_9	1040.00	3120.00
J25_10	1170.00	3120.00
J25_11	1300.00	3120.00
J25_12	1430.00	3120.00
J25_13	1560.00	3120.00
J25_14	1690.00	3120.00
J25_15	1820.00	3120.00
J25_16	1950.00	3120.00
J25_17	2080.00	3120.00
J25_18	2210.00	3120.00
J25_19	2340.00	3120.00
J25_20	2470.00	3120.00
J25_21	2600.00	3120.00
J25_22	2730.00	3120.00
J25_23	2860.00	3120.00
J25_24	2990.00	3120.00
J25_25	3120.00	3120.00
J25_26	3250.00	3120.00
J25_27	3380.00	3120.00
J25_28	3510.00	3120.00
J25_29	3640.00	3120.00
J25_30	3770.00	3120.00
J25_31	3900.00	3120.00
J25_32	4030.00	3120.00
J25_33	4160.00	3120.00
J25_34	4290.00	3120.00
J25_35	4420.00	3120.00
J25_36	4550.00	3120.00
J25_37	4680.00	3120.00
J25_38	4810.00	3120.00
J25_39	4940.00	3120.00
J25_40	5070.00	3120.00
J25_41	5200.00	3120.00
J25_42	5330.00	3120.00
J25_43	5460.00	3120.00
J25_44	5590.00	3120.00
J25_45	5720.00	3120.00
J25_46	5850.00	3120.00
J25_47	5980.00	3120.00
J25_48	6110.00	3120.00
J25_49	6240.00	3120.00
J25_50	6370.00	3120.00
J25_51	6500.00	3120.00
J25_52	6630.00	3120.00
J25_53	6760.00	3120.00
J25_54	6890.00	3120.00
J25_55	7020.00	3120.00
J25_56	7150.00	3120.00
J25_57	7280.00	3120.00
J25_58	7410.00	3120.00
J25_59	7540.00	3120.00
J25_60	7670.00	3120.00
J25_61	7800.00	3120.00
J25_62	7930.00	3120.00
J25_63	8060.00	3120.00
J25_64	8190.00	3120.00
J25_65	8320.00	3120.00
J25_66	8450.00	3120.00
J26_1	0.00	3250.00
J26_2	130.00	3250.00
J26_3	260.00	3250.00
J26_4	390.00	3250.00
J26_5	520.00	3250.00
J26_6	650.00	3250.00
J26_7	780.00	3250.00
J26_8	910.00	3250.00
J26_9	1040.00	3250.00
J26_10	1170.00	3250.00
J26_11	1300.00	3250.00
J26_12	1430.00	3250.00
J26_13	1560.00	3250.00
J26_14	1690.00	3250.00
J26_15	1820.00	3250.00
J26_16	1950.00	3250.00
J26_17	2080.00	3250.00
J26_18	2210.00	3250.00
J26_19	2340.00	3250.00
J26_20	2470.00	3250.00
J26_21	2600.00	3250.00
J26_22	2730.00	3250.00
J26_23	2860.00	3250.00
J26_24	2990.00	3250.00
J26_25	3120.00	3250.00
J26_26	3250.00	3250.00
J26_27	3380.00	3250.00
J26_28	3510.00	3250.00
J26_29	3640.00	3250.00
J26_30	3770.00	3250.00
J26_31	3900.00	3250.00
J26_32	4030.00	3250.00
J26_33	4160.00	3250.00
J26_34	4290.00	3250.00
J26_35	4420.00	3250.00
J26_36	4550.00	3250.00
J26_37	4680.00	3250.00
J26_38	4810.00	3250.00
J26_39	4940.00	3250.00
J26_40	5070.00	3250.00
J26_41	5200.00	3250.00
J26_42	5330.00	3250.00
J26_43	5460.00	3250.00
J26_44	5590.00	3250.00
J26_45	5720.00	3250.00
J26_46	5850.00	3250.00
J26_47	5980.00	3250.00
J26_48	6110.00	3250.00
J26_49	6240.00	3250.00
J26_50	6370.00	3250.00
J26_51	6500.00	3250.00
J26_52	6630.00	3250.00
J26_53	6760.00	3250.00
J26_54	6890.00	3250.00
J26_55	7020.00	3250.00
J26_56	7150.00	3250.00
J26_57	7280.00	3250.00
J26_58	7410.00	3250.00
J26_59	7540.00	3250.00
J26_60	7670.00	3250.00
J26_61	7800.00	3250.00
J26_62	7930.00	3250.00
J26_63	8060.00	3250.00
J26_64	8190.00	3250.00
J26_65	8320.00	3250.00
J26_66	8450.00	3250.00
J27_1	0.00	3380.00
J27_2	130.00	3380.00
J27_3	260.00	3380.00
J27_4	390.00	3380.00
J27_5	520.00	3380.00
J27_6	650.00	3380.00
J27_7	780.00	3380.00
J27_8	910.00	3380.00
J27_9	1040.00	3380.00
J27_10	1170.00	3380.00
J27_11	1300.00	3380.00
J27_12	1430.00	3380.00
J27_13	1560.00	3380.00
J27_14	1690.00	3380.00
J27_15	1820.00	3380.00
J27_16	1950.00	3380.00
J27_17	2080.00	3380.00
J27_18	2210.00	3380.00
J27_19	2340.00	3380.00
J27_20	2470.00	3380.00
J27_21	2600.00	3380.00
J27_22	2730.00	3380.00
J27_23	2860.00	3380.00
J27_24	2990.00	3380.00
J27_25	3120.00	3380.00
J27_26	3250.00	3380.00
J27_27	3380.00	3380.00
J27_28	3510.00	3380.00
J27_29	3640.00	3380.00
J27_30	3770.00	3380.00
J27_31	3900.00	3380.00
J27_32	4030.00	3380.00
J27_33	4160.00	3380.00
J27_34	4290.00	3380.00
J27_35	4420.00	3380.00
J27_36	4550.00	3380.00
J27_37	4680.00	3380.00
J27_38	4810.00	3380.00
J27_39	4940.00	3380.00
J27_40	5070.00	3380.00
J27_41	5200.00	3380.00
J27_42	5330.00	3380.00
J27_43	5460.00	3380.00
J27_44	5590.00	3380.00
J27_45	5720.00	3380.00
J27_46	5850.00	3380.00
J27_47	5980.00	3380.00
J27_48	6110.00	3380.00
J27_49	6240.00	3380.00
J27_50	6370.00	3380.00
J27_51	6500.00	3380.00
J27_52	6630.00	3380.00
J27_53	6760.00	3380.00
J27_54	6890.00	3380.00
J27_55	7020.00	3380.00
J27_56	7150.00	3380.00
J27_57	7280.00	3380.00
J27_58	7410.00	3380.00
J27_59	7540.00	3380.00
J27_60	7670.00	3380.00
J27_61	7800.00	3380.00
J27_62	7930.00	3380.00
J27_63	8060.00	3380.00
J27_64	8190.00	3380.00
J27_65	8320.00	3380.00
J27_66	8450.00	3380.00
J28_1	0.00	3510.00
J28_2	130.00	3510.00
J28_3	260.00	3510.00
J28_4	390.00	3510.00
J28_5	520.00	3510.00
J28_6	650.00	3510.00
J28_7	780.00	3510.00
J28_8	910.00	3510.00
J28_9	1040.00	3510.00
J28_10	1170.00	3510.00
J28_11	1300.00	3510.00
J28_12	1430.00	3510.00
J28_13	1560.00	3510.00
J28_14	1690.00	3510.00
J28_15	1820.00	3510.00
J28_16	1950.00	3510.00
J28_17	2080.00	3510.00
J28_18	2210.00	3510.00
J28_19	2340.00	3510.00
J28_20	2470.00	3510.00
J28_21	2600.00	3510.00
J28_22	2730.00	3510.00
J28_23	2860.00	3510.00
J28_24	2990.00	3510.00
J28_25	3120.00	3510.00
J28_26	3250.00	3510.00
J28_27	3380.00	3510.00
J28_28	3510.00	3510.00
J28_29	3640.00	3510.00
J28_30	3770.00	3510.00
J28_31	3900.00	3510.00
J28_32	4030.00	3510.00
J28_33	4160.00	3510.00
J28_34	4290.00	3510.00
J28_35	4420.00	3510.00
J28_36	4550.00	3510.00
J28_37	4680.00	3510.00
J28_38	4810.00	3510.00
J28_39	4940.00	3510.00
J28_40	5070.00	3510.00
J28_41	5200.00	3510.00
J28_42	5330.00	3510.00
J28_43	5460.00	3510.00
J28_44	5590.00	3510.00
J28_45	5720.00	3510.00
J28_46	5850.00	3510.00
J28_47	5980.00	3510.00
J28_48	6110.00	3510.00
J28_49	6240.00	3510.00
J28_50	6370.00	3510.00
J28_51	6500.00	3510.00
J28_52	6630.00	3510.00
J28_53	6760.00	3510.00
J28_54	6890.00	3510.00
J28_55	7020.00	3510.00
J28_56	7150.00	3510.00
J28_57	7280.00	3510.00
J28_58	7410.00	3510.00
J28_59	7540.00	3510.00
J28_60	7670.00	3510.00
J28_61	7800.00	3510.00
J28_62	7930.00	3510.00
J28_63	8060.00	3510.00
J28_64	8190.00	3510.00
J28_65	8320.00	3510.00
J28_66	8450.00	3510.00
J29_1	0.00	3640.00
J29_2	130.00	3640.00
J29_3	260.00	3640.00
J29_4	390.00	3640.00
J29_5	520.00	3640.00
J29_6	650.00	3640.00
J29_7	780.00	3640.00
J29_8	910.00	3640.00
J29_9	1040.00	3640.00
J29_10	1170.00	3640.00
J29_11	1300.00	3640.00
J29_12	1430.00	3640.00
J29_13	1560.00	3640.00
J29_14	1690.00	3640.00
J29_15	1820.00	3640.00
J29_16	1950.00	3640.00
J29_17	2080.00	3640.00
J29_18	2210.00	3640.00
J29_19	2340.00	3640.00
J29_20	2470.00	3640.00
J29_21	2600.00	3640.00
J29_22	2730.00	3640.00
J29_23	2860.00	3640.00
J29_24	2990.00	3640.00
J29_25	3120.00	3640.00
J29_26	3250.00	3640.00
J29_27	3380.00	3640.00
J29_28	3510.00	3640.00
J29_29	3640.00	3640.00
J29_30	3770.00	3640.00
J29_31	3900.00	3640.00
J29_32	4030.00	3640.00
J29_33	4160.00	3640.00
J29_34	4290.00	3640.00
J29_35	4420.00	3640.00
J29_36	4550.00	3640.00
J29_37	4680.00	3640.00
J29_38	4810.00	3640.00
J29_39	4940.00	3640.00
J29_40	5070.00	3640.00
J29_41	5200.00	3640.00
J29_42	5330.00	3640.00
J29_43	5460.00	3640.00
J29_44	5590.00	3640.00
J29_45	5720.00	3640.00
J29_46	5850.00	3640.00
J29_47	5980.00	3640.00
J29_48	6110.00	3640.00
J29_49	6240.00	3640.00
J29_50	6370.00	3640.00
J29_51	6500.00	3640.00
J29_52	6630.00	3640.00
J29_53	6760.00	3640.00
J29_54	6890.00	3640.00
J29_55	7020.00	3640.00
J29_56	7150.00	3640.00
J29_57	7280.00	3640.00
J29_58	7410.00	3640.00
J29_59	7540.00	3640.00
J29_60	7670.00	3640.00
J29_61	7800.00	3640.00
J29_62	7930.00	3640.00
J29_63	8060.00	3640.00
J29_64	8190.00	3640.00
J29_65	8320.00	3640.00
J29_66	8450.00	3640.00
J30_1	0.00	3770.00
J30_2	130.00	3770.00
J30_3	260.00	3770.00
J30_4	390.00	3770.00
J30_5	520.00	3770.00
J30_6	650.00	3770.00
J30_7	780.00	3770.00
J30_8	910.00	3770.00
J30_9	1040.00	3770.00
J30_10	1170.00	3770.00
J30_11	1300.00	3770.00
J30_12	1430.00	3770.00
J30_13	1560.00	3770.00
J30_14	1690.00	3770.00
J30_15	1820.00	3770.00
J30_16	1950.00	3770.00
J30_17	2080.00	3770.00
J30_18	2210.00	3770.00
J30_19	2340.00	3770.00
J30_20	2470.00	3770.00
J30_21	2600.00	3770.00
J30_22	2730.00	3770.00
J30_23	2860.00	3770.00
J30_24	2990.00	3770.00
J30_25	3120.00	3770.00
J30_26	3250.00	3770.00
J30_27	3380.00	3770.00
J30_28	3510.00	3770.00
J30_29	3640.00	3770.00
J30_30	3770.00	3770.00
J30_31	3900.00	3770.00
J30_32	4030.00	3770.00
J30_33	4160.00	3770.00
J30_34	4290.00	3770.00
J30_35	4420.00	3770.00
J30_36	4550.00	3770.00
J30_37	4680.00	3770.00
J30_38	4810.00	3770.00
J30_39	4940.00	3770.00
J30_40	5070.00	3770.00
J30_41	5200.00	3770.00
J30_42	5330.00	3770.00
J30_43	5460.00	3770.00
J30_44	5590.00	3770.00
J30_45	5720.00	3770.00
J30_46	5850.00	3770.00
J30_47	5980.00	3770.00
J30_48	6110.00	3770.00
J30_49	6240.00	3770.00
J30_50	6370.00	3770.00
J30_51	6500.00	3770.00
J30_52	6630.00	3770.00
J30_53	6760.00	3770.00
J30_54	6890.00	3770.00
J30_55	7020.00	3770.00
J30_56	7150.00	3770.00
J30_57	7280.00	3770.00
J30_58	7410.00	3770.00
J30_59	7540.00	3770.00
J30_60	7670.00	3770.00
J30_61	7800.00	3770.00
J30_62	7930.00	3770.00
J30_63	8060.00	3770.00
J30_64	8190.00	3770.00
J30_65	8320.00	3770.00
J30_66	8450.00	3770.00
J31_1	0.00	3900.00
J31_2	130.00	3900.00
J31_3	260.00	3900.00
J31_4	390.00	3900.00
J31_5	520.00	3900.00
J31_6	650.00	3900.00
J31_7	780.00	3900.00
J31_8	910.00	3900.00
J31_9	1040.00	3900.00
J31_10	1170.00	3900.00
J31_11	1300.00	3900.00
J31_12	1430.00	3900.00
J31_13	1560.00	3900.00
J31_14	1690.00	3900.00
J31_15	1820.00	3900.00
J31_16	1950.00	3900.00
J31_17	2080.00	3900.00
J31_18	2210.00	3900.00
J31_19	2340.00	3900.00
J31_20	2470.00	3900.00
J31_21	2600.00	3900.00
J31_22	2730.00	3900.00
J31_23	2860.00	3900.00
J31_24	2990.00	3900.00
J31_25	3120.00	3900.00
J31_26	3250.00	3900.00
J31_27	3380.00	3900.00
J31_28	3510.00	3900.00
J31_29	3640.00	3900.00
J31_30	3770.00	3900.00
J31_31	3900.00	3900.00
J31_32	4030.00	3900.00
J31_33	4160.00	3900.00
J31_34	4290.00	3900.00
J31_35	4420.00	3900.00
J31_36	4550.00	3900.00
J31_37	4680.00	3900.00
J31_38	4810.00	3900.00
J31_39	4940.00	3900.00
J31_40	5070.00	3900.00
J31_41	5200.00	3900.00
J31_42	5330.00	3900.00
J31_43	5460.00	3900.00
J31_44	5590.00	3900.00
J31_45	5720.00	3900.00
J31_46	5850.00	3900.00
J31_47	5980.00	3900.00
J31_48	6110.00	3900.00
J31_49	6240.00	3900.00
J31_50	6370.00	3900.00
J31_51	6500.00	3900.00
J31_52	6630.00	3900.00
J31_53	6760.00	3900.00
J31_54	6890.00	3900.00
J31_55	7020.00	3900.00
J31_56	7150.00	3900.00
J31_57	7280.00	3900.00
J31_58	7410.00	3900.00
J31_59	7540.00	3900.00
J31_60	7670.00	3900.00
J31_61	7800.00	3900.00
J31_62	7930.00	3900.00
J31_63	8060.00	3900.00
J31_64	8190.00	3900.00
J31_65	8320.00	3900.00
J31_66	8450.00	3900.00
J32_1	0.00	4030.00
J32_2	130.00	4030.00
J32_3	260.00	4030.00
J32_4	390.00	4030.00
J32_5	520.00	4030.00
J32_6	650.00	4030.00
J32_7	780.00	4030.00
J32_8	910.00	4030.00
J32_9	1040.00	4030.00
J32_10	1170.00	4030.00
J32_11	1300.00	4030.00
J32_12	1430.00	4030.00
J32_13	1560.00	4030.00
J32_14	1690.00	4030.00
J32_15	1820.00	4030.00
J32_16	1950.00	4030.00
J32_17	2080.00	4030.00
J32_18	2210.00	4030.00
J32_19	2340.00	4030.00
J32_20	2470.00	4030.00
J32_21	2600.00	4030.00
J32_22	2730.00	4030.00
J32_23	2860.00	4030.00
J32_24	2990.00	4030.00
J32_25	3120.00	4030.00
J32_26	3250.00	4030.00
J32_27	3380.00	4030.00
J32_28	3510.00	4030.00
J32_29	3640.00	4030.00
J32_30	3770.00	4030.00
J32_31	3900.00	4030.00
J32_32	4030.00	4030.00
J32_33	4160.00	4030.00
J32_34	4290.00	4030.00
J32_35	4420.00	4030.00
J32_36	4550.00	4030.00
J32_37	4680.00	4030.00
J32_38	4810.00	4030.00
J32_39	4940.00	4030.00
J32_40	5070.00	4030.00
J32_41	5200.00	4030.00
J32_42	5330.00	4030.00
J32_43	5460.00	4030.00
J32_44	5590.00	4030.00
J32_45	5720.00	4030.00
J32_46	5850.00	4030.00
J32_47	5980.00	4030.00
J32_48	6110.00	4030.00
J32_49	6240.00	4030.00
J32_50	6370.00	4030.00
J32_51	6500.00	4030.00
J32_52	6630.00	4030.00
J32_53	6760.00	4030.00
J32_54	6890.00	4030.00
J32_55	7020.00	4030.00
J32_56	7150.00	4030.00
J32_57	7280.00	4030.00
J32_58	7410.00	4030.00
J32_59	7540.00	4030.00
J32_60	7670.00	4030.00
J32_61	7800.00	4030.00
J32_62	7930.00	4030.00
J32_63	8060.00	4030.00
J32_64	8190.00	4030.00
J32_65	8320.00	4030.00
J32_66	8450.00	4030.00
J33_1	0.00	4160.00
J33_2	130.00	4160.00
J33_3	260.00	4160.00
J33_4	390.00	4160.00
J33_5	520.00	4160.00
J33_6	650.00	4160.00
J33_7	780.00	4160.00
J33_8	910.00	4160.00
J33_9	1040.00	4160.00
J33_10	1170.00	4160.00
J33_11	1300.00	4160.00
J33_12	1430.00	4160.00
J33_13	1560.00	4160.00
J33_14	1690.00	4160.00
J33_15	1820.00	4160.00
J33_16	1950.00	4160.00
J33_17	2080.00	4160.00
J33_18	2210.00	4160.00
J33_19	2340.00	4160.00
J33_20	2470.00	4160.00
J33_21	2600.00	4160.00
J33_22	2730.00	4160.00
J33_23	2860.00	4160.00
J33_24	2990.00	4160.00
J33_25	3120.00	4160.00
J33_26	3250.00	4160.00
J33_27	3380.00	4160.00
J33_28	3510.00	4160.00
J33_29	3640.00	4160.00
J33_30	3770.00	4160.00
J33_31	3900.00	4160.00
J33_32	4030.00	4160.00
J33_33	4160.00	4160.00
J33_34	4290.00	4160.00
J33_35	4420.00	4160.00
J33_36	4550.00	4160.00
J33_37	4680.00	4160.00
J33_38	4810.00	4160.00
J33_39	4940.00	4160.00
J33_40	5070.00	4160.00
J33_41	5200.00	4160.00
J33_42	5330.00	4160.00
J33_43	5460.00	4160.00
J33_44	5590.00	4160.00
J33_45	5720.00	4160.00
J33_46	5850.00	4160.00
J33_47	5980.00	4160.00
J33_48	6110.00	4160.00
J33_49	6240.00	4160.00
J33_50	6370.00	4160.00
J33_51	6500.00	4160.00
J33_52	6630.00	4160.00
J33_53	6760.00	4160.00
J33_54	6890.00	4160.00
J33_55	7020.00	4160.00
J33_56	7150.00	4160.00
J33_57	7280.00	4160.00
J33_58	7410.00	4160.00
J33_59	7540.00	4160.00
J33_60	7670.00	4160.00
J33_61	7800.00	4160.00
J33_62	7930.00	4160.00
J33_63	8060.00	4160.00
J33_64	8190.00	4160.00
J33_65	8320.00	4160.00
J33_66	8450.00	4160.00
J34_1	0.00	4290.00
J34_2	130.00	4290.00
J34_3	260.00	4290.00
J34_4	390.00	4290.00
J34_5	520.00	4290.00
J34_6	650.00	4290.00
J34_7	780.00	4290.00
J34_8	910.00	4290.00
J34_9	1040.00	4290.00
J34_10	1170.00	4290.00
J34_11	1300.00	4290.00
J34_12	1430.00	4290.00
J34_13	1560.00	4290.00
J34_14	1690.00	4290.00
J34_15	1820.00	4290.00
J34_16	1950.00	4290.00
J34_17	2080.00	4290.00
J34_18	2210.00	4290.00
J34_19	2340.00	4290.00
J34_20	2470.00	4290.00
J34_21	2600.00	4290.00
J34_22	2730.00	4290.00
J34_23	2860.00	4290.00
J34_24	2990.00	4290.00
J34_25	3120.00	4290.00
J34_26	3250.00	4290.00
J34_27	3380.00	4290.00
J34_28	3510.00	4290.00
J34_29	3640.00	4290.00
J34_30	3770.00	4290.00
J34_31	3900.00	4290.00
J34_32	4030.00	4290.00
J34_33	4160.00	4290.00
J34_34	4290.00	4290.00
J34_35	4420.00	4290.00
J34_36	4550.00	4290.00
J34_37	4680.00	4290.00
J34_38	4810.00	4290.00
J34_39	4940.00	4290.00
J34_40	5070.00	4290.00
J34_41	5200.00	4290.00
J34_42	5330.00	4290.00
J34_43	5460.00	4290.00
J34_44	5590.00	4290.00
J34_45	5720.00	4290.00
J34_46	5850.00	4290.00
J34_47	5980.00	4290.00
J34_48	6110.00	4290.00
J34_49	6240.00	4290.00
J34_50	6370.00	4290.00
J34_51	6500.00	4290.00
J34_52	6630.00	4290.00
J34_53	6760.00	4290.00
J34_54	6890.00	4290.00
J34_55	7020.00	4290.00
J34_56	7150.00	4290.00
J34_57	7280.00	4290.00
J34_58	7410.00	4290.00
J34_59	7540.00	4290.00
J34_60	7670.00	4290.00
J34_61	7800.00	4290.00
J34_62	7930.00	4290.00
J34_63	8060.00	4290.00
J34_64	8190.00	4290.00
J34_65	8320.00	4290.00
J34_66	8450.00	4290.00
J35_1	0.00	4420.00
J35_2	130.00	4420.00
J35_3	260.00	4420.00
J35_4	390.00	4420.00
J35_5	520.00	4420.00
J35_6	650.00	4420.00
J35_7	780.00	4420.00
J35_8	910.00	4420.00
J35_9	1040.00	4420.00
J35_10	1170.00	4420.00
J35_11	1300.00	4420.00
J35_12	1430.00	4420.00
J35_13	1560.00	4420.00
J35_14	1690.00	4420.00
J35_15	1820.00	4420.00
J35_16	1950.00	4420.00
J35_17	2080.00	4420.00
J35_18	2210.00	4420.00
J35_19	2340.00	4420.00
J35_20	2470.00	4420.00
J35_21	2600.00	4420.00
J35_22	2730.00	4420.00
J35_23	2860.00	4420.00
J35_24	2990.00	4420.00
J35_25	3120.00	4420.00
J35_26	3250.00	4420.00
J35_27	3380.00	4420.00
J35_28	3510.00	4420.00
J35_29	3640.00	4420.00
J35_30	3770.00	4420.00
J35_31	3900.00	4420.00
J35_32	4030.00	4420.00
J35_33	4160.00	4420.00
J35_34	4290.00	4420.00
J35_35	4420.00	4420.00
J35_36	4550.00	4420.00
J35_37	4680.00	4420.00
J35_38	4810.00	4420.00
J35_39	4940.00	4420.00
J35_40	5070.00	4420.00
J35_41	5200.00	4420.00
J35_42	5330.00	4420.00
J35_43	5460.00	4420.00
J35_44	5590.00	4420.00
J35_45	5720.00	4420.00
J35_46	5850.00	4420.00
J35_47	5980.00	4420.00
J35_48	6110.00	4420.00
J35_49	6240.00	4420.00
J35_50	6370.00	4420.00
J35_51	6500.00	4420.00
J35_52	6630.00	4420.00
J35_53	6760.00	4420.00
J35_54	6890.00	4420.00
J35_55	7020.00	4420.00
J35_56	7150.00	4420.00
J35_57	7280.00	4420.00
J35_58	7410.00	4420.00
J35_59	7540.00	4420.00
J35_60	7670.00	4420.00
J35_61	7800.00	4420.00
J35_62	7930.00	4420.00
J35_63	8060.00	4420.00
J35_64	8190.00	4420.00
J35_65	8320.00	4420.00
J35_66	8450.00	4420.00
J36_1	0.00	4550.00
J36_2	130.00	4550.00
J36_3	260.00	4550.00
J36_4	390.00	4550.00
J36_5	520.00	4550.00
J36_6	650.00	4550.00
J36_7	780.00	4550.00
J36_8	910.00	4550.00
J36_9	1040.00	4550.00
J36_10	1170.00	4550.00
J36_11	1300.00	4550.00
J36_12	1430.00	4550.00
J36_13	1560.00	4550.00
J36_14	1690.00	4550.00
J36_15	1820.00	4550.00
J36_16	1950.00	4550.00
J36_17	2080.00	4550.00
J36_18	2210.00	4550.00
J36_19	2340.00	4550.00
J36_20	2470.00	4550.00
J36_21	2600.00	4550.00
J36_22	2730.00	4550.00
J36_23	2860.00	4550.00
J36_24	2990.00	4550.00
J36_25	3120.00	4550.00
J36_26	3250.00	4550.00
J36_27	3380.00	4550.00
J36_28	3510.00	4550.00
J36_29	3640.00	4550.00
J36_30	3770.00	4550.00
J36_31	3900.00	4550.00
J36_32	4030.00	4550.00
J36_33	4160.00	4550.00
J36_34	4290.00	4550.00
J36_35	4420.00	4550.00
J36_36	4550.00	4550.00
J36_37	4680.00	4550.00
J36_38	4810.00	4550.00
J36_39	4940.00	4550.00
J36_40	5070.00	4550.00
J36_41	5200.00	4550.00
J36_42	5330.00	4550.00
J36_43	5460.00	4550.00
J36_44	5590.00	4550.00
J36_45	5720.00	4550.00
J36_46	5850.00	4550.00
J36_47	5980.00	4550.00
J36_48	6110.00	4550.00
J36_49	6240.00	4550.00
J36_50	6370.00	4550.00
J36_51	6500.00	4550.00
J36_52	6630.00	4550.00
J36_53	6760.00	4550.00
J36_54	6890.00	4550.00
J36_55	7020.00	4550.00
J36_56	7150.00	4550.00
J36_57	7280.00	4550.00
J36_58	7410.00	4550.00
J36_59	7540.00	4550.00
J36_60	7670.00	4550.00
J36_61	7800.00	4550.00
J36_62	7930.00	4550.00
J36_63	8060.00	4550.00
J36_64	8190.00	4550.00
J36_65	8320.00	4550.00
J36_66	8450.00	4550.00
J37_1	0.00	4680.00
J37_2	130.00	4680.00
J37_3	260.00	4680.00
J37_4	390.00	4680.00
J37_5	520.00	4680.00
J37_6	650.00	4680.00
J37_7	780.00	4680.00
J37_8	910.00	4680.00
J37_9	1040.00	4680.00
J37_10	1170.00	4680.00
J37_11	1300.00	4680.00
J37_12	1430.00	4680.00
J37_13	1560.00	4680.00
J37_14	1690.00	4680.00
J37_15	1820.00	4680.00
J37_16	1950.00	4680.00
J37_17	2080.00	4680.00
J37_18	2210.00	4680.00
J37_19	2340.00	4680.00
J37_20	2470.00	4680.00
J37_21	2600.00	4680.00
J37_22	2730.00	4680.00
J37_23	2860.00	4680.00
J37_24	2990.00	4680.00
J37_25	3120.00	4680.00
J37_26	3250.00	4680.00
J37_27	3380.00	4680.00
J37_28	3510.00	4680.00
J37_29	3640.00	4680.00
J37_30	3770.00	4680.00
J37_31	3900.00	4680.00
J37_32	4030.00	4680.00
J37_33	4160.00	4680.00
J37_34	4290.00	4680.00
J37_35	4420.00	4680.00
J37_36	4550.00	4680.00
J37_37	4680.00	4680.00
J37_38	4810.00	4680.00
J37_39	4940.00	4680.00
J37_40	5070.00	4680.00
J37_41	5200.00	4680.00
J37_42	5330.00	4680.00
J37_43	5460.00	4680.00
J37_44	5590.00	4680.00
J37_45	5720.00	4680.00
J37_46	5850.00	4680.00
J37_47	5980.00	4680.00
J37_48	6110.00	4680.00
J37_49	6240.00	4680.00
J37_50	6370.00	4680.00
J37_51	6500.00	4680.00
J37_52	6630.00	4680.00
J37_53	6760.00	4680.00
J37_54	6890.00	4680.00
J37_55	7020.00	4680.00
J37_56	7150.00	4680.00
J37_57	7280.00	4680.00
J37_58	7410.00	4680.00
J37_59	7540.00	4680.00
J37_60	7670.00	4680.00
J37_61	7800.00	4680.00
J37_62	7930.00	4680.00
J37_63	8060.00	4680.00
J37_64	8190.00	4680.00
J37_65	8320.00	4680.00
J37_66	8450.00	4680.00
J38_1	0.00	4810.00
J38_2	130.00	4810.00
J38_3	260.00	4810.00
J38_4	390.00	4810.00
J38_5	520.00	4810.00
J38_6	650.00	4810.00
J38_7	780.00	4810.00
J38_8	910.00	4810.00
J38_9	1040.00	4810.00
J38_10	1170.00	4810.00
J38_11	1300.00	4810.00
J38_12	1430.00	4810.00
J38_13	1560.00	4810.00
J38_14	1690.00	4810.00
J38_15	1820.00	4810.00
J38_16	1950.00	4810.00
J38_17	2080.00	4810.00
J38_18	2210.00	4810.00
J38_19	2340.00	4810.00
J38_20	2470.00	4810.00
J38_21	2600.00	4810.00
J38_22	2730.00	4810.00
J38_23	2860.00	4810.00
J38_24	2990.00	4810.00
J38_25	3120.00	4810.00
J38_26	3250.00	4810.00
J38_27	3380.00	4810.00
J38_28	3510.00	4810.00
J38_29	3640.00	4810.00
J38_30	3770.00	4810.00
J38_31	3900.00	4810.00
J38_32	4030.00	4810.00
J38_33	4160.00	4810.00
J38_34	4290.00	4810.00
J38_35	4420.00	4810.00
J38_36	4550.00	4810.00
J38_37	4680.00	4810.00
J38_38	4810.00	4810.00
J38_39	4940.00	4810.00
J38_40	5070.00	4810.00
J38_41	5200.00	4810.00
J38_42	5330.00	4810.00
J38_43	5460.00	4810.00
J38_44	5590.00	4810.00
J38_45	5720.00	4810.00
J38_46	5850.00	4810.00
J38_47	5980.00	4810.00
J38_48	6110.00	4810.00
J38_49	6240.00	4810.00
J38_50	6370.00	4810.00
J38_51	6500.00	4810.00
J38_52	6630.00	4810.00
J38_53	6760.00	4810.00
J38_54	6890.00	4810.00
J38_55	7020.00	4810.00
J38_56	7150.00	4810.00
J38_57	7280.00	4810.00
J38_58	7410.00	4810.00
J38_59	7540.00	4810.00
J38_60	7670.00	4810.00
J38_61	7800.00	4810.00
J38_62	7930.00	4810.00
J38_63	8060.00	4810.00
J38_64	8190.00	4810.00
J38_65	8320.00	4810.00
J38_66	8450.00	4810.00
J39_1	0.00	4940.00
J39_2	130.00	4940.00
J39_3	260.00	4940.00
J39_4	390.00	4940.00
J39_5	520.00	4940.00
J39_6	650.00	4940.00
J39_7	780.00	4940.00
J39_8	910.00	4940.00
J39_9	1040.00	4940.00
J39_10	1170.00	4940.00
J39_11	1300.00	4940.00
J39_12	1430.00	4940.00
J39_13	1560.00	4940.00
J39_14	1690.00	4940.00
J39_15	1820.00	4940.00
J39_16	1950.00	4940.00
J39_17	2080.00	4940.00
J39_18	2210.00	4940.00
J39_19	2340.00	4940.00
J39_20	2470.00	4940.00
J39_21	2600.00	4940.00
J39_22	2730.00	4940.00
J39_23	2860.00	4940.00
J39_24	2990.00	4940.00
J39_25	3120.00	4940.00
J39_26	3250.00	4940.00
J39_27	3380.00	4940.00
J39_28	3510.00	4940.00
J39_29	3640.00	4940.00
J39_30	3770.00	4940.00
J39_31	3900.00	4940.00
J39_32	4030.00	4940.00
J39_33	4160.00	4940.00
J39_34	4290.00	4940.00
J39_35	4420.00	4940.00
J39_36	4550.00	4940.00
J39_37	4680.00	4940.00
J39_38	4810.00	4940.00
J39_39	4940.00	4940.00
J39_40	5070.00	4940.00
J39_41	5200.00	4940.00
J39_42	5330.00	4940.00
J39_43	5460.00	4940.00
J39_44	5590.00	4940.00
J39_45	5720.00	4940.00
J39_46	5850.00	4940.00
J39_47	5980.00	4940.00
J39_48	6110.00	4940.00
J39_49	6240.00	4940.00
J39_50	6370.00	4940.00
J39_51	6500.00	4940.00
J39_52	6630.00	4940.00
J39_53	6760.00	4940.00
J39_54	6890.00	4940.00
J39_55	7020.00	4940.00
J39_56	7150.00	4940.00
J39_57	7280.00	4940.00
J39_58	7410.00	4940.00
J39_59	7540.00	4940.00
J39_60	7670.00	4940.00
J39_61	7800.00	4940.00
J39_62	7930.00	4940.00
J39_63	8060.00	4940.00
J39_64	8190.00	4940.00
J39_65	8320.00	4940.00
J39_66	8450.00	4940.00
J40_1	0.00	5070.00
J40_2	130.00	5070.00
J40_3	260.00	5070.00
J40_4	390.00	5070.00
J40_5	520.00	5070.00
J40_6	650.00	5070.00
J40_7	780.00	5070.00
J40_8	910.00	5070.00
J40_9	1040.00	5070.00
J40_10	1170.00	5070.00
J40_11	1300.00	5070.00
J40_12	1430.00	5070.00
J40_13	1560.00	5070.00
J40_14	1690.00	5070.00
J40_15	1820.00	5070.00
J40_16	1950.00	5070.00
J40_17	2080.00	5070.00
J40_18	2210.00	5070.00
J40_19	2340.00	5070.00
J40_20	2470.00	5070.00
J40_21	2600.00	5070.00
J40_22	2730.00	5070.00
J40_23	2860.00	5070.00
J40_24	2990.00	5070.00
J40_25	3120.00	5070.00
J40_26	3250.00	5070.00
J40_27	3380.00	5070.00
J40_28	3510.00	5070.00
J40_29	3640.00	5070.00
J40_30	3770.00	5070.00
J40_31	3900.00	5070.00
J40_32	4030.00	5070.00
J40_33	4160.00	5070.00
J40_34	4290.00	5070.00
J40_35	4420.00	5070.00
J40_36	4550.00	5070.00
J40_37	4680.00	5070.00
J40_38	4810.00	5070.00
J40_39	4940.00	5070.00
J40_40	5070.00	5070.00
J40_41	5200.00	5070.00
J40_42	5330.00	5070.00
J40_43	5460.00	5070.00
J40_44	5590.00	5070.00
J40_45	5720.00	5070.00
J40_46	5850.00	5070.00
J40_47	5980.00	5070.00
J40_48	6110.00	5070.00
J40_49	6240.00	5070.00
J40_50	6370.00	5070.00
J40_51	6500.00	5070.00
J40_52	6630.00	5070.00
J40_53	6760.00	5070.00
J40_54	6890.00	5070.00
J40_55	7020.00	5070.00
J40_56	7150.00	5070.00
J40_57	7280.00	5070.00
J40_58	7410.00	5070.00
J40_59	7540.00	5070.00
J40_60	7670.00	5070.00
J40_61	7800.00	5070.00
J40_62	7930.00	5070.00
J40_63	8060.00	5070.00
J40_64	8190.00	5070.00
J40_65	8320.00	5070.00
J40_66	8450.00	5070.00
J41_1	0.00	5200.00
J41_2	130.00	5200.00
J41_3	260.00	5200.00
J41_4	390.00	5200.00
J41_5	520.00	5200.00
J41_6	650.00	5200.00
J41_7	780.00	5200.00
J41_8	910.00	5200.00
J41_9	1040.00	5200.00
J41_10	1170.00	5200.00
J41_11	1300.00	5200.00
J41_12	1430.00	5200.00
J41_13	1560.00	5200.00
J41_14	1690.00	5200.00
J41_15	1820.00	5200.00
J41_16	1950.00	5200.00
J41_17	2080.00	5200.00
J41_18	2210.00	5200.00
J41_19	2340.00	5200.00
J41_20	2470.00	5200.00
J41_21	2600.00	5200.00
J41_22	2730.00	5200.00
J41_23	2860.00	5200.00
J41_24	2990.00	5200.00
J41_25	3120.00	5200.00
J41_26	3250.00	5200.00
J41_27	3380.00	5200.00
J41_28	3510.00	5200.00
J41_29	3640.00	5200.00
J41_30	3770.00	5200.00
J41_31	3900.00	5200.00
J41_32	4030.00	5200.00
J41_33	4160.00	5200.00
J41_34	4290.00	5200.00
J41_35	4420.00	5200.00
J41_36	4550.00	5200.00
J41_37	4680.00	5200.00
J41_38	4810.00	5200.00
J41_39	4940.00	5200.00
J41_40	5070.00	5200.00
J41_41	5200.00	5200.00
J41_42	5330.00	5200.00
J41_43	5460.00	5200.00
J41_44	5590.00	5200.00
J41_45	5720.00	5200.00
J41_46	5850.00	5200.00
J41_47	5980.00	5200.00
J41_48	6110.00	5200.00
J41_49	6240.00	5200.00
J41_50	6370.00	5200.00
J41_51	6500.00	5200.00
J41_52	6630.00	5200.00
J41_53	6760.00	5200.00
J41_54	6890.00	5200.00
J41_55	7020.00	5200.00
J41_56	7150.00	5200.00
J41_57	7280.00	5200.00
J41_58	7410.00	5200.00
J41_59	7540.00	5200.00
J41_60	7670.00	5200.00
J41_61	7800.00	5200.00
J41_62	7930.00	5200.00
J41_63	8060.00	5200.00
J41_64	8190.00	5200.00
J41_65	8320.00	5200.00
J41_66	8450.00	5200.00
J42_1	0.00	5330.00
J42_2	130.00	5330.00
J42_3	260.00	5330.00
J42_4	390.00	5330.00
J42_5	520.00	5330.00
J42_6	650.00	5330.00
J42_7	780.00	5330.00
J42_8	910.00	5330.00
J42_9	1040.00	5330.00
J42_10	1170.00	5330.00
J42_11	1300.00	5330.00
J42_12	1430.00	5330.00
J42_13	1560.00	5330.00
J42_14	1690.00	5330.00
J42_15	1820.00	5330.00
J42_16	1950.00	5330.00
J42_17	2080.00	5330.00
J42_18	2210.00	5330.00
J42_19	2340.00	5330.00
J42_20	2470.00	5330.00
J42_21	2600.00	5330.00
J42_22	2730.00	5330.00
J42_23	2860.00	5330.00
J42_24	2990.00	5330.00
J42_25	3120.00	5330.00
J42_26	3250.00	5330.00
J42_27	3380.00	5330.00
J42_28	3510.00	5330.00
J42_29	3640.00	5330.00
J42_30	3770.00	5330.00
J42_31	3900.00	5330.00
J42_32	4030.00	5330.00
J42_33	4160.00	5330.00
J42_34	4290.00	5330.00
J42_35	4420.00	5330.00
J42_36	4550.00	5330.00
J42_37	4680.00	5330.00
J42_38	4810.00	5330.00
J42_39	4940.00	5330.00
J42_40	5070.00	5330.00
J42_41	5200.00	5330.00
J42_42	5330.00	5330.00
J42_43	5460.00	5330.00
J42_44	5590.00	5330.00
J42_45	5720.00	5330.00
J42_46	5850.00	5330.00
J42_47	5980.00	5330.00
J42_48	6110.00	5330.00
J42_49	6240.00	5330.00
J42_50	6370.00	5330.00
J42_51	6500.00	5330.00
J42_52	6630.00	5330.00
J42_53	6760.00	5330.00
J42_54	6890.00	5330.00
J42_55	7020.00	5330.00
J42_56	7150.00	5330.00
J42_57	7280.00	5330.00
J42_58	7410.00	5330.00
J42_59	7540.00	5330.00
J42_60	7670.00	5330.00
J42_61	7800.00	5330.00
J42_62	7930.00	5330.00
J42_63	8060.00	5330.00
J42_64	8190.00	5330.00
J42_65	8320.00	5330.00
J42_66	8450.00	5330.00
J43_1	0.00	5460.00
J43_2	130.00	5460.00
J43_3	260.00	5460.00
J43_4	390.00	5460.00
J43_5	520.00	5460.00
J43_6	650.00	5460.00
J43_7	780.00	5460.00
J43_8	910.00	5460.00
J43_9	1040.00	5460.00
J43_10	1170.00	5460.00
J43_11	1300.00	5460.00
J43_12	1430.00	5460.00
J43_13	1560.00	5460.00
J43_14	1690.00	5460.00
J43_15	1820.00	5460.00
J43_16	1950.00	5460.00
J43_17	2080.00	5460.00
J43_18	2210.00	5460.00
J43_19	2340.00	5460.00
J43_20	2470.00	5460.00
J43_21	2600.00	5460.00
J43_22	2730.00	5460.00
J43_23	2860.00	5460.00
J43_24	2990.00	5460.00
J43_25	3120.00	5460.00
J43_26	3250.00	5460.00
J43_27	3380.00	5460.00
J43_28	3510.00	5460.00
J43_29	3640.00	5460.00
J43_30	3770.00	5460.00
J43_31	3900.00	5460.00
J43_32	4030.00	5460.00
J43_33	4160.00	5460.00
J43_34	4290.00	5460.00
J43_35	4420.00	5460.00
J43_36	4550.00	5460.00
J43_37	4680.00	5460.00
J43_38	4810.00	5460.00
J43_39	4940.00	5460.00
J43_40	5070.00	5460.00
J43_41	5200.00	5460.00
J43_42	5330.00	5460.00
J43_43	5460.00	5460.00
J43_44	5590.00	5460.00
J43_45	5720.00	5460.00
J43_46	5850.00	5460.00
J43_47	5980.00	5460.00
J43_48	6110.00	5460.00
J43_49	6240.00	5460.00
J43_50	6370.00	5460.00
J43_51	6500.00	5460.00
J43_52	6630.00	5460.00
J43_53	6760.00	5460.00
J43_54	6890.00	5460.00
J43_55	7020.00	5460.00
J43_56	7150.00	5460.00
J43_57	7280.00	5460.00
J43_58	7410.00	5460.00
J43_59	7540.00	5460.00
J43_60	7670.00	5460.00
J43_61	7800.00	5460.00
J43_62	7930.00	5460.00
J43_63	8060.00	5460.00
J43_64	8190.00	5460.00
J43_65	8320.00	5460.00
J43_66	8450.00	5460.00
J44_1	0.00	5590.00
J44_2	130.00	5590.00
J44_3	260.00	5590.00
J44_4	390.00	5590.00
J44_5	520.00	5590.00
J44_6	650.00	5590.00
J44_7	780.00	5590.00
J44_8	910.00	5590.00
J44_9	1040.00	5590.00
J44_10	1170.00	5590.00
J44_11	1300.00	5590.00
J44_12	1430.00	5590.00
J44_13	1560.00	5590.00
J44_14	1690.00	5590.00
J44_15	1820.00	5590.00
J44_16	1950.00	5590.00
J44_17	2080.00	5590.00
J44_18	2210.00	5590.00
J44_19	2340.00	5590.00
J44_20	2470.00	5590.00
J44_21	2600.00	5590.00
J44_22	2730.00	5590.00
J44_23	2860.00	5590.00
J44_24	2990.00	5590.00
J44_25	3120.00	5590.00
J44_26	3250.00	5590.00
J44_27	3380.00	5590.00
J44_28	3510.00	5590.00
J44_29	3640.00	5590.00
J44_30	3770.00	5590.00
J44_31	3900.00	5590.00
J44_32	4030.00	5590.00
J44_33	4160.00	5590.00
J44_34	4290.00	5590.00
J44_35	4420.00	5590.00
J44_36	4550.00	5590.00
J44_37	4680.00	5590.00
J44_38	4810.00	5590.00
J44_39	4940.00	5590.00
J44_40	5070.00	5590.00
J44_41	5200.00	5590.00
J44_42	5330.00	5590.00
J44_43	5460.00	5590.00
J44_44	5590.00	5590.00
J44_45	5720.00	5590.00
J44_46	5850.00	5590.00
J44_47	5980.00	5590.00
J44_48	6110.00	5590.00
J44_49	6240.00	5590.00
J44_50	6370.00	5590.00
J44_51	6500.00	5590.00
J44_52	6630.00	5590.00
J44_53	6760.00	5590.00
J44_54	6890.00	5590.00
J44_55	7020.00	5590.00
J44_56	7150.00	5590.00
J44_57	7280.00	5590.00
J44_58	7410.00	5590.00
J44_59	7540.00	5590.00
J44_60	7670.00	5590.00
J44_61	7800.00	5590.00
J44_62	7930.00	5590.00
J44_63	8060.00	5590.00
J44_64	8190.00	5590.00
J44_65	8320.00	5590.00
J44_66	8450.00	5590.00
J45_1	0.00	5720.00
J45_2	130.00	5720.00
J45_3	260.00	5720.00
J45_4	390.00	5720.00
J45_5	520.00	5720.00
J45_6	650.00	5720.00
J45_7	780.00	5720.00
J45_8	910.00	5720.00
J45_9	1040.00	5720.00
J45_10	1170.00	5720.00
J45_11	1300.00	5720.00
J45_12	1430.00	5720.00
J45_13	1560.00	5720.00
J45_14	1690.00	5720.00
J45_15	1820.00	5720.00
J45_16	1950.00	5720.00
J45_17	2080.00	5720.00
J45_18	2210.00	5720.00
J45_19	2340.00	5720.00
J45_20	2470.00	5720.00
J45_21	2600.00	5720.00
J45_22	2730.00	5720.00
J45_23	2860.00	5720.00
J45_24	2990.00	5720.00
J45_25	3120.00	5720.00
J45_26	3250.00	5720.00
J45_27	3380.00	5720.00
J45_28	3510.00	5720.00
J45_29	3640.00	5720.00
J45_30	3770.00	5720.00
J45_31	3900.00	5720.00
J45_32	4030.00	5720.00
J45_33	4160.00	5720.00
J45_34	4290.00	5720.00
J45_35	4420.00	5720.00
J45_36	4550.00	5720.00
J45_37	4680.00	5720.00
J45_38	4810.00	5720.00
J45_39	4940.00	5720.00
J45_40	5070.00	5720.00
J45_41	5200.00	5720.00
J45_42	5330.00	5720.00
J45_43	5460.00	5720.00
J45_44	5590.00	5720.00
J45_45	5720.00	5720.00
J45_46	5850.00	5720.00
J45_47	5980.00	5720.00
J45_48	6110.00	5720.00
J45_49	6240.00	5720.00
J45_50	6370.00	5720.00
J45_51	6500.00	5720.00
J45_52	6630.00	5720.00
J45_53	6760.00	5720.00
J45_54	6890.00	5720.00
J45_55	7020.00	5720.00
J45_56	7150.00	5720.00
J45_57	7280.00	5720.00
J45_58	7410.00	5720.00
J45_59	7540.00	5720.00
J45_60	7670.00	5720.00
J45_61	7800.00	5720.00
J45_62	7930.00	5720.00
J45_63	8060.00	5720.00
J45_64	8190.00	5720.00
J45_65	8320.00	5720.00
J45_66	8450.00	5720.00
J46_1	0.00	5850.00
J46_2	130.00	5850.00
J46_3	260.00	5850.00
J46_4	390.00	5850.00
J46_5	520.00	5850.00
J46_6	650.00	5850.00
J46_7	780.00	5850.00
J46_8	910.00	5850.00
J46_9	1040.00	5850.00
J46_10	1170.00	5850.00
J46_11	1300.00	5850.00
J46_12	1430.00	5850.00
J46_13	1560.00	5850.00
J46_14	1690.00	5850.00
J46_15	1820.00	5850.00
J46_16	1950.00	5850.00
J46_17	2080.00	5850.00
J46_18	2210.00	5850.00
J46_19	2340.00	5850.00
J46_20	2470.00	5850.00
J46_21	2600.00	5850.00
J46_22	2730.00	5850.00
J46_23	2860.00	5850.00
J46_24	2990.00	5850.00
J46_25	3120.00	5850.00
J46_26	3250.00	5850.00
J46_27	3380.00	5850.00
J46_28	3510.00	5850.00
J46_29	3640.00	5850.00
J46_30	3770.00	5850.00
J46_31	3900.00	5850.00
J46_32	4030.00	5850.00
J46_33	4160.00	5850.00
J46_34	4290.00	5850.00
J46_35	4420.00	5850.00
J46_36	4550.00	5850.00
J46_37	4680.00	5850.00
J46_38	4810.00	5850.00
J46_39	4940.00	5850.00
J46_40	5070.00	5850.00
J46_41	5200.00	5850.00
J46_42	5330.00	5850.00
J46_43	5460.00	5850.00
J46_44	5590.00	5850.00
J46_45	5720.00	5850.00
J46_46	5850.00	5850.00
J46_47	5980.00	5850.00
J46_48	6110.00	5850.00
J46_49	6240.00	5850.00
J46_50	6370.00	5850.00
J46_51	6500.00	5850.00
J46_52	6630.00	5850.00
J46_53	6760.00	5850.00
J46_54	6890.00	5850.00
J46_55	7020.00	5850.00
J46_56	7150.00	5850.00
J46_57	7280.00	5850.00
J46_58	7410.00	5850.00
J46_59	7540.00	5850.00
J46_60	7670.00	5850.00
J46_61	7800.00	5850.00
J46_62	7930.00	5850.00
J46_63	8060.00	5850.00
J46_64	8190.00	5850.00
J46_65	8320.00	5850.00
J46_66	8450.00	5850.00
J47_1	0.00	5980.00
J47_2	130.00	5980.00
J47_3	260.00	5980.00
J47_4	390.00	5980.00
J47_5	520.00	5980.00
J47_6	650.00	5980.00
J47_7	780.00	5980.00
J47_8	910.00	5980.00
J47_9	1040.00	5980.00
J47_10	1170.00	5980.00
J47_11	1300.00	5980.00
J47_12	1430.00	5980.00
J47_13	1560.00	5980.00
J47_14	1690.00	5980.00
J47_15	1820.00	5980.00
J47_16	1950.00	5980.00
J47_17	2080.00	5980.00
J47_18	2210.00	5980.00
J47_19	2340.00	5980.00
J47_20	2470.00	5980.00
J47_21	2600.00	5980.00
J47_22	2730.00	5980.00
J47_23	2860.00	5980.00
J47_24	2990.00	5980.00
J47_25	3120.00	5980.00
J47_26	3250.00	5980.00
J47_27	3380.00	5980.00
J47_28	3510.00	5980.00
J47_29	3640.00	5980.00
J47_30	3770.00	5980.00
J47_31	3900.00	5980.00
J47_32	4030.00	5980.00
J47_33	4160.00	5980.00
J47_34	4290.00	5980.00
J47_35	4420.00	5980.00
J47_36	4550.00	5980.00
J47_37	4680.00	5980.00
J47_38	4810.00	5980.00
J47_39	4940.00	5980.00
J47_40	5070.00	5980.00
J47_41	5200.00	5980.00
J47_42	5330.00	5980.00
J47_43	5460.00	5980.00
J47_44	5590.00	5980.00
J47_45	5720.00	5980.00
J47_46	5850.00	5980.00
J47_47	5980.00	5980.00
J47_48	6110.00	5980.00
J47_49	6240.00	5980.00
J47_50	6370.00	5980.00
J47_51	6500.00	5980.00
J47_52	6630.00	5980.00
J47_53	6760.00	5980.00
J47_54	6890.00	5980.00
J47_55	7020.00	5980.00
J47_56	7150.00	5980.00
J47_57	7280.00	5980.00
J47_58	7410.00	5980.00
J47_59	7540.00	5980.00
J47_60	7670.00	5980.00
J47_61	7800.00	5980.00
J47_62	7930.00	5980.00
J47_63	8060.00	5980.00
J47_64	8190.00	5980.00
J47_65	8320.00	5980.00
J47_66	8450.00	5980.00
J48_1	0.00	6110.00
J48_2	130.00	6110.00
J48_3	260.00	6110.00
J48_4	390.00	6110.00
J48_5	520.00	6110.00
J48_6	650.00	6110.00
J48_7	780.00	6110.00
J48_8	910.00	6110.00
J48_9	1040.00	6110.00
J48_10	1170.00	6110.00
J48_11	1300.00	6110.00
J48_12	1430.00	6110.00
J48_13	1560.00	6110.00
J48_14	1690.00	6110.00
J48_15	1820.00	6110.00
J48_16	1950.00	6110.00
J48_17	2080.00	6110.00
J48_18	2210.00	6110.00
J48_19	2340.00	6110.00
J48_20	2470.00	6110.00
J48_21	2600.00	6110.00
J48_22	2730.00	6110.00
J48_23	2860.00	6110.00
J48_24	2990.00	6110.00
J48_25	3120.00	6110.00
J48_26	3250.00	6110.00
J48_27	3380.00	6110.00
J48_28	3510.00	6110.00
J48_29	3640.00	6110.00
J48_30	3770.00	6110.00
J48_31	3900.00	6110.00
J48_32	4030.00	6110.00
J48_33	4160.00	6110.00
J48_34	4290.00	6110.00
J48_35	4420.00	6110.00
J48_36	4550.00	6110.00
J48_37	4680.00	6110.00
J48_38	4810.00	6110.00
J48_39	4940.00	6110.00
J48_40	5070.00	6110.00
J48_41	5200.00	6110.00
J48_42	5330.00	6110.00
J48_43	5460.00	6110.00
J48_44	5590.00	6110.00
J48_45	5720.00	6110.00
J48_46	5850.00	6110.00
J48_47	5980.00	6110.00
J48_48	6110.00	6110.00
J48_49	6240.00	6110.00
J48_50	6370.00	6110.00
J48_51	6500.00	6110.00
J48_52	6630.00	6110.00
J48_53	6760.00	6110.00
J48_54	6890.00	6110.00
J48_55	7020.00	6110.00
J48_56	7150.00	6110.00
J48_57	7280.00	6110.00
J48_58	7410.00	6110.00
J48_59	7540.00	6110.00
J48_60	7670.00	6110.00
J48_61	7800.00	6110.00
J48_62	7930.00	6110.00
J48_63	8060.00	6110.00
J48_64	8190.00	6110.00
J48_65	8320.00	6110.00
J48_66	8450.00	6110.00
J49_1	0.00	6240.00
J49_2	130.00	6240.00
J49_3	260.00	6240.00
J49_4	390.00	6240.00
J49_5	520.00	6240.00
J49_6	650.00	6240.00
J49_7	780.00	6240.00
J49_8	910.00	6240.00
J49_9	1040.00	6240.00
J49_10	1170.00	6240.00
J49_11	1300.00	6240.00
J49_12	1430.00	6240.00
J49_13	1560.00	6240.00
J49_14	1690.00	6240.00
J49_15	1820.00	6240.00
J49_16	1950.00	6240.00
J49_17	2080.00	6240.00
J49_18	2210.00	6240.00
J49_19	2340.00	6240.00
J49_20	2470.00	6240.00
J49_21	2600.00	6240.00
J49_22	2730.00	6240.00
J49_23	2860.00	6240.00
J49_24	2990.00	6240.00
J49_25	3120.00	6240.00
J49_26	3250.00	6240.00
J49_27	3380.00	6240.00
J49_28	3510.00	6240.00
J49_29	3640.00	6240.00
J49_30	3770.00	6240.00
J49_31	3900.00	6240.00
J49_32	4030.00	6240.00
J49_33	4160.00	6240.00
J49_34	4290.00	6240.00
J49_35	4420.00	6240.00
J49_36	4550.00	6240.00
J49_37	4680.00	6240.00
J49_38	4810.00	6240.00
J49_39	4940.00	6240.00
J49_40	5070.00	6240.00
J49_41	5200.00	6240.00
J49_42	5330.00	6240.00
J49_43	5460.00	6240.00
J49_44	5590.00	6240.00
J49_45	5720.00	6240.00
J49_46	5850.00	6240.00
J49_47	5980.00	6240.00
J49_48	6110.00	6240.00
J49_49	6240.00	6240.00
J49_50	6370.00	6240.00
J49_51	6500.00	6240.00
J49_52	6630.00	6240.00
J49_53	6760.00	6240.00
J49_54	6890.00	6240.00
J49_55	7020.00	6240.00
J49_56	7150.00	6240.00
J49_57	7280.00	6240.00
J49_58	7410.00	6240.00
J49_59	7540.00	6240.00
J49_60	7670.00	6240.00
J49_61	7800.00	6240.00
J49_62	7930.00	6240.00
J49_63	8060.00	6240.00
J49_64	8190.00	6240.00
J49_65	8320.00	6240.00
J49_66	8450.00	6240.00
J50_1	0.00	6370.00
J50_2	130.00	6370.00
J50_3	260.00	6370.00
J50_4	390.00	6370.00
J50_5	520.00	6370.00
J50_6	650.00	6370.00
J50_7	780.00	6370.00
J50_8	910.00	6370.00
J50_9	1040.00	6370.00
J50_10	1170.00	6370.00
J50_11	1300.00	6370.00
J50_12	1430.00	6370.00
J50_13	1560.00	6370.00
J50_14	1690.00	6370.00
J50_15	1820.00	6370.00
J50_16	1950.00	6370.00
J50_17	2080.00	6370.00
J50_18	2210.00	6370.00
J50_19	2340.00	6370.00
J50_20	2470.00	6370.00
J50_21	2600.00	6370.00
J50_22	2730.00	6370.00
J50_23	2860.00	6370.00
J50_24	2990.00	6370.00
J50_25	3120.00	6370.00
J50_26	3250.00	6370.00
J50_27	3380.00	6370.00
J50_28	3510.00	6370.00
J50_29	3640.00	6370.00
J50_30	3770.00	6370.00
J50_31	3900.00	6370.00
J50_32	4030.00	6370.00
J50_33	4160.00	6370.00
J50_34	4290.00	6370.00
J50_35	4420.00	6370.00
J50_36	4550.00	6370.00
J50_37	4680.00	6370.00
J50_38	4810.00	6370.00
J50_39	4940.00	6370.00
J50_40	5070.00	6370.00
J50_41	5200.00	6370.00
J50_42	5330.00	6370.00
J50_43	5460.00	6370.00
J50_44	5590.00	6370.00
J50_45	5720.00	6370.00
J50_46	5850.00	6370.00
J50_47	5980.00	6370.00
J50_48	6110.00	6370.00
J50_49	6240.00	6370.00
J50_50	6370.00	6370.00
J50_51	6500.00	6370.00
J50_52	6630.00	6370.00
J50_53	6760.00	6370.00
J50_54	6890.00	6370.00
J50_55	7020.00	6370.00
J50_56	7150.00	6370.00
J50_57	7280.00	6370.00
J50_58	7410.00	6370.00
J50_59	7540.00	6370.00
J50_60	7670.00	6370.00
J50_61	7800.00	6370.00
J50_62	7930.00	6370.00
J50_63	8060.00	6370.00
J50_64	8190.00	6370.00
J50_65	8320.00	6370.00
J50_66	8450.00	6370.00
J51_1	0.00	6500.00
J51_2	130.00	6500.00
J51_3	260.00	6500.00
J51_4	390.00	6500.00
J51_5	520.00	6500.00
J51_6	650.00	6500.00
J51_7	780.00	6500.00
J51_8	910.00	6500.00
J51_9	1040.00	6500.00
J51_10	1170.00	6500.00
J51_11	1300.00	6500.00
J51_12	1430.00	6500.00
J51_13	1560.00	6500.00
J51_14	1690.00	6500.00
J51_15	1820.00	6500.00
J51_16	1950.00	6500.00
J51_17	2080.00	6500.00
J51_18	2210.00	6500.00
J51_19	2340.00	6500.00
J51_20	2470.00	6500.00
J51_21	2600.00	6500.00
J51_22	2730.00	6500.00
J51_23	2860.00	6500.00
J51_24	2990.00	6500.00
J51_25	3120.00	6500.00
J51_26	3250.00	6500.00
J51_27	3380.00	6500.00
J51_28	3510.00	6500.00
J51_29	3640.00	6500.00
J51_30	3770.00	6500.00
J51_31	3900.00	6500.00
J51_32	4030.00	6500.00
J51_33	4160.00	6500.00
J51_34	4290.00	6500.00
J51_35	4420.00	6500.00
J51_36	4550.00	6500.00
J51_37	4680.00	6500.00
J51_38	4810.00	6500.00
J51_39	4940.00	6500.00
J51_40	5070.00	6500.00
J51_41	5200.00	6500.00
J51_42	5330.00	6500.00
J51_43	5460.00	6500.00
J51_44	5590.00	6500.00
J51_45	5720.00	6500.00
J51_46	5850.00	6500.00
J51_47	5980.00	6500.00
J51_48	6110.00	6500.00
J51_49	6240.00	6500.00
J51_50	6370.00	6500.00
J51_51	6500.00	6500.00
J51_52	6630.00	6500.00
J51_53	6760.00	6500.00
J51_54	6890.00	6500.00
J51_55	7020.00	6500.00
J51_56	7150.00	6500.00
J51_57	7280.00	6500.00
J51_58	7410.00	6500.00
J51_59	7540.00	6500.00
J51_60	7670.00	6500.00
J51_61	7800.00	6500.00
J51_62	7930.00	6500.00
J51_63	8060.00	6500.00
J51_64	8190.00	6500.00
J51_65	8320.00	6500.00
J51_66	8450.00	6500.00
J52_1	0.00	6630.00
J52_2	130.00	6630.00
J52_3	260.00	6630.00
J52_4	390.00	6630.00
J52_5	520.00	6630.00
J52_6	650.00	6630.00
J52_7	780.00	6630.00
J52_8	910.00	6630.00
J52_9	1040.00	6630.00
J52_10	1170.00	6630.00
J52_11	1300.00	6630.00
J52_12	1430.00	6630.00
J52_13	1560.00	6630.00
J52_14	1690.00	6630.00
J52_15	1820.00	6630.00
J52_16	1950.00	6630.00
J52_17	2080.00	6630.00
J52_18	2210.00	6630.00
J52_19	2340.00	6630.00
J52_20	2470.00	6630.00
J52_21	2600.00	6630.00
J52_22	2730.00	6630.00
J52_23	2860.00	6630.00
J52_24	2990.00	6630.00
J52_25	3120.00	6630.00
J52_26	3250.00	6630.00
J52_27	3380.00	6630.00
J52_28	3510.00	6630.00
J52_29	3640.00	6630.00
J52_30	3770.00	6630.00
J52_31	3900.00	6630.00
J52_32	4030.00	6630.00
J52_33	4160.00	6630.00
J52_34	4290.00	6630.00
J52_35	4420.00	6630.00
J52_36	4550.00	6630.00
J52_37	4680.00	6630.00
J52_38	4810.00	6630.00
J52_39	4940.00	6630.00
J52_40	5070.00	6630.00
J52_41	5200.00	6630.00
J52_42	5330.00	6630.00
J52_43	5460.00	6630.00
J52_44	5590.00	6630.00
J52_45	5720.00	6630.00
J52_46	5850.00	6630.00
J52_47	5980.00	6630.00
J52_48	6110.00	6630.00
J52_49	6240.00	6630.00
J52_50	6370.00	6630.00
J52_51	6500.00	6630.00
J52_52	6630.00	6630.00
J52_53	6760.00	6630.00
J52_54	6890.00	6630.00
J52_55	7020.00	6630.00
J52_56	7150.00	6630.00
J52_57	7280.00	6630.00
J52_58	7410.00	6630.00
J52_59	7540.00	6630.00
J52_60	7670.00	6630.00
J52_61	7800.00	6630.00
J52_62	7930.00	6630.00
J52_63	8060.00	6630.00
J52_64	8190.00	6630.00
J52_65	8320.00	6630.00
J52_66	8450.00	6630.00
J53_1	0.00	6760.00
J53_2	130.00	6760.00
J53_3	260.00	6760.00
J53_4	390.00	6760.00
J53_5	520.00	6760.00
J53_6	650.00	6760.00
J53_7	780.00	6760.00
J53_8	910.00	6760.00
J53_9	1040.00	6760.00
J53_10	1170.00	6760.00
J53_11	1300.00	6760.00
J53_12	1430.00	6760.00
J53_13	1560.00	6760.00
J53_14	1690.00	6760.00
J53_15	1820.00	6760.00
J53_16	1950.00	6760.00
J53_17	2080.00	6760.00
J53_18	2210.00	6760.00
J53_19	2340.00	6760.00
J53_20	2470.00	6760.00
J53_21	2600.00	6760.00
J53_22	2730.00	6760.00
J53_23	2860.00	6760.00
J53_24	2990.00	6760.00
J53_25	3120.00	6760.00
J53_26	3250.00	6760.00
J53_27	3380.00	6760.00
J53_28	3510.00	6760.00
J53_29	3640.00	6760.00
J53_30	3770.00	6760.00
J53_31	3900.00	6760.00
J53_32	4030.00	6760.00
J53_33	4160.00	6760.00
J53_34	4290.00	6760.00
J53_35	4420.00	6760.00
J53_36	4550.00	6760.00
J53_37	4680.00	6760.00
J53_38	4810.00	6760.00
J53_39	4940.00	6760.00
J53_40	5070.00	6760.00
J53_41	5200.00	6760.00
J53_42	5330.00	6760.00
J53_43	5460.00	6760.00
J53_44	5590.00	6760.00
J53_45	5720.00	6760.00
J53_46	5850.00	6760.00
J53_47	5980.00	6760.00
J53_48	6110.00	6760.00
J53_49	6240.00	6760.00
J53_50	6370.00	6760.00
J53_51	6500.00	6760.00
J53_52	6630.00	6760.00
J53_53	6760.00	6760.00
J53_54	6890.00	6760.00
J53_55	7020.00	6760.00
J53_56	7150.00	6760.00
J53_57	7280.00	6760.00
J53_58	7410.00	6760.00
J53_59	7540.00	6760.00
J53_60	7670.00	6760.00
J53_61	7800.00	6760.00
J53_62	7930.00	6760.00
J53_63	8060.00	6760.00
J53_64	8190.00	6760.00
J53_65	8320.00	6760.00
J53_66	8450.00	6760.00
J54_1	0.00	6890.00
J54_2	130.00	6890.00
J54_3	260.00	6890.00
J54_4	390.00	6890.00
J54_5	520.00	6890.00
J54_6	650.00	6890.00
J54_7	780.00	6890.00
J54_8	910.00	6890.00
J54_9	1040.00	6890.00
J54_10	1170.00	6890.00
J54_11	1300.00	6890.00
J54_12	1430.00	6890.00
J54_13	1560.00	6890.00
J54_14	1690.00	6890.00
J54_15	1820.00	6890.00
J54_16	1950.00	6890.00
J54_17	2080.00	6890.00
J54_18	2210.00	6890.00
J54_19	2340.00	6890.00
J54_20	2470.00	6890.00
J54_21	2600.00	6890.00
J54_22	2730.00	6890.00
J54_23	2860.00	6890.00
J54_24	2990.00	6890.00
J54_25	3120.00	6890.00
J54_26	3250.00	6890.00
J54_27	3380.00	6890.00
J54_28	3510.00	6890.00
J54_29	3640.00	6890.00
J54_30	3770.00	6890.00
J54_31	3900.00	6890.00
J54_32	4030.00	6890.00
J54_33	4160.00	6890.00
J54_34	4290.00	6890.00
J54_35	4420.00	6890.00
J54_36	4550.00	6890.00
J54_37	4680.00	6890.00
J54_38	4810.00	6890.00
J54_39	4940.00	6890.00
J54_40	5070.00	6890.00
J54_41	5200.00	6890.00
J54_42	5330.00	6890.00
J54_43	5460.00	6890.00
J54_44	5590.00	6890.00
J54_45	5720.00	6890.00
J54_46	5850.00	6890.00
J54_47	5980.00	6890.00
J54_48	6110.00	6890.00
J54_49	6240.00	6890.00
J54_50	6370.00	6890.00
J54_51	6500.00	6890.00
J54_52	6630.00	6890.00
J54_53	6760.00	6890.00
J54_54	6890.00	6890.00
J54_55	7020.00	6890.00
J54_56	7150.00	6890.00
J54_57	7280.00	6890.00
J54_58	7410.00	6890.00
J54_59	7540.00	6890.00
J54_60	7670.00	6890.00
J54_61	7800.00	6890.00
J54_62	7930.00	6890.00
J54_63	8060.00	6890.00
J54_64	8190.00	6890.00
J54_65	8320.00	6890.00
J54_66	8450.00	6890.00
J55_1	0.00	7020.00
J55_2	130.00	7020.00
J55_3	260.00	7020.00
J55_4	390.00	7020.00
J55_5	520.00	7020.00
J55_6	650.00	7020.00
J55_7	780.00	7020.00
J55_8	910.00	7020.00
J55_9	1040.00	7020.00
J55_10	1170.00	7020.00
J55_11	1300.00	7020.00
J55_12	1430.00	7020.00
J55_13	1560.00	7020.00
J55_14	1690.00	7020.00
J55_15	1820.00	7020.00
J55_16	1950.00	7020.00
J55_17	2080.00	7020.00
J55_18	2210.00	7020.00
J55_19	2340.00	7020.00
J55_20	2470.00	7020.00
J55_21	2600.00	7020.00
J55_22	2730.00	7020.00
J55_23	2860.00	7020.00
J55_24	2990.00	7020.00
J55_25	3120.00	7020.00
J55_26	3250.00	7020.00
J55_27	3380.00	7020.00
J55_28	3510.00	7020.00
J55_29	3640.00	7020.00
J55_30	3770.00	7020.00
J55_31	3900.00	7020.00
J55_32	4030.00	7020.00
J55_33	4160.00	7020.00
J55_34	4290.00	7020.00
J55_35	4420.00	7020.00
J55_36	4550.00	7020.00
J55_37	4680.00	7020.00
J55_38	4810.00	7020.00
J55_39	4940.00	7020.00
J55_40	5070.00	7020.00
J55_41	5200.00	7020.00
J55_42	5330.00	7020.00
J55_43	5460.00	7020.00
J55_44	5590.00	7020.00
J55_45	5720.00	7020.00
J55_46	5850.00	7020.00
J55_47	5980.00	7020.00
J55_48	6110.00	7020.00
J55_49	6240.00	7020.00
J55_50	6370.00	7020.00
J55_51	6500.00	7020.00
J55_52	6630.00	7020.00
J55_53	6760.00	7020.00
J55_54	6890.00	7020.00
J55_55	7020.00	7020.00
J55_56	7150.00	7020.00
J55_57	7280.00	7020.00
J55_58	7410.00	7020.00
J55_59	7540.00	7020.00
J55_60	7670.00	7020.00
J55_61	7800.00	7020.00
J55_62	7930.00	7020.00
J55_63	8060.00	7020.00
J55_64	8190.00	7020.00
J55_65	8320.00	7020.00
J55_66	8450.00	7020.00
J56_1	0.00	7150.00
J56_2	130.00	7150.00
J56_3	260.00	7150.00
J56_4	390.00	7150.00
J56_5	520.00	7150.00
J56_6	650.00	7150.00
J56_7	780.00	7150.00
J56_8	910.00	7150.00
J56_9	1040.00	7150.00
J56_10	1170.00	7150.00
J56_11	1300.00	7150.00
J56_12	1430.00	7150.00
J56_13	1560.00	7150.00
J56_14	1690.00	7150.00
J56_15	1820.00	7150.00
J56_16	1950.00	7150.00
J56_17	2080.00	7150.00
J56_18	2210.00	7150.00
J56_19	2340.00	7150.00
J56_20	2470.00	7150.00
J56_21	2600.00	7150.00
J56_22	2730.00	7150.00
J56_23	2860.00	7150.00
J56_24	2990.00	7150.00
J56_25	3120.00	7150.00
J56_26	3250.00	7150.00
J56_27	3380.00	7150.00
J56_28	3510.00	7150.00
J56_29	3640.00	7150.00
J56_30	3770.00	7150.00
J56_31	3900.00	7150.00
J56_32	4030.00	7150.00
J56_33	4160.00	7150.00
J56_34	4290.00	7150.00
J56_35	4420.00	7150.00
J56_36	4550.00	7150.00
J56_37	4680.00	7150.00
J56_38	4810.00	7150.00
J56_39	4940.00	7150.00
J56_40	5070.00	7150.00
J56_41	5200.00	7150.00
J56_42	5330.00	7150.00
J56_43	5460.00	7150.00
J56_44	5590.00	7150.00
J56_45	5720.00	7150.00
J56_46	5850.00	7150.00
J56_47	5980.00	7150.00
J56_48	6110.00	7150.00
J56_49	6240.00	7150.00
J56_50	6370.00	7150.00
J56_51	6500.00	7150.00
J56_52	6630.00	7150.00
J56_53	6760.00	7150.00
J56_54	6890.00	7150.00
J56_55	7020.00	7150.00
J56_56	7150.00	7150.00
J56_57	7280.00	7150.00
J56_58	7410.00	7150.00
J56_59	7540.00	7150.00
J56_60	7670.00	7150.00
J56_61	7800.00	7150.00
J56_62	7930.00	7150.00
J56_63	8060.00	7150.00
J56_64	8190.00	7150.00
J56_65	8320.00	7150.00
J56_66	8450.00	7150.00
J57_1	0.00	7280.00
J57_2	130.00	7280.00
J57_3	260.00	7280.00
J57_4	390.00	7280.00
J57_5	520.00	7280.00
J57_6	650.00	7280.00
J57_7	780.00	7280.00
J57_8	910.00	7280.00
J57_9	1040.00	7280.00
J57_10	1170.00	7280.00
J57_11	1300.00	7280.00
J57_12	1430.00	7280.00
J57_13	1560.00	7280.00
J57_14	1690.00	7280.00
J57_15	1820.00	7280.00
J57_16	1950.00	7280.00
J57_17	2080.00	7280.00
J57_18	2210.00	7280.00
J57_19	2340.00	7280.00
J57_20	2470.00	7280.00
J57_21	2600.00	7280.00
J57_22	2730.00	7280.00
J57_23	2860.00	7280.00
J57_24	2990.00	7280.00
J57_25	3120.00	7280.00
J57_26	3250.00	7280.00
J57_27	3380.00	7280.00
J57_28	3510.00	7280.00
J57_29	3640.00	7280.00
J57_30	3770.00	7280.00
J57_31	3900.00	7280.00
J57_32	4030.00	7280.00
J57_33	4160.00	7280.00
J57_34	4290.00	7280.00
J57_35	4420.00	7280.00
J57_36	4550.00	7280.00
J57_37	4680.00	7280.00
J57_38	4810.00	7280.00
J57_39	4940.00	7280.00
J57_40	5070.00	7280.00
J57_41	5200.00	7280.00
J57_42	5330.00	7280.00
J57_43	5460.00	7280.00
J57_44	5590.00	7280.00
J57_45	5720.00	7280.00
J57_46	5850.00	7280.00
J57_47	5980.00	7280.00
J57_48	6110.00	7280.00
J57_49	6240.00	7280.00
J57_50	6370.00	7280.00
J57_51	6500.00	7280.00
J57_52	6630.00	7280.00
J57_53	6760.00	7280.00
J57_54	6890.00	7280.00
J57_55	7020.00	7280.00
J57_56	7150.00	7280.00
J57_57	7280.00	7280.00
J57_58	7410.00	7280.00
J57_59	7540.00	7280.00
J57_60	7670.00	7280.00
J57_61	7800.00	7280.00
J57_62	7930.00	7280.00
J57_63	8060.00	7280.00
J57_64	8190.00	7280.00
J57_65	8320.00	7280.00
J57_66	8450.00	7280.00
J58_1	0.00	7410.00
J58_2	130.00	7410.00
J58_3	260.00	7410.00
J58_4	390.00	7410.00
J58_5	520.00	7410.00
J58_6	650.00	7410.00
J58_7	780.00	7410.00
J58_8	910.00	7410.00
J58_9	1040.00	7410.00
J58_10	1170.00	7410.00
J58_11	1300.00	7410.00
J58_12	1430.00	7410.00
J58_13	1560.00	7410.00
J58_14	1690.00	7410.00
J58_15	1820.00	7410.00
J58_16	1950.00	7410.00
J58_17	2080.00	7410.00
J58_18	2210.00	7410.00
J58_19	2340.00	7410.00
J58_20	2470.00	7410.00
J58_21	2600.00	7410.00
J58_22	2730.00	7410.00
J58_23	2860.00	7410.00
J58_24	2990.00	7410.00
J58_25	3120.00	7410.00
J58_26	3250.00	7410.00
J58_27	3380.00	7410.00
J58_28	3510.00	7410.00
J58_29	3640.00	7410.00
J58_30	3770.00	7410.00
J58_31	3900.00	7410.00
J58_32	4030.00	7410.00
J58_33	4160.00	7410.00
J58_34	4290.00	7410.00
J58_35	4420.00	7410.00
J58_36	4550.00	7410.00
J58_37	4680.00	7410.00
J58_38	4810.00	7410.00
J58_39	4940.00	7410.00
J58_40	5070.00	7410.00
J58_41	5200.00	7410.00
J58_42	5330.00	7410.00
J58_43	5460.00	7410.00
J58_44	5590.00	7410.00
J58_45	5720.00	7410.00
J58_46	5850.00	7410.00
J58_47	5980.00	7410.00
J58_48	6110.00	7410.00
J58_49	6240.00	7410.00
J58_50	6370.00	7410.00
J58_51	6500.00	7410.00
J58_52	6630.00	7410.00
J58_53	6760.00	7410.00
J58_54	6890.00	7410.00
J58_55	7020.00	7410.00
J58_56	7150.00	7410.00
J58_57	7280.00	7410.00
J58_58	7410.00	7410.00
J58_59	7540.00	7410.00
J58_60	7670.00	7410.00
J58_61	7800.00	7410.00
J58_62	7930.00	7410.00
J58_63	8060.00	7410.00
J58_64	8190.00	7410.00
J58_65	8320.00	7410.00
J58_66	8450.00	7410.00
J59_1	0.00	7540.00
J59_2	130.00	7540.00
J59_3	260.00	7540.00
J59_4	390.00	7540.00
J59_5	520.00	7540.00
J59_6	650.00	7540.00
J59_7	780.00	7540.00
J59_8	910.00	7540.00
J59_9	1040.00	7540.00
J59_10	1170.00	7540.00
J59_11	1300.00	7540.00
J59_12	1430.00	7540.00
J59_13	1560.00	7540.00
J59_14	1690.00	7540.00
J59_15	1820.00	7540.00
J59_16	1950.00	7540.00
J59_17	2080.00	7540.00
J59_18	2210.00	7540.00
J59_19	2340.00	7540.00
J59_20	2470.00	7540.00
J59_21	2600.00	7540.00
J59_22	2730.00	7540.00
J59_23	2860.00	7540.00
J59_24	2990.00	7540.00
J59_25	3120.00	7540.00
J59_26	3250.00	7540.00
J59_27	3380.00	7540.00
J59_28	3510.00	7540.00
J59_29	3640.00	7540.00
J59_30	3770.00	7540.00
J59_31	3900.00	7540.00
J59_32	4030.00	7540.00
J59_33	4160.00	7540.00
J59_34	4290.00	7540.00
J59_35	4420.00	7540.00
J59_36	4550.00	7540.00
J59_37	4680.00	7540.00
J59_38	4810.00	7540.00
J59_39	4940.00	7540.00
J59_40	5070.00	7540.00
J59_41	5200.00	7540.00
J59_42	5330.00	7540.00
J59_43	5460.00	7540.00
J59_44	5590.00	7540.00
J59_45	5720.00	7540.00
J59_46	5850.00	7540.00
J59_47	5980.00	7540.00
J59_48	6110.00	7540.00
J59_49	6240.00	7540.00
J59_50	6370.00	7540.00
J59_51	6500.00	7540.00
J59_52	6630.00	7540.00
J59_53	6760.00	7540.00
J59_54	6890.00	7540.00
J59_55	7020.00	7540.00
J59_56	7150.00	7540.00
J59_57	7280.00	7540.00
J59_58	7410.00	7540.00
J59_59	7540.00	7540.00
J59_60	7670.00	7540.00
J59_61	7800.00	7540.00
J59_62	7930.00	7540.00
J59_63	8060.00	7540.00
J59_64	8190.00	7540.00
J59_65	8320.00	7540.00
J59_66	8450.00	7540.00
J60_1	0.00	7670.00
J60_2	130.00	7670.00
J60_3	260.00	7670.00
J60_4	390.00	7670.00
J60_5	520.00	7670.00
J60_6	650.00	7670.00
J60_7	780.00	7670.00
J60_8	910.00	7670.00
J60_9	1040.00	7670.00
J60_10	1170.00	7670.00
J60_11	1300.00	7670.00
J60_12	1430.00	7670.00
J60_13	1560.00	7670.00
J60_14	1690.00	7670.00
J60_15	1820.00	7670.00
J60_16	1950.00	7670.00
J60_17	2080.00	7670.00
J60_18	2210.00	7670.00
J60_19	2340.00	7670.00
J60_20	2470.00	7670.00
J60_21	2600.00	7670.00
J60_22	2730.00	7670.00
J60_23	2860.00	7670.00
J60_24	2990.00	7670.00
J60_25	3120.00	7670.00
J60_26	3250.00	7670.00
J60_27	3380.00	7670.00
J60_28	3510.00	7670.00
J60_29	3640.00	7670.00
J60_30	3770.00	7670.00
J60_31	3900.00	7670.00
J60_32	4030.00	7670.00
J60_33	4160.00	7670.00
J60_34	4290.00	7670.00
J60_35	4420.00	7670.00
J60_36	4550.00	7670.00
J60_37	4680.00	7670.00
J60_38	4810.00	7670.00
J60_39	4940.00	7670.00
J60_40	5070.00	7670.00
J60_41	5200.00	7670.00
J60_42	5330.00	7670.00
J60_43	5460.00	7670.00
J60_44	5590.00	7670.00
J60_45	5720.00	7670.00
J60_46	5850.00	7670.00
J60_47	5980.00	7670.00
J60_48	6110.00	7670.00
J60_49	6240.00	7670.00
J60_50	6370.00	7670.00
J60_51	6500.00	7670.00
J60_52	6630.00	7670.00
J60_53	6760.00	7670.00
J60_54	6890.00	7670.00
J60_55	7020.00	7670.00
J60_56	7150.00	7670.00
J60_57	7280.00	7670.00
J60_58	7410.00	7670.00
J60_59	7540.00	7670.00
J60_60	7670.00	7670.00
J60_61	7800.00	7670.00
J60_62	7930.00	7670.00
J60_63	8060.00	7670.00
J60_64	8190.00	7670.00
J60_65	8320.00	7670.00
J60_66	8450.00	7670.00
J61_1	0.00	7800.00
J61_2	130.00	7800.00
J61_3	260.00	7800.00
J61_4	390.00	7800.00
J61_5	520.00	7800.00
J61_6	650.00	7800.00
J61_7	780.00	7800.00
J61_8	910.00	7800.00
J61_9	1040.00	7800.00
J61_10	1170.00	7800.00
J61_11	1300.00	7800.00
J61_12	1430.00	7800.00
J61_13	1560.00	7800.00
J61_14	1690.00	7800.00
J61_15	1820.00	7800.00
J61_16	1950.00	7800.00
J61_17	2080.00	7800.00
J61_18	2210.00	7800.00
J61_19	2340.00	7800.00
J61_20	2470.00	7800.00
J61_21	2600.00	7800.00
J61_22	2730.00	7800.00
J61_23	2860.00	7800.00
J61_24	2990.00	7800.00
J61_25	3120.00	7800.00
J61_26	3250.00	7800.00
J61_27	3380.00	7800.00
J61_28	3510.00	7800.00
J61_29	3640.00	7800.00
J61_30	3770.00	7800.00
J61_31	3900.00	7800.00
J61_32	4030.00	7800.00
J61_33	4160.00	7800.00
J61_34	4290.00	7800.00
J61_35	4420.00	7800.00
J61_36	4550.00	7800.00
J61_37	4680.00	7800.00
J61_38	4810.00	7800.00
J61_39	4940.00	7800.00
J61_40	5070.00	7800.00
J61_41	5200.00	7800.00
J61_42	5330.00	7800.00
J61_43	5460.00	7800.00
J61_44	5590.00	7800.00
J61_45	5720.00	7800.00
J61_46	5850.00	7800.00
J61_47	5980.00	7800.00
J61_48	6110.00	7800.00
J61_49	6240.00	7800.00
J61_50	6370.00	7800.00
J61_51	6500.00	7800.00
J61_52	6630.00	7800.00
J61_53	6760.00	7800.00
J61_54	6890.00	7800.00
J61_55	7020.00	7800.00
J61_56	7150.00	7800.00
J61_57	7280.00	7800.00
J61_58	7410.00	7800.00
J61_59	7540.00	7800.00
J61_60	7670.00	7800.00
J61_61	7800.00	7800.00
J61_62	7930.00	7800.00
J61_63	8060.00	7800.00
J61_64	8190.00	7800.00
J61_65	8320.00	7800.00
J61_66	8450.00	7800.00
J62_1	0.00	7930.00
J62_2	130.00	7930.00
J62_3	260.00	7930.00
J62_4	390.00	7930.00
J62_5	520.00	7930.00
J62_6	650.00	7930.00
J62_7	780.00	7930.00
J62_8	910.00	7930.00
J62_9	1040.00	7930.00
J62_10	1170.00	7930.00
J62_11	1300.00	7930.00
J62_12	1430.00	7930.00
J62_13	1560.00	7930.00
J62_14	1690.00	7930.00
J62_15	1820.00	7930.00
J62_16	1950.00	7930.00
J62_17	2080.00	7930.00
J62_18	2210.00	7930.00
J62_19	2340.00	7930.00
J62_20	2470.00	7930.00
J62_21	2600.00	7930.00
J62_22	2730.00	7930.00
J62_23	2860.00	7930.00
J62_24	2990.00	7930.00
J62_25	3120.00	7930.00
J62_26	3250.00	7930.00
J62_27	3380.00	7930.00
J62_28	3510.00	7930.00
J62_29	3640.00	7930.00
J62_30	3770.00	7930.00
J62_31	3900.00	7930.00
J62_32	4030.00	7930.00
J62_33	4160.00	7930.00
J62_34	4290.00	7930.00
J62_35	4420.00	7930.00
J62_36	4550.00	7930.00
J62_37	4680.00	7930.00
J62_38	4810.00	7930.00
J62_39	4940.00	7930.00
J62_40	5070.00	7930.00
J62_41	5200.00	7930.00
J62_42	5330.00	7930.00
J62_43	5460.00	7930.00
J62_44	5590.00	7930.00
J62_45	5720.00	7930.00
J62_46	5850.00	7930.00
J62_47	5980.00	7930.00
J62_48	6110.00	7930.00
J62_49	6240.00	7930.00
J62_50	6370.00	7930.00
J62_51	6500.00	7930.00
J62_52	6630.00	7930.00
J62_53	6760.00	7930.00
J62_54	6890.00	7930.00
J62_55	7020.00	7930.00
J62_56	7150.00	7930.00
J62_57	7280.00	7930.00
J62_58	7410.00	7930.00
J62_59	7540.00	7930.00
J62_60	7670.00	7930.00
J62_61	7800.00	7930.00
J62_62	7930.00	7930.00
J62_63	8060.00	7930.00
J62_64	8190.00	7930.00
J62_65	8320.00	7930.00
J62_66	8450.00	7930.00
J63_1	0.00	8060.00
J63_2	130.00	8060.00
J63_3	260.00	8060.00
J63_4	390.00	8060.00
J63_5	520.00	8060.00
J63_6	650.00	8060.00
J63_7	780.00	8060.00
J63_8	910.00	8060.00
J63_9	1040.00	8060.00
J63_10	1170.00	8060.00
J63_11	1300.00	8060.00
J63_12	1430.00	8060.00
J63_13	1560.00	8060.00
J63_14	1690.00	8060.00
J63_15	1820.00	8060.00
J63_16	1950.00	8060.00
J63_17	2080.00	8060.00
J63_18	2210.00	8060.00
J63_19	2340.00	8060.00
J63_20	2470.00	8060.00
J63_21	2600.00	8060.00
J63_22	2730.00	8060.00
J63_23	2860.00	8060.00
J63_24	2990.00	8060.00
J63_25	3120.00	8060.00
J63_26	3250.00	8060.00
J63_27	3380.00	8060.00
J63_28	3510.00	8060.00
J63_29	3640.00	8060.00
J63_30	3770.00	8060.00
J63_31	3900.00	8060.00
J63_32	4030.00	8060.00
J63_33	4160.00	8060.00
J63_34	4290.00	8060.00
J63_35	4420.00	8060.00
J63_36	4550.00	8060.00
J63_37	4680.00	8060.00
J63_38	4810.00	8060.00
J63_39	4940.00	8060.00
J63_40	5070.00	8060.00
J63_41	5200.00	8060.00
J63_42	5330.00	8060.00
J63_43	5460.00	8060.00
J63_44	5590.00	8060.00
J63_45	5720.00	8060.00
J63_46	5850.00	8060.00
J63_47	5980.00	8060.00
J63_48	6110.00	8060.00
J63_49	6240.00	8060.00
J63_50	6370.00	8060.00
J63_51	6500.00	8060.00
J63_52	6630.00	8060.00
J63_53	6760.00	8060.00
J63_54	6890.00	8060.00
J63_55	7020.00	8060.00
J63_56	7150.00	8060.00
J63_57	7280.00	8060.00
J63_58	7410.00	8060.00
J63_59	7540.00	8060.00
J63_60	7670.00	8060.00
J63_61	7800.00	8060.00
J63_62	7930.00	8060.00
J63_63	8060.00	8060.00
J63_64	8190.00	8060.00
J63_65	8320.00	8060.00
J63_66	8450.00	8060.00
J64_1	0.00	8190.00
J64_2	130.00	8190.00
J64_3	260.00	8190.00
J64_4	390.00	8190.00
J64_5	520.00	8190.00
J64_6	650.00	8190.00
J64_7	780.00	8190.00
J64_8	910.00	8190.00
J64_9	1040.00	8190.00
J64_10	1170.00	8190.00
J64_11	1300.00	8190.00
J64_12	1430.00	8190.00
J64_13	1560.00	8190.00
J64_14	1690.00	8190.00
J64_15	1820.00	8190.00
J64_16	1950.00	8190.00
J64_17	2080.00	8190.00
J64_18	2210.00	8190.00
J64_19	2340.00	8190.00
J64_20	2470.00	8190.00
J64_21	2600.00	8190.00
J64_22	2730.00	8190.00
J64_23	2860.00	8190.00
J64_24	2990.00	8190.00
J64_25	3120.00	8190.00
J64_26	3250.00	8190.00
J64_27	3380.00	8190.00
J64_28	3510.00	8190.00
J64_29	3640.00	8190.00
J64_30	3770.00	8190.00
J64_31	3900.00	8190.00
J64_32	4030.00	8190.00
J64_33	4160.00	8190.00
J64_34	4290.00	8190.00
J64_35	4420.00	8190.00
J64_36	4550.00	8190.00
J64_37	4680.00	8190.00
J64_38	4810.00	8190.00
J64_39	4940.00	8190.00
J64_40	5070.00	8190.00
J64_41	5200.00	8190.00
J64_42	5330.00	8190.00
J64_43	5460.00	8190.00
J64_44	5590.00	8190.00
J64_45	5720.00	8190.00
J64_46	5850.00	8190.00
J64_47	5980.00	8190.00
J64_48	6110.00	8190.00
J64_49	6240.00	8190.00
J64_50	6370.00	8190.00
J64_51	6500.00	8190.00
J64_52	6630.00	8190.00
J64_53	6760.00	8190.00
J64_54	6890.00	8190.00
J64_55	7020.00	8190.00
J64_56	7150.00	8190.00
J64_57	7280.00	8190.00
J64_58	7410.00	8190.00
J64_59	7540.00	8190.00
J64_60	7670.00	8190.00
J64_61	7800.00	8190.00
J64_62	7930.00	8190.00
J64_63	8060.00	8190.00
J64_64	8190.00	8190.00
J64_65	8320.00	8190.00
J64_66	8450.00	8190.00
J65_1	0.00	8320.00
J65_2	130.00	8320.00
J65_3	260.00	8320.00
J65_4	390.00	8320.00
J65_5	520.00	8320.00
J65_6	650.00	8320.00
J65_7	780.00	8320.00
J65_8	910.00	8320.00
J65_9	1040.00	8320.00
J65_10	1170.00	8320.00
J65_11	1300.00	8320.00
J65_12	1430.00	8320.00
J65_13	1560.00	8320.00
J65_14	1690.00	8320.00
J65_15	1820.00	8320.00
J65_16	1950.00	8320.00
J65_17	2080.00	8320.00
J65_18	2210.00	8320.00
J65_19	2340.00	8320.00
J65_20	2470.00	8320.00
J65_21	2600.00	8320.00
J65_22	2730.00	8320.00
J65_23	2860.00	8320.00
J65_24	2990.00	8320.00
J65_25	3120.00	8320.00
J65_26	3250.00	8320.00
J65_27	3380.00	8320.00
J65_28	3510.00	8320.00
J65_29	3640.00	8320.00
J65_30	3770.00	8320.00
J65_31	3900.00	8320.00
J65_32	4030.00	8320.00
J65_33	4160.00	8320.00
J65_34	4290.00	8320.00
J65_35	4420.00	8320.00
J65_36	4550.00	8320.00
J65_37	4680.00	8320.00
J65_38	4810.00	8320.00
J65_39	4940.00	8320.00
J65_40	5070.00	8320.00
J65_41	5200.00	8320.00
J65_42	5330.00	8320.00
J65_43	5460.00	8320.00
J65_44	5590.00	8320.00
J65_45	5720.00	8320.00
J65_46	5850.00	8320.00
J65_47	5980.00	8320.00
J65_48	6110.00	8320.00
J65_49	6240.00	8320.00
J65_50	6370.00	8320.00
J65_51	6500.00	8320.00
J65_52	6630.00	8320.00
J65_53	6760.00	8320.00
J65_54	6890.00	8320.00
J65_55	7020.00	8320.00
J65_56	7150.00	8320.00
J65_57	7280.00	8320.00
J65_58	7410.00	8320.00
J65_59	7540.00	8320.00
J65_60	7670.00	8320.00
J65_61	7800.00	8320.00
J65_62	7930.00	8320.00
J65_63	8060.00	8320.00
J65_64	8190.00	8320.00
J65_65	8320.00	8320.00
J65_66	8450.00	8320.00
J66_1	0.00	8450.00
J66_2	130.00	8450.00
J66_3	260.00	8450.00
J66_4	390.00	8450.00
J66_5	520.00	8450.00
J66_6	650.00	8450.00
J66_7	780.00	8450.00
J66_8	910.00	8450.00
J66_9	1040.00	8450.00
J66_10	1170.00	8450.00
J66_11	1300.00	8450.00
J66_12	1430.00	8450.00
J66_13	1560.00	8450.00
J66_14	1690.00	8450.00
J66_15	1820.00	8450.00
J66_16	1950.00	8450.00
J66_17	2080.00	8450.00
J66_18	2210.00	8450.00
J66_19	2340.00	8450.00
J66_20	2470.00	8450.00
J66_21	2600.00	8450.00
J66_22	2730.00	8450.00
J66_23	2860.00	8450.00
J66_24	2990.00	8450.00
J66_25	3120.00	8450.00
J66_26	3250.00	8450.00
J66_27	3380.00	8450.00
J66_28	3510.00	8450.00
J66_29	3640.00	8450.00
J66_30	3770.00	8450.00
J66_31	3900.00	8450.00
J66_32	4030.00	8450.00
J66_33	4160.00	8450.00
J66_34	4290.00	8450.00
J66_35	4420.00	8450.00
J66_36	4550.00	8450.00
J66_37	4680.00	8450.00
J66_38	4810.00	8450.00
J66_39	4940.00	8450.00
J66_40	5070.00	8450.00
J66_41	5200.00	8450.00
J66_42	5330.00	8450.00
J66_43	5460.00	8450.00
J66_44	5590.00	8450.00
J66_45	5720.00	8450.00
J66_46	5850.00	8450.00
J66_47	5980.00	8450.00
J66_48	6110.00	8450.00
J66_49	6240.00	8450.00
J66_50	6370.00	8450.00
J66_51	6500.00	8450.00
J66_52	6630.00	8450.00
J66_53	6760.00	8450.00
J66_54	6890.00	8450.00
J66_55	7020.00	8450.00
J66_56	7150.00	8450.00
J66_57	7280.00	8450.00
J66_58	7410.00	8450.00
J66_59	7540.00	8450.00
J66_60	7670.00	8450.00
J66_61	7800.00	8450.00
J66_62	7930.00	8450.00
J66_63	8060.00	8450.00
J66_64	8190.00	8450.00
J66_65	8320.00	8450.00
J66_66	8450.00	8450.00
T1	1125.16	5039.94
T2	3159.51	4242.61
T3	5306.10	4250.81
T4	7313.07	3365.91


[END]
